TITLE="results for TO code"
VARIABLES = "x", "y", "z", "density", "sigmaxx", "sigmayy", "sigmazz", "sigmaxy", "sigmaxz", "sigmayz"
ZONE T="load step 1", NODES= 12221, ELEMENTS= 10000, DATAPACKING=POINT, ZONETYPE=FEBRICK
               0.00000000                0.00000000                0.00000000                1.00000000               -0.00000000               -0.00000000                1.83466287               -0.00000000                0.53498297                1.10012658
               1.00000000                0.00000000                0.00000000                1.00000000               -0.00000000                0.00000000                1.26007299                0.00000000                0.02993163                0.74792476
               2.00000000                0.00000000                0.00000000                1.00000000               -0.00000000               -0.00000000                0.66883091               -0.00000000               -0.16152955                0.37975804
               3.00000000                0.00000000                0.00000000                1.00000000               -0.00000000                0.00000000                0.14498106               -0.00000000               -0.14557520                0.08645893
               4.00000000                0.00000000                0.00000000                1.00000000                0.00000000                0.00000000               -0.01396037               -0.00000000               -0.03214046               -0.00751039
               5.00000000                0.00000000                0.00000000                1.00000000                0.00000000                0.00000000               -0.00586425                0.00000000                0.00172450               -0.00513335
               6.00000000                0.00000000                0.00000000                1.00000000               -0.00000000                0.00000000               -0.01410383               -0.00000000               -0.00439038               -0.00156524
               7.00000000                0.00000000                0.00000000                1.00000000                0.00000000               -0.00000000               -0.08663845               -0.00000000               -0.05324286               -0.09107163
               8.00000000                0.00000000                0.00000000                1.00000000               -0.00000000               -0.00000000               -0.76294543               -0.00000000               -0.05053907               -0.47063154
               9.00000000                0.00000000                0.00000000                1.00000000                0.00000000               -0.00000000               -1.56395366                0.00000000                0.24233892               -0.86818222
              10.00000000                0.00000000                0.00000000                1.00000000               -0.00000000                0.00000000               -2.25076049                0.00000000                0.86672013               -1.20737659
               0.00000000                1.00000000                0.00000000                1.00000000               -0.00000000               -0.00000000                1.48678209                0.00000000                0.73923507                0.58801368
               1.00000000                1.00000000                0.00000000                1.00000000                0.00000000                0.00000000                0.93256644               -0.00000000                0.26601820                0.36812284
               2.00000000                1.00000000                0.00000000                1.00000000               -0.00000000                0.00000000                0.40493776               -0.00000000                0.05480183                0.12097098
               3.00000000                1.00000000                0.00000000                1.00000000                0.00000000                0.00000000                0.04605876                0.00000000                0.00937338               -0.00665422
               4.00000000                1.00000000                0.00000000                1.00000000                0.00000000               -0.00000000               -0.00113295                0.00000000                0.00452834               -0.01455008
               5.00000000                1.00000000                0.00000000                1.00000000               -0.00000000               -0.00000000               -0.00089874               -0.00000000                0.00709386               -0.00373384
               6.00000000                1.00000000                0.00000000                1.00000000                0.00000000               -0.00000000               -0.00743468               -0.00000000                0.02324421                0.00378032
               7.00000000                1.00000000                0.00000000                1.00000000                0.00000000                0.00000000               -0.00851064               -0.00000000                0.06667117               -0.01847856
               8.00000000                1.00000000                0.00000000                1.00000000                0.00000000                0.00000000               -0.37698815                0.00000000                0.15340639               -0.15721991
               9.00000000                1.00000000                0.00000000                1.00000000               -0.00000000               -0.00000000               -1.08495083                0.00000000                0.45815729               -0.38963884
              10.00000000                1.00000000                0.00000000                1.00000000                0.00000000                0.00000000               -1.86327014                0.00000000                1.04573035               -0.56913518
               0.00000000                2.00000000                0.00000000                1.00000000                0.00000000                0.00000000                1.44200052               -0.00000000                0.81513210                0.31044627
               1.00000000                2.00000000                0.00000000                1.00000000                0.00000000                0.00000000                0.78913142               -0.00000000                0.32700294                0.17007061
               2.00000000                2.00000000                0.00000000                1.00000000                0.00000000               -0.00000000                0.17997414                0.00000000                0.11416616                0.01259254
               3.00000000                2.00000000                0.00000000                1.00000000               -0.00000000                0.00000000               -0.01656030               -0.00000000                0.04936155               -0.01081622
               4.00000000                2.00000000                0.00000000                1.00000000                0.00000000               -0.00000000                0.00355767                0.00000000                0.01973697               -0.00890312
               5.00000000                2.00000000                0.00000000                1.00000000               -0.00000000               -0.00000000               -0.00055118                0.00000000                0.01272482               -0.00384443
               6.00000000                2.00000000                0.00000000                1.00000000               -0.00000000                0.00000000               -0.00146326               -0.00000000                0.02530333               -0.00302652
               7.00000000                2.00000000                0.00000000                1.00000000                0.00000000                0.00000000               -0.00004357                0.00000000                0.06407964               -0.01920000
               8.00000000                2.00000000                0.00000000                1.00000000               -0.00000000               -0.00000000               -0.06685960                0.00000000                0.15574990               -0.02685784
               9.00000000                2.00000000                0.00000000                1.00000000               -0.00000000                0.00000000               -0.69578446                0.00000000                0.43283455               -0.13476649
              10.00000000                2.00000000                0.00000000                1.00000000                0.00000000                0.00000000               -1.76179909                0.00000000                1.03994301               -0.20789998
               0.00000000                3.00000000                0.00000000                1.00000000                0.00000000                0.00000000                1.38462140               -0.00000000                0.80996065                0.13493908
               1.00000000                3.00000000                0.00000000                1.00000000               -0.00000000               -0.00000000                0.65481571                0.00000000                0.33483602                0.05488801
               2.00000000                3.00000000                0.00000000                1.00000000               -0.00000000                0.00000000                0.03973631               -0.00000000                0.15726961               -0.03596653
               3.00000000                3.00000000                0.00000000                1.00000000                0.00000000               -0.00000000                0.00329237                0.00000000                0.06257560               -0.00957991
               4.00000000                3.00000000                0.00000000                1.00000000               -0.00000000               -0.00000000                0.00118081                0.00000000                0.02538918               -0.00449390
               5.00000000                3.00000000                0.00000000                1.00000000               -0.00000000                0.00000000               -0.00000305               -0.00000000                0.01509858               -0.00309592
               6.00000000                3.00000000                0.00000000                1.00000000                0.00000000                0.00000000               -0.00064324                0.00000000                0.02205582               -0.00531428
               7.00000000                3.00000000                0.00000000                1.00000000               -0.00000000               -0.00000000               -0.00894658               -0.00000000                0.04908072               -0.01156217
               8.00000000                3.00000000                0.00000000                1.00000000               -0.00000000                0.00000000                0.03153387                0.00000000                0.11955003               -0.02288954
               9.00000000                3.00000000                0.00000000                1.00000000                0.00000000                0.00000000               -0.41150629                0.00000000                0.32649818               -0.04302622
              10.00000000                3.00000000                0.00000000                1.00000000               -0.00000000               -0.00000000               -1.57197510                0.00000000                0.88581926               -0.00651250
               0.00000000                4.00000000                0.00000000                1.00000000               -0.00000000                0.00000000                1.31884917               -0.00000000                0.77673874                0.01643181
               1.00000000                4.00000000                0.00000000                1.00000000                0.00000000               -0.00000000                0.51072339                0.00000000                0.32568002               -0.02295107
               2.00000000                4.00000000                0.00000000                1.00000000                0.00000000                0.00000000               -0.07260810                0.00000000                0.17836725               -0.05004259
               3.00000000                4.00000000                0.00000000                1.00000000                0.00000000                0.00000000                0.01272472                0.00000000                0.06981747               -0.00554955
               4.00000000                4.00000000                0.00000000                1.00000000                0.00000000               -0.00000000                0.00091745               -0.00000000                0.02677332               -0.00206028
               5.00000000                4.00000000                0.00000000                1.00000000                0.00000000                0.00000000                0.00024104                0.00000000                0.01478974               -0.00212527
               6.00000000                4.00000000                0.00000000                1.00000000               -0.00000000               -0.00000000               -0.00093417                0.00000000                0.01815620               -0.00414589
               7.00000000                4.00000000                0.00000000                1.00000000               -0.00000000               -0.00000000               -0.00415458               -0.00000000                0.04008921               -0.00914947
               8.00000000                4.00000000                0.00000000                1.00000000               -0.00000000                0.00000000                0.01383883                0.00000000                0.09793773               -0.01626199
               9.00000000                4.00000000                0.00000000                1.00000000               -0.00000000               -0.00000000               -0.30547166               -0.00000000                0.27359737                0.01023504
              10.00000000                4.00000000                0.00000000                1.00000000               -0.00000000                0.00000000               -1.38554960                0.00000000                0.75302673                0.08371380
               0.00000000                5.00000000                0.00000000                1.00000000                0.00000000                0.00000000                1.24028157               -0.00000000                0.72247675               -0.06900532
               1.00000000                5.00000000                0.00000000                1.00000000                0.00000000                0.00000000                0.34270042                0.00000000                0.29380483               -0.06618385
               2.00000000                5.00000000                0.00000000                1.00000000               -0.00000000               -0.00000000               -0.11731423               -0.00000000                0.16603752               -0.03869561
               3.00000000                5.00000000                0.00000000                1.00000000               -0.00000000               -0.00000000                0.01587739                0.00000000                0.06684471               -0.00195781
               4.00000000                5.00000000                0.00000000                1.00000000                0.00000000               -0.00000000                0.00063451               -0.00000000                0.02589090               -0.00024992
               5.00000000                5.00000000                0.00000000                1.00000000               -0.00000000               -0.00000000                0.00035365                0.00000000                0.01354572               -0.00121745
               6.00000000                5.00000000                0.00000000                1.00000000                0.00000000                0.00000000               -0.00054887               -0.00000000                0.01500036               -0.00325779
               7.00000000                5.00000000                0.00000000                1.00000000               -0.00000000               -0.00000000               -0.00352178                0.00000000                0.03130500               -0.00777960
               8.00000000                5.00000000                0.00000000                1.00000000                0.00000000               -0.00000000                0.00943320               -0.00000000                0.07751903               -0.01366766
               9.00000000                5.00000000                0.00000000                1.00000000                0.00000000                0.00000000               -0.20804174                0.00000000                0.22232311                0.04554567
              10.00000000                5.00000000                0.00000000                1.00000000               -0.00000000               -0.00000000               -1.19803305                0.00000000                0.64553696                0.15022972
               0.00000000                6.00000000                0.00000000                1.00000000                0.00000000               -0.00000000                1.13109267               -0.00000000                0.64596041               -0.12476508
               1.00000000                6.00000000                0.00000000                1.00000000               -0.00000000                0.00000000                0.20360406                0.00000000                0.25614116               -0.08360805
               2.00000000                6.00000000                0.00000000                1.00000000                0.00000000               -0.00000000               -0.11063837                0.00000000                0.14488539               -0.02851279
               3.00000000                6.00000000                0.00000000                1.00000000               -0.00000000                0.00000000                0.01375466                0.00000000                0.06092464               -0.00065059
               4.00000000                6.00000000                0.00000000                1.00000000               -0.00000000                0.00000000                0.00077263                0.00000000                0.02401287                0.00063877
               5.00000000                6.00000000                0.00000000                1.00000000                0.00000000                0.00000000                0.00039147                0.00000000                0.01209636               -0.00056555
               6.00000000                6.00000000                0.00000000                1.00000000                0.00000000               -0.00000000               -0.00041285                0.00000000                0.01209007               -0.00244437
               7.00000000                6.00000000                0.00000000                1.00000000                0.00000000               -0.00000000               -0.00219759               -0.00000000                0.02319553               -0.00587713
               8.00000000                6.00000000                0.00000000                1.00000000                0.00000000                0.00000000                0.00400494                0.00000000                0.05251219               -0.00944103
               9.00000000                6.00000000                0.00000000                1.00000000               -0.00000000                0.00000000               -0.11546035               -0.00000000                0.14383741                0.05704085
              10.00000000                6.00000000                0.00000000                1.00000000                0.00000000                0.00000000               -0.88301930                0.00000000                0.51714623                0.20468758
               0.00000000                7.00000000                0.00000000                1.00000000               -0.00000000               -0.00000000                0.99855513               -0.00000000                0.56567172               -0.15692631
               1.00000000                7.00000000                0.00000000                1.00000000                0.00000000                0.00000000                0.10477638                0.00000000                0.23067939               -0.08853484
               2.00000000                7.00000000                0.00000000                1.00000000               -0.00000000                0.00000000               -0.11629629                0.00000000                0.13988381               -0.02145172
               3.00000000                7.00000000                0.00000000                1.00000000                0.00000000                0.00000000                0.01309225               -0.00000000                0.05865465                0.00079122
               4.00000000                7.00000000                0.00000000                1.00000000                0.00000000                0.00000000                0.00068647                0.00000000                0.02231295                0.00163593
               5.00000000                7.00000000                0.00000000                1.00000000               -0.00000000               -0.00000000                0.00040153                0.00000000                0.01048082               -0.00000511
               6.00000000                7.00000000                0.00000000                1.00000000                0.00000000                0.00000000               -0.00028690                0.00000000                0.00963538               -0.00190596
               7.00000000                7.00000000                0.00000000                1.00000000               -0.00000000                0.00000000               -0.00123704                0.00000000                0.01771362               -0.00351391
               8.00000000                7.00000000                0.00000000                1.00000000               -0.00000000               -0.00000000               -0.00033585               -0.00000000                0.03655060                0.00081320
               9.00000000                7.00000000                0.00000000                1.00000000                0.00000000                0.00000000               -0.04413736                0.00000000                0.08521057                0.06149768
              10.00000000                7.00000000                0.00000000                1.00000000               -0.00000000                0.00000000               -0.52658738                0.00000000                0.35324961                0.17769680
               0.00000000                8.00000000                0.00000000                1.00000000                0.00000000               -0.00000000                0.85948119                0.00000000                0.49486455               -0.18941193
               1.00000000                8.00000000                0.00000000                1.00000000                0.00000000                0.00000000                0.02653018                0.00000000                0.21539977               -0.07879752
               2.00000000                8.00000000                0.00000000                1.00000000               -0.00000000                0.00000000               -0.15166811                0.00000000                0.15043421               -0.00039627
               3.00000000                8.00000000                0.00000000                1.00000000               -0.00000000                0.00000000                0.01100329                0.00000000                0.06120017                0.01047809
               4.00000000                8.00000000                0.00000000                1.00000000                0.00000000               -0.00000000                0.00006635                0.00000000                0.02026673                0.00473442
               5.00000000                8.00000000                0.00000000                1.00000000               -0.00000000               -0.00000000                0.00052688               -0.00000000                0.00870972                0.00025823
               6.00000000                8.00000000                0.00000000                1.00000000               -0.00000000                0.00000000               -0.00015663                0.00000000                0.00769385               -0.00195733
               7.00000000                8.00000000                0.00000000                1.00000000                0.00000000                0.00000000               -0.00091603                0.00000000                0.01449751               -0.00345973
               8.00000000                8.00000000                0.00000000                1.00000000                0.00000000               -0.00000000               -0.00146160               -0.00000000                0.03747474                0.00702088
               9.00000000                8.00000000                0.00000000                1.00000000               -0.00000000               -0.00000000               -0.00721088                0.00000000                0.08109268                0.08177605
              10.00000000                8.00000000                0.00000000                1.00000000               -0.00000000                0.00000000               -0.40126037               -0.00000000                0.27040451                0.14588834
               0.00000000                9.00000000                0.00000000                1.00000000                0.00000000                0.00000000                0.69300897               -0.00000000                0.39215215               -0.26705635
               1.00000000                9.00000000                0.00000000                1.00000000               -0.00000000               -0.00000000               -0.03637041                0.00000000                0.19211251               -0.04279143
               2.00000000                9.00000000                0.00000000                1.00000000                0.00000000               -0.00000000               -0.28470255               -0.00000000                0.17087767                0.08440369
               3.00000000                9.00000000                0.00000000                1.00000000               -0.00000000                0.00000000               -0.02462163                0.00000000                0.06934239                0.05040888
               4.00000000                9.00000000                0.00000000                1.00000000                0.00000000               -0.00000000                0.00351970               -0.00000000                0.01894927                0.00971283
               5.00000000                9.00000000                0.00000000                1.00000000               -0.00000000               -0.00000000                0.00029274               -0.00000000                0.00961876               -0.00083891
               6.00000000                9.00000000                0.00000000                1.00000000                0.00000000               -0.00000000               -0.00005331               -0.00000000                0.00684646               -0.00183870
               7.00000000                9.00000000                0.00000000                1.00000000                0.00000000                0.00000000               -0.00037762                0.00000000                0.01003561               -0.00560903
               8.00000000                9.00000000                0.00000000                1.00000000               -0.00000000               -0.00000000               -0.00407612                0.00000000                0.03553047               -0.00771119
               9.00000000                9.00000000                0.00000000                1.00000000                0.00000000               -0.00000000                0.08073041               -0.00000000                0.11880631                0.08910951
              10.00000000                9.00000000                0.00000000                1.00000000               -0.00000000                0.00000000               -0.45568253               -0.00000000                0.26536500                0.20308485
               0.00000000               10.00000000                0.00000000                1.00000000                0.00000000               -0.00000000                0.65210117                0.00000000                0.10536694               -0.44844809
               1.00000000               10.00000000                0.00000000                1.00000000               -0.00000000                0.00000000               -0.07736952                0.00000000               -0.01478325                0.01386469
               2.00000000               10.00000000                0.00000000                1.00000000                0.00000000               -0.00000000               -0.50667440                0.00000000                0.10125418                0.33725581
               3.00000000               10.00000000                0.00000000                1.00000000               -0.00000000                0.00000000               -0.13840703               -0.00000000                0.12885923                0.16006068
               4.00000000               10.00000000                0.00000000                1.00000000                0.00000000                0.00000000               -0.00008270               -0.00000000                0.05200117                0.02104419
               5.00000000               10.00000000                0.00000000                1.00000000               -0.00000000                0.00000000               -0.00093750                0.00000000                0.01774698                0.00256152
               6.00000000               10.00000000                0.00000000                1.00000000                0.00000000                0.00000000                0.00082635                0.00000000                0.00938472               -0.00168110
               7.00000000               10.00000000                0.00000000                1.00000000               -0.00000000               -0.00000000                0.00261412                0.00000000                0.01161195               -0.00794527
               8.00000000               10.00000000                0.00000000                1.00000000               -0.00000000                0.00000000                0.01337178               -0.00000000                0.01526116               -0.02890175
               9.00000000               10.00000000                0.00000000                1.00000000               -0.00000000                0.00000000                0.10536232               -0.00000000                0.01131318                0.01894693
              10.00000000               10.00000000                0.00000000                1.00000000                0.00000000               -0.00000000               -0.57378455                0.00000000                0.07748029                0.38656722
               0.00534983                0.01100127                1.01834663                1.00000000               -0.50505134               -0.51211290                1.78122052               -0.14794972               -0.05334454                0.50188672
               1.00029932                0.00747925                1.01260073                1.00000000               -0.34825626               -0.37980192                1.26454601               -0.12409770               -0.27683849                0.24957499
               1.99838470                0.00379758                1.00668831                1.00000000               -0.08775341               -0.25878706                0.72591415               -0.11440153               -0.39778622                0.02781469
               2.99854425                0.00086459                1.00144981                0.00010000                0.06469454               -0.09311315                0.23407406               -0.03868563               -0.24931087               -0.09234178
               3.99967860               -0.00007510                0.99986040                0.00010000                0.07364985               -0.00703969               -0.04189955               -0.00912734                0.17510118               -0.08920927
               5.00001724               -0.00005133                0.99994136                0.00010000                0.01387504                0.00139951               -0.12902543                0.00834193                0.38939027               -0.07739410
               5.99995610               -0.00001565                0.99985896                0.00010000               -0.02748368                0.00534556               -0.25637121               -0.01533455                0.32623402               -0.06896756
               6.99946757               -0.00091072                0.99913362                0.00010000               -0.02307434                0.07259307               -0.54140225               -0.11461911               -0.06724968               -0.12147967
               7.99949461               -0.00470632                0.99237055                1.00000000                0.14779089                0.31341162               -0.94759347               -0.18460984               -0.35163266               -0.04407217
               9.00242339               -0.00868182                0.98436046                1.00000000                0.45862960                0.47854338               -1.53348233               -0.15255416               -0.15996082               -0.19359083
              10.00866720               -0.01207377                0.97749240                1.00000000                0.62438122                0.63824141               -2.15412325               -0.16018415                0.14991681               -0.51822087
               0.00739235                1.00588014                1.01486782                1.00000000               -0.47321687               -0.39484015                1.57805677               -0.07981628                0.18922566                0.40861103
               1.00266018                1.00368123                1.00932566                1.00000000               -0.34221662               -0.28892708                1.05381629               -0.08498569               -0.00792172                0.16374795
               2.00054802                1.00120971                1.00404938                0.00010000               -0.12832241               -0.18358275                0.56785814               -0.04954067               -0.04441321               -0.06767479
               3.00009373                0.99993346                1.00046059                0.00010000               -0.02513674               -0.04863757                0.18871331                0.02970784                0.14951444               -0.13501905
               4.00004528                0.99985450                0.99998867                0.00010000               -0.00113976               -0.00069637                0.01160707                0.02739890                0.31440284               -0.13809199
               5.00007094                0.99996266                0.99999101                0.00010000                0.00935793                0.00064446               -0.05393510                0.01466536                0.36824010               -0.05575494
               6.00023244                1.00003780                0.99992565                0.00010000                0.02978866               -0.00073064               -0.16878962                0.00747450                0.43177958                0.03897669
               7.00066671                0.99981521                0.99991489                0.00010000                0.06508109                0.03593582               -0.39692279               -0.02183886                0.33309460                0.00738735
               8.00153406                0.99842780                0.99623012                1.00000000                0.19574306                0.22188685               -0.77001601               -0.08243565                0.05908745                0.09125391
               9.00458157                0.99610361                0.98915049                1.00000000                0.44616198                0.36670787               -1.33384741               -0.11070982                0.04553356               -0.02595331
              10.01045730                0.99430865                0.98136730                1.00000000                0.58757307                0.49973830               -1.89280951               -0.09288491                0.26136942               -0.37661776
               0.00815132                2.00310446                1.01442001                1.00000000               -0.48812917               -0.22653730                1.48278260               -0.10501287                0.21553314                0.34474866
               1.00327003                2.00170071                1.00789131                1.00000000               -0.35048297               -0.15661742                0.88775917               -0.11451796                0.03319276                0.11138493
               2.00114166                2.00012593                1.00179974                0.00010000               -0.13882069               -0.07846876                0.30063041               -0.03920952                0.14809214               -0.10160498
               3.00049362                1.99989184                0.99983440                0.00010000               -0.04721460               -0.00146285                0.02658151                0.01585328                0.55484836               -0.17795918
               4.00019737                1.99991097                1.00003558                0.00010000               -0.01831837                0.00502809               -0.01437265                0.01391631                0.64455923               -0.11093713
               5.00012725                1.99996156                0.99999449                0.00010000                0.00278318                0.00031896               -0.07607015                0.00694066                0.62255391               -0.07411112
               6.00025303                1.99996973                0.99998537                0.00010000                0.02567741               -0.00454730               -0.14309788               -0.00827198                0.68656784               -0.02826358
               7.00064080                1.99980800                0.99999956                0.00010000                0.06522328                0.00345819               -0.37532748               -0.02071089                0.80039083                0.02382973
               8.00155750                1.99973142                0.99933140                0.00010000                0.18437746                0.06716519               -0.62730360               -0.07471142                0.43481830                0.10780291
               9.00432835                1.99865234                0.99304216                1.00000000                0.44209655                0.17330631               -1.08249933               -0.15635062                0.07020295                0.05765794
              10.01039943                1.99792100                0.98238201                1.00000000                0.60710845                0.28131134               -1.70339557               -0.15308904                0.08169586               -0.21905844
               0.00809961                3.00134939                1.01384621                1.00000000               -0.47512464               -0.14700723                1.41204552               -0.09924776                0.20561197                0.18771366
               1.00334836                3.00054888                1.00654816                1.00000000               -0.32634552               -0.09651084                0.74128178               -0.08611426                0.06382225                0.00879355
               2.00157270                2.99964033                1.00039736                0.00010000               -0.13613021               -0.03131756                0.06224253               -0.00013341                0.33071863               -0.10855591
               3.00062576                2.99990420                1.00003292                0.00010000               -0.06594022                0.00263334               -0.27475316                0.02596428                0.79723636               -0.19214404
               4.00025389                2.99995506                1.00001181                0.00010000               -0.02373851                0.00342142               -0.03931717                0.00676017                0.81973648               -0.07339968
               5.00015099                2.99996904                0.99999997                0.00010000               -0.00166668                0.00085958               -0.08261195                0.00062227                0.82224450               -0.06474312
               6.00022056                2.99994686                0.99999357                0.00010000                0.01699107               -0.00055968               -0.13862263               -0.00780670                0.83655610               -0.03771732
               7.00049081                2.99988438                0.99991053                0.00010000                0.04874711                0.00502527               -0.15229053               -0.02078285                0.89181618                0.00478577
               8.00119550                2.99977110                1.00031534                0.00010000                0.13870873                0.00529793               -0.61672717               -0.04463811                0.85321183                0.04565104
               9.00326498                2.99956974                0.99588494                1.00000000                0.38313462                0.07250077               -0.72343540               -0.07143007                0.11951016                0.02452245
              10.00885819                2.99993488                0.98428025                1.00000000                0.55932109                0.14580689               -1.54698025               -0.10694442               -0.01934127                0.01097642
               0.00776739                4.00016432                1.01318849                1.00000000               -0.45105872               -0.10197220                1.33173405               -0.08312483                0.16504307                0.07444516
               1.00325680                3.99977049                1.00510723                1.00000000               -0.29918574               -0.06053593                0.60888838               -0.05375279                0.09163069               -0.08022398
               2.00178367                3.99949957                0.99927392                0.00010000               -0.12793127               -0.00136454               -0.13007396                0.01308472                0.49761681               -0.10346750
               3.00069817                3.99994450                1.00012725                0.00010000               -0.07579697                0.00381105               -0.08116305                0.02612570                0.90724079               -0.07767718
               4.00026773                3.99997940                1.00000917                0.00010000               -0.02751387                0.00212199               -0.09138052                0.00196300                0.93523342               -0.06993099
               5.00014790                3.99997875                1.00000241                0.00010000               -0.00430856                0.00093923               -0.08629415               -0.00181923                0.97506019               -0.04566139
               6.00018156                3.99995854                0.99999066                0.00010000                0.01264973                0.00102825               -0.09586547               -0.00703982                0.98561383               -0.01968400
               7.00040089                3.99990851                0.99995845                0.00010000                0.03989077                0.00189129               -0.10031939               -0.01494591                1.01104952                0.00860030
               8.00097938                3.99983738                1.00013839                0.00010000                0.11675408                0.00461094               -0.03773290               -0.01132324                0.81455186                0.09364386
               9.00273597                4.00010235                0.99694528                1.00000000                0.32754450                0.04428595               -0.51931066               -0.00209964                0.19950413                0.01963717
              10.00753027                4.00083714                0.98614450                1.00000000                0.47942935                0.07837111               -1.37803124               -0.04666240                0.00485972                0.12274387
               0.00722477                4.99930995                1.01240282                1.00000000               -0.42867192               -0.07059844                1.23656177               -0.06256769                0.09518227               -0.02337705
               1.00293805                4.99933816                1.00342700                1.00000000               -0.27821961               -0.03032849                0.47588739               -0.01961458                0.14845638               -0.12952549
               2.00166038                4.99961304                0.99882686                0.00010000               -0.11348006                0.01076490               -0.34078220                0.01537209                0.66023280               -0.07173222
               3.00066845                4.99998042                1.00015877                0.00010000               -0.07007331                0.00244948               -0.19544258                0.01477643                1.06851466               -0.11670785
               4.00025891                4.99999750                1.00000635                0.00010000               -0.02664949                0.00134953               -0.12622949               -0.00101005                1.07380143               -0.06060351
               5.00013546                4.99998783                1.00000354                0.00010000               -0.00544527                0.00077986               -0.08648335               -0.00285062                1.10635556               -0.03030209
               6.00015000                4.99996742                0.99999451                0.00010000                0.00887964                0.00085076               -0.05627018               -0.00631413                1.11055399               -0.00822025
               7.00031305                4.99992220                0.99996478                0.00010000                0.03125934                0.00163617                0.00417240               -0.01365178                1.08022439                0.02522408
               8.00077519                4.99986332                1.00009433                0.00010000                0.09550905                0.00341048                0.40234142                0.00394986                0.79249143                0.14482785
               9.00222323                5.00045546                0.99791958                0.00010000                0.28400896                0.02340290               -0.36497083                0.01706871                0.26407545                0.08388741
              10.00645537                5.00150230                0.98801967                1.00000000                0.42321385                0.06048689               -1.26141575               -0.01325620                0.03676931                0.27170598
               0.00645960                5.99875235                1.01131093                1.00000000               -0.38981926               -0.04396050                1.13071973               -0.03724549                0.06103448               -0.11024633
               1.00256141                5.99916392                1.00203604                0.00010000               -0.25053751               -0.01117550                0.31517379                0.01656343                0.22944034               -0.12738976
               2.00144885                5.99971487                0.99889362                0.00010000               -0.09760826                0.00862195               -0.57685241                0.02840188                0.78044008               -0.05622164
               3.00060925                5.99999349                1.00013755                0.00010000               -0.06043626                0.00137452               -0.80852283                0.01048075                1.21052488               -0.10036886
               4.00024013                6.00000639                1.00000773                0.00010000               -0.02441414                0.00094292               -0.14762377               -0.00174646                1.20143673               -0.03395161
               5.00012096                5.99999434                1.00000391                0.00010000               -0.00596140                0.00060617               -0.09070408               -0.00307402                1.21743665               -0.01291454
               6.00012090                5.99997556                0.99999587                0.00010000                0.00554958                0.00067592               -0.01627882               -0.00533828                1.20892617                0.00189575
               7.00023196                5.99994123                0.99997802                0.00010000                0.02021106                0.00213284                0.09313130               -0.01029402                1.13684561                0.03132093
               8.00052512                5.99990559                1.00004005                0.00010000                0.06032094                0.00724043                0.80215412                0.01097477                0.76928523                0.16576469
               9.00143837                6.00057041                0.99884540                0.00010000                0.23231702                0.00797601               -0.24228292                0.03850804                0.37966889                0.13212308
              10.00517146                6.00204688                0.99116981                1.00000000                0.37330882                0.01373354               -1.22430749                0.00150305                0.18890172                0.43674348
               0.00565672                6.99843074                1.00998555                1.00000000               -0.33499232               -0.03232343                1.01387367               -0.00715647                0.06441533               -0.17394636
               1.00230679                6.99911465                1.00104776                0.00010000               -0.21289396                0.00240527                0.15805947                0.04736660                0.28906531               -0.10725882
               2.00139884                6.99978548                0.99883704                0.00010000               -0.08601237                0.01405826               -0.76995613                0.04743744                0.85026778               -0.04021095
               3.00058655                7.00000791                1.00013092                0.00010000               -0.05878543                0.00556434               -1.23488729                0.01168159                1.26470155                0.05204181
               4.00022313                7.00001636                1.00000686                0.00010000               -0.02408691                0.00204783               -0.18042443               -0.00227124                1.28080554                0.00866732
               5.00010481                6.99999995                1.00000402                0.00010000               -0.00633878                0.00041189               -0.10113408               -0.00346427                1.29982764                0.01075909
               6.00009635                6.99998094                0.99999713                0.00010000                0.00361640                0.00024352                0.01609961               -0.00395251                1.28822553                0.00757350
               7.00017714                6.99996486                0.99998763                0.00010000                0.01345761                0.00120870                0.16896135               -0.00298943                1.17911537                0.02331334
               8.00036551                7.00000813                0.99999664                0.00010000                0.03374847                0.00823096                1.16180616                0.02498707                0.74288799                0.14324573
               9.00085211                7.00061498                0.99955863                0.00010000                0.15834950                0.01236760               -0.08243477                0.05706944                0.51948116                0.15676137
              10.00353250                7.00177697                0.99473413                1.00000000                0.26803904               -0.02939962               -1.17518812               -0.00717174                0.39162168                0.38698032
               0.00494865                7.99810588                1.00859481                1.00000000               -0.27946478               -0.05506502                0.88620675                0.02385463                0.06865020               -0.24000558
               1.00215400                7.99921202                1.00026530                0.00010000               -0.17221517                0.02287171                0.04022375                0.07522439                0.31438702               -0.08149563
               2.00150434                7.99999604                0.99848332                0.00010000               -0.07709980                0.05292770               -0.88389030                0.06013474                0.88487391               -0.02214499
               3.00061200                8.00010478                1.00011003                0.00010000               -0.06508374                0.02480883               -1.17440693                0.00790921                1.31657106                0.15003766
               4.00020267                8.00004734                1.00000066                0.00010000               -0.02624523                0.00403845               -0.22493647               -0.00679177                1.29752692                0.08328448
               5.00008710                8.00000258                1.00000527                0.00010000               -0.00628644               -0.00041690               -0.11976981               -0.00377691                1.35546066                0.03704140
               6.00007694                7.99998043                0.99999843                0.00010000                0.00289390                0.00003363                0.04149091               -0.00325344                1.34878352                0.00670254
               7.00014498                7.99996540                0.99999084                0.00010000                0.01489045               -0.00104756                0.22612650                0.00065010                1.21584691                0.00458706
               8.00037475                8.00007021                0.99998538                0.00010000                0.03329759               -0.00426220                1.41481310                0.04210783                0.73185706                0.04949301
               9.00081093                8.00081776                0.99992789                0.00010000                0.11646489                0.01380592                0.11984679                0.08623160                0.55845656                0.18621139
              10.00270405                8.00145888                0.99598740                0.00010000                0.18931183                0.01269403               -0.98310607                0.02016998                0.43205786                0.19756150
               0.00392152                8.99732944                1.00693009                0.00010000               -0.20003964               -0.12951808                0.75208776                0.02951612                0.06261006               -0.26323697
               1.00192113                8.99957209                0.99963630                0.00010000               -0.11063724                0.04633111               -0.04934938                0.06063851                0.24870056               -0.04369418
               2.00170878                9.00084404                0.99715297                0.00010000               -0.06138506                0.16882604               -0.85643291                0.02201014                0.84694357               -0.01503382
               3.00069342                9.00050409                0.99975378                0.00010000               -0.07596420                0.07479129               -1.11056976               -0.00351590                1.27618454                0.19529057
               4.00018949                9.00009713                1.00003520                0.00010000               -0.02986182                0.00815488               -0.26676706               -0.00975668                1.27968997                0.16889270
               5.00009619                8.99999161                1.00000293                0.00010000               -0.00605141                0.00115164               -0.14243818               -0.00125714                1.39766165                0.06423294
               6.00006846                8.99998161                0.99999947                0.00010000                0.00020843                0.00013812                0.05875632               -0.00153962                1.39764626                0.00370727
               7.00010036                8.99994391                0.99999622                0.00010000                0.01434200               -0.00224277                0.27952743               -0.00437903                1.23219464               -0.04038906
               8.00035530                8.99992289                0.99995924                0.00010000                0.05438535               -0.01796132                1.48472057                0.03625249                0.77287386               -0.02860712
               9.00118806                9.00089110                1.00080730                0.00010000                0.11491727               -0.03141456                0.25113105                0.07050827                0.50827656                0.14556260
              10.00265365                9.00203085                0.99544317                0.00010000                0.14655869                0.12033944               -0.69152475                0.01751323                0.23860810                0.09759410
               0.00105367                9.99551552                1.00652101                0.00010000               -0.12015019               -0.18139174                0.65360352                0.17552757               -0.16179242               -0.29238206
               0.99985217               10.00013865                0.99922630                0.00010000               -0.00205638                0.05665612               -0.13293005                0.18595619               -0.03426098               -0.00430164
               2.00101254               10.00337256                0.99493326                1.00000000                0.07182124                0.25285212               -0.89033263                0.00347450                0.64155203                0.07797577
               3.00128859               10.00160061                0.99861593                0.00010000               -0.02462650                0.10965180               -1.25229246               -0.09858897                1.25685730                0.31012261
               4.00052001               10.00021044                0.99999917                0.00010000               -0.05555613                0.01133136               -0.32359764               -0.04569768                1.37703417                0.27603040
               5.00017747               10.00002562                0.99999063                0.00010000               -0.02130823                0.00340043               -0.18010339               -0.00323443                1.48224910                0.10695571
               6.00009385                9.99998319                1.00000826                0.00010000               -0.00306751                0.00015761                0.06167723               -0.00271514                1.47138805                0.00430279
               7.00011612                9.99992055                1.00002614                0.00010000                0.00293822               -0.00233624                0.31121692               -0.01203399                1.26843673               -0.10393527
               8.00015261                9.99971098                1.00013372                0.00010000               -0.00014939               -0.02119056                1.58457217               -0.00682320                0.68677275               -0.10782555
               9.00011313               10.00018947                1.00105362                0.00010000                0.03110957               -0.07016258                0.29530432                0.10024135                0.30342779                0.03175988
              10.00077480               10.00386567                0.99426215                0.00010000                0.06616712                0.18348237               -0.55469561                0.17973559               -0.08260374                0.13716206
               0.01042491                0.01699535                2.03562441                1.00000000               -0.43033570               -0.48965058                1.72799152               -0.10097996               -0.25349939                0.23619130
               1.00612155                0.01154163                2.02529092                1.00000000               -0.36148559               -0.35572562                1.26362034               -0.10421375               -0.24656577                0.01258395
               2.00319519                0.00583416                2.01451828                1.00000000               -0.21399272               -0.22990849                0.76582598               -0.09233927               -0.26700099               -0.09689207
               3.00184170                0.00013161                2.00468148                0.00010000                0.09076409               -0.12165777                0.29632897                0.12718552               -0.06904295               -0.11707815
               4.00501048               -0.00204073                1.99916201                0.00010000                0.29737724               -0.08962865               -0.01173012                0.08577540                0.45992200               -0.05391454
               5.00778924               -0.00164719                1.99741949                0.00010000                0.11609728                0.04789627               -0.22510621               -0.00974210                0.78407390               -0.01173799
               6.00733242               -0.00151273                1.99487258                0.00010000               -0.08229088                0.21658624               -0.49898506                0.02068094                0.60547490                0.00998416
               7.00614342               -0.00399215                1.98917196                0.00010000                0.02040383                0.32739478               -0.82452025                0.06700769                0.30804169                0.02743392
               8.00774050               -0.00860059                1.98104813                1.00000000                0.27677559                0.34648089               -1.13220280               -0.05242096                0.08545006                0.00089306
               9.01167893               -0.01345187                1.96933035                1.00000000                0.44969870                0.42511149               -1.52443673               -0.06622607               -0.08836552               -0.08769453
              10.01673447               -0.01811422                1.95691754                1.00000000                0.50555387                0.56922552               -1.99611575               -0.06030494               -0.17635610               -0.11450997
               0.01486883                1.01209884                2.03156114                1.00000000               -0.42088174               -0.45393849                1.65691486               -0.06429006               -0.04115893                0.34645724
               1.01066001                1.00798437                2.02107633                1.00000000               -0.34460069               -0.32682125                1.16884291               -0.07006016                0.02361220                0.06535044
               2.00797681                1.00353507                2.01135716                1.00000000               -0.18045064               -0.21071210                0.69515471               -0.06228885                0.14208379               -0.18863742
               3.00705100                0.99891503                2.00377427                0.00010000               -0.06095903               -0.16315650                0.24969411                0.22736722                0.41394231               -0.22922889
               4.00675763                0.99706298                2.00023214                0.00010000                0.01884117               -0.01005732                0.01941320                0.38186774                0.71154954               -0.19896138
               5.00742782                0.99883177                1.99892130                0.00010000                0.09770393                0.00780065               -0.14136557                0.41510980                0.81722242               -0.11285482
               6.00871171                1.00065313                1.99662421                0.00010000                0.14648037                0.04397741               -0.37200703                0.34219430                0.75397415                0.03073799
               7.01035743                0.99928180                1.99206154                0.00010000                0.16172203                0.22365519               -0.70264086                0.23647246                0.58793800               -0.02198459
               8.01194615                0.99486422                1.98459968                1.00000000                0.27080323                0.33357134               -1.04538085               -0.02846402                0.33170739               -0.03010046
               9.01577349                0.99079924                1.97332305                1.00000000                0.44238119                0.39352933               -1.48139076               -0.03058347                0.16537680               -0.06007399
              10.02079377                0.98757803                1.96214381                1.00000000                0.50202835                0.54100526               -1.89697465               -0.01113425                0.12082138               -0.22284756
               0.01736804                2.00791658                2.02965565                1.00000000               -0.40839257               -0.35565288                1.53205931               -0.09916107                0.02098582                0.39620703
               1.01328412                2.00500521                2.01775518                1.00000000               -0.31746423               -0.25122117                0.99485820               -0.11156891                0.07451856                0.07231317
               2.01101876                2.00161991                2.00601261                0.00010000               -0.02114935               -0.15901839                0.44759099               -0.14919661                0.39160615               -0.30842635
               3.01286113                1.99686848                2.00053163                0.00010000                0.08561667               -0.15253818               -0.00472800                0.27087456                0.91910091               -0.49436349
               4.01273109                1.99775812                1.99971255                0.00010000               -0.01799222                0.07477145               -0.04577779                0.56551962                1.25470976               -0.20875292
               5.01250129                1.99850882                1.99847860                0.00010000                0.04975936               -0.00672776               -0.16789291                0.53220026                1.27436998               -0.18394878
               6.01372628                1.99936681                1.99713804                0.00010000                0.20802462               -0.07063827               -0.34818091                0.50404900                1.18791020               -0.09768739
               7.01666178                2.00048095                1.99249345                0.00010000                0.09637471                0.04275136               -0.42969195                0.29305749                1.02160162                0.17853079
               8.01565377                1.99807084                1.98745393                0.00010000                0.08458370                0.26209083               -0.89612949                0.15407210                0.80280643               -0.13985113
               9.01835345                1.99441871                1.97835001                1.00000000                0.36502175                0.28940395               -1.34992103               -0.13565777                0.43503676                0.15065872
              10.02295421                1.99270588                1.96593209                1.00000000                0.46007559                0.44395013               -1.67972069               -0.06984447                0.19287558               -0.25169552
               0.01870835                3.00498579                2.02824091                1.00000000               -0.39830573               -0.24921393                1.43313032               -0.09781692                0.04505066                0.32012072
               1.01472530                3.00295995                2.01482564                1.00000000               -0.27893736               -0.17442663                0.82521071               -0.10840075                0.09123289                0.03851759
               2.01312961                3.00035470                2.00124485                0.00010000                0.08024932               -0.10593798                0.15364367               -0.15910596                0.43460836               -0.28426828
               3.01633028                2.99586427                1.99450494                0.00010000                0.16490390                0.07260629               -0.37328659                0.13760665                1.40434025               -0.15438227
               4.01642768                2.99855841                1.99921366                0.00010000                0.00664241                0.04243617               -0.14402100                0.44656790                1.86103692               -0.19935156
               5.01646313                2.99869722                1.99834776                0.00010000                0.01964367                0.02871922               -0.19185197                0.38501934                1.63787359               -0.13904976
               6.01682056                2.99924036                1.99722755                0.00010000                0.05257110                0.01192811               -0.26521137                0.37347811                1.69196419               -0.06768428
               7.01751455                3.00013683                1.99695419                0.00010000                0.21346382               -0.01815981               -0.42999545                0.21385771                1.32028195                0.14759214
               8.02108983                3.00010604                1.98766546                0.00010000                0.04553702                0.20115230               -0.54800563                0.00504643                1.08077641                0.38209373
               9.01842529                2.99658732                1.98553129                1.00000000                0.08663586                0.19696922               -1.05977050               -0.20092450                0.75887062                0.19414411
              10.02282255                2.99645703                1.96906039                1.00000000                0.43972579                0.30047881               -1.51202249               -0.07580156               -0.02857084               -0.15015807
               0.01946338                4.00293230                2.02663468                1.00000000               -0.37161905               -0.17878813                1.33561936               -0.08421704                0.08415741                0.21729078
               1.01574719                4.00151667                2.01217777                1.00000000               -0.22655270               -0.12396338                0.67158974               -0.08056782                0.12930003               -0.00125965
               2.01493232                3.99950116                1.99739852                0.00010000                0.08311869               -0.07045229               -0.11223631                0.00736065                0.92811540               -0.29524204
               3.01740956                3.99832061                1.99837674                0.00010000                0.19485911                0.08956373               -0.24659456                0.14831057                1.84993907                0.05564862
               4.01882951                3.99860684                1.99817239                0.00010000                0.10550799                0.01154847               -0.22220061                0.29830906                1.93216991               -0.15859997
               5.01951972                3.99908321                1.99827412                0.00010000                0.04633638                0.03476193               -0.20024236                0.33371738                1.99818156               -0.09411735
               6.01975623                3.99960538                1.99808269                0.00010000                0.02767701                0.02950095               -0.20257270                0.32319149                2.00685507               -0.01639403
               7.02007326                4.00011776                1.99799361                0.00010000               -0.02260124                0.01740432               -0.18298864                0.32393111                2.03005102                0.06137648
               8.01930421                4.00209388                1.99924534                0.00010000               -0.10446467                0.14444296               -0.01445134               -0.24772327                1.36791665                0.86761774
               9.01798397                3.99835810                1.98961379                1.00000000                0.11972727                0.15951571               -0.77826173               -0.22237742                0.43624916                0.08824208
              10.02169875                3.99871546                1.97243938                1.00000000                0.37147864                0.19758915               -1.35977143               -0.07863102               -0.00101396               -0.06561162
               0.01985527                5.00141002                2.02473124                1.00000000               -0.33101828               -0.13599819                1.23075277               -0.07757981                0.12624610                0.12400667
               1.01654509                5.00048068                2.00951775                1.00000000               -0.16911911               -0.08426141                0.52560628               -0.06027175                0.14345852               -0.07111551
               2.01647289                4.99894566                1.99318436                0.00010000                0.18228600               -0.03178838               -0.39521471               -0.01250837                1.09567891               -0.35450989
               3.02019081                4.99765554                1.99609115                0.00010000                0.25791899               -0.01500660               -0.41866194                0.27652736                2.16771712               -0.65894787
               4.02163127                4.99878938                1.99747541                0.00010000                0.09740697                0.03568025               -0.29785623                0.35348859                2.23503758               -0.06556812
               5.02213894                4.99939245                1.99827033                0.00010000                0.03092840                0.03290126               -0.20489583                0.29409357                2.29249879               -0.05710735
               6.02224983                4.99983038                1.99887460                0.00010000               -0.03171389                0.02149596               -0.11452157                0.27703196                2.31569019                0.00786945
               7.02150467                5.00048491                2.00008345                0.00010000               -0.21774030                0.02429066                0.06682175                0.28919940                2.56687435                0.12393485
               8.01789503                5.00299490                2.00804683                0.00010000               -0.20742478                0.06595501                0.45438861               -0.17465762                1.50877781                0.75441717
               9.01735617                4.99977764                1.99270058                0.00010000                0.13200921                0.13226599               -0.54858893               -0.20532131                0.17606004                0.09387674
              10.02053521                5.00040882                1.97477168                1.00000000                0.31790410                0.16524780               -1.25749083               -0.06535886               -0.02012065               -0.10057281
               0.01977046                6.00021234                2.02261439                1.00000000               -0.27643445               -0.10864182                1.12044728               -0.07265859                0.10687136                0.03584238
               1.01700612                5.99983145                2.00630348                0.00010000               -0.11315830               -0.04275605                0.35470385               -0.04811076                0.10643467               -0.12840306
               2.01750730                5.99886539                1.98846295                0.00010000                0.30451353                0.03302100               -0.68059112               -0.01808302                0.75172159               -0.32417252
               3.02309639                5.99802047                1.98382954                0.00010000                0.33275355                0.17064032               -0.97289823                0.21942291                2.30222823               -0.90147733
               4.02416237                5.99932045                1.99704752                0.00010000                0.06321000                0.06955156               -0.42745628                0.29162541                2.93153647               -0.01652757
               5.02436059                5.99974123                1.99818592                0.00010000                0.00210237                0.04106869               -0.21319653                0.22910943                2.52466290               -0.02991542
               6.02420441                6.00003530                1.99967442                0.00010000               -0.08339267                0.01592630               -0.03127500                0.21967014                2.57359865                0.02376682
               7.02269273                6.00060357                2.00186263                0.00010000               -0.38430409               -0.00157304                0.29801582                0.27279094                3.02994849                0.11448755
               8.01651833                6.00341298                2.01604308                0.00010000               -0.31145571               -0.00376579                0.86690576               -0.11042093                1.61910109                0.70729426
               9.01646362                6.00100342                1.99515434                0.00010000                0.13054405                0.11375488               -0.33971815               -0.15483021               -0.11434055                0.16440734
              10.01912921                6.00202041                1.97551385                1.00000000                0.26655932                0.12566003               -1.22095820               -0.05098941               -0.13873557               -0.10276920
               0.01916388                6.99923719                2.02027747                1.00000000               -0.22340612               -0.09784939                1.00737195               -0.04808440                0.06599402               -0.05363108
               1.01692982                6.99962556                2.00316119                0.00010000               -0.06208424               -0.00249449                0.17255668               -0.01189966                0.06477669               -0.10828585
               2.01792220                6.99960608                1.98460088                0.00010000                0.35971915                0.11878874               -0.92889915                0.08941195                0.53127351               -0.17877063
               3.02412420                7.00106835                1.97530225                0.00010000                0.39104106                0.26787090               -1.35256709                0.11460099                2.36664703               -0.26503685
               4.02574302                7.00018041                1.99639151                0.00010000                0.09410415                0.11584545               -0.58174333                0.05192069                3.39145928                0.00720306
               5.02600629                7.00021383                1.99797732                0.00010000                0.00189391                0.05003428               -0.23943885                0.13596770                2.72178895               -0.01192093
               6.02578090                7.00014891                2.00032199                0.00010000               -0.12117448                0.00482097                0.03809732                0.15126544                2.79123761                0.02663843
               7.02358280                7.00045345                2.00337923                0.00010000               -0.52470666               -0.02602121                0.50074498                0.22039630                3.43673524                0.08414994
               8.01528676                7.00291958                2.02323612                0.00010000               -0.39653292               -0.11928607                1.24559841               -0.01094806                1.75490583                0.55541509
               9.01565214                7.00205273                1.99835130                0.00010000                0.10973354                0.07360661               -0.11743165               -0.06470321               -0.37774435                0.27129544
              10.01748143                7.00292202                1.97649624                1.00000000                0.18292954                0.06108843               -1.18152311               -0.04342486               -0.29691465                0.11399815
               0.01803202                7.99825535                2.01772414                1.00000000               -0.16327908               -0.12140634                0.89285275               -0.01358411                0.05733185               -0.13333384
               1.01639923                7.99978156                2.00080448                0.00010000               -0.00896385                0.02697754                0.02101432                0.04035593                0.04626306               -0.05589932
               2.01785275                8.00124116                1.98232219                0.00010000                0.42074216                0.18216541               -1.05230908                0.12477618                0.67595282                0.07573205
               3.02481408                8.00337789                1.97651186                0.00010000                0.41012777                0.21657824               -1.33587552               -0.05432703                2.31244108                0.31989289
               4.02605530                8.00163736                1.99550127                0.00010000                0.11486832                0.15994676               -0.74377121               -0.15171693                3.36799625                0.04723694
               5.02711144                8.00074192                1.99760460                0.00010000                0.04673985                0.05427373               -0.28074861                0.02385172                2.90114241                0.01216105
               6.02699010                8.00013171                2.00082982                0.00010000               -0.13907276               -0.00422961                0.09348705                0.07599818                2.97400484                0.02314779
               7.02432999                8.00008315                2.00452253                0.00010000               -0.61450049               -0.06482669                0.66459531                0.09984360                3.72300885                0.03992569
               8.01470009                8.00102726                2.02829626                0.00010000               -0.45814346               -0.18200282                1.53315648                0.08760185                1.91278628                0.23291836
               9.01516712                8.00247555                2.00239694                0.00010000                0.09110287               -0.01336064                0.12314988                0.06221877               -0.45509063                0.23794995
              10.01652215                8.00324218                1.98033788                0.00010000                0.13550282                0.03775534               -0.99634969               -0.02238751               -0.31763723                0.40253238
               0.01583979                8.99680906                2.01504176                0.00010000               -0.10886624               -0.16424176                0.79154242                0.00168231                0.05484113               -0.14963927
               1.01475113                9.00016511                1.99901301                0.00010000                0.04907974                0.04761970               -0.10480229                0.04718142                0.09470719               -0.02502989
               2.01682138                9.00324939                1.98287134                0.00010000                0.39451710                0.23788949               -1.05195347                0.04117350                0.68821664                0.21489478
               3.02264147                9.00539991                1.97778860                0.00010000                0.42616360                0.25501340               -1.28815956               -0.23064449                2.12183214                0.31219924
               4.02534466                9.00337934                1.99466466                0.00010000                0.26737474                0.19776494               -0.91718410               -0.19949633                3.35044740                0.10411279
               5.02798896                9.00129930                1.99715124                0.00010000                0.13074866                0.07109015               -0.32319503               -0.03952901                3.06884761                0.02929819
               6.02795963                9.00006432                2.00117513                0.00010000               -0.16524211               -0.00316261                0.13411629                0.01298801                3.14779844                0.01731169
               7.02468412                8.99915692                2.00559055                0.00010000               -0.66566160               -0.11108436                0.80670324                0.00642502                3.80497740               -0.00745916
               8.01464640                8.99927952                2.02969441                0.00010000               -0.50012628               -0.17663660                1.61442985                0.03182430                1.91681530                0.00706322
               9.01468160                9.00178552                2.00502262                0.00010000                0.04270119               -0.11664953                0.31176170                0.05853002               -0.33854367                0.06759507
              10.01550042                9.00367712                1.98616950                0.00010000                0.08188254                0.09315500               -0.73412914               -0.04040382               -0.09558778                0.37876616
               0.01135357                9.99497051                2.01307207                0.00010000               -0.04510293               -0.18385460                0.62491016                0.12772111               -0.03134972               -0.11465838
               1.01090254               10.00073395                1.99734140                0.00010000                0.10439252                0.05688361               -0.25141607                0.16656284                0.03681010                0.00228127
               2.01344142               10.00599895                1.98219335                1.00000000                0.45843465                0.27495659               -1.06298365                0.04921377                0.46674619                0.18746259
               3.02007123               10.00847816                1.97495415                0.00010000                0.63622862                0.30782456               -1.34210328               -0.27733876                1.94301026                0.16705701
               4.02616599               10.00559266                1.99352805                0.00010000                0.47823313                0.22133115               -1.02022746               -0.23358880                3.54260666                0.08661107
               5.02963589               10.00216372                1.99639793                0.00010000                0.16131284                0.08644165               -0.35604157               -0.11151682                3.24222653                0.04875150
               6.02939224               10.00006846                2.00123354                0.00010000               -0.21963057                0.00041470                0.15357855               -0.07185136                3.31877209                0.02946366
               7.02524328                9.99786146                2.00622434                0.00010000               -0.83421359               -0.12954574                0.89193727               -0.07278065                3.95090605               -0.00397001
               8.01270797                9.99749453                2.03169144                0.00010000               -0.66515806               -0.17849927                1.69099218               -0.07978742                1.83450000                0.01475701
               9.01194012               10.00014256                2.00590609                0.00010000               -0.03885552               -0.16429605                0.49030716                0.10638991               -0.40803452               -0.03064969
              10.01193086               10.00510528                1.98890609                0.00010000               -0.00092564                0.14281578               -0.48690287                0.13931642               -0.01532950                0.20707556
               0.02094682                0.02385164                3.05290646                1.00000000               -0.44726941               -0.50736015                1.73164543               -0.10995570               -0.21581374                0.25298666
               1.01647413                0.01616012                3.03787314                1.00000000               -0.36463493               -0.36361414                1.25957035               -0.09725608               -0.26053615               -0.00659288
               2.01365412                0.00818198                3.02200483                1.00000000               -0.19772325               -0.22393432                0.77339544               -0.08736996               -0.23344335               -0.12525973
               3.01251966                0.00033746                3.00737639                0.00010000                0.12424507               -0.08387254                0.30255840                0.12401191                0.18214450               -0.12809062
               4.01613903               -0.00329366                2.99962579                0.00010000                0.37342465               -0.13816071                0.09093340                0.11766357                0.78018939               -0.00985397
               5.01998816               -0.00328971                2.99543923                0.00010000                0.20870527               -0.00638337               -0.17977171                0.00223775                0.96720265                0.00617936
               6.02031313               -0.00331923                2.98987926                0.00010000               -0.02676530                0.17063293               -0.50120135                0.04327939                0.87750511                0.04158448
               7.01945285               -0.00614122                2.98264321                0.00010000                0.03660409                0.21952434               -0.72230233                0.07609896                0.53937967                0.03380069
               8.02104521               -0.01179155                2.96972649                1.00000000                0.26669121                0.32115467               -1.13247858               -0.02784549                0.10261718                0.15776409
               9.02478667               -0.01842111                2.95387173                1.00000000                0.44602518                0.43035814               -1.53158454               -0.09541768               -0.08164573                0.00226964
              10.02996572               -0.02481651                2.93757008                1.00000000                0.51790415                0.56536584               -1.92826905               -0.11289064               -0.10612547               -0.13889708
               0.02753879                1.01877804                3.04800612                1.00000000               -0.42023930               -0.47514066                1.63277371               -0.05414899               -0.01224547                0.34431855
               1.02333640                1.01252397                3.03270252                1.00000000               -0.34235189               -0.33812279                1.15178773               -0.04530439                0.02289963                0.00203286
               2.02069175                1.00594264                3.01795247                1.00000000               -0.19193984               -0.20561345                0.66988745               -0.02410146                0.16519014               -0.28752824
               3.01949760                0.99949873                3.00545447                0.00010000               -0.07812557               -0.05317795                0.21547847                0.10190645                0.62820455               -0.32056156
               4.01912924                0.99532473                3.00037693                0.00010000                0.02628595                0.00240271                0.04948822                0.41766509                1.08327732               -0.16254728
               5.02002332                0.99664646                2.99716370                0.00010000                0.15212184                0.00729120               -0.16884678                0.56316794                1.12664306               -0.14473323
               6.02217168                0.99838710                2.99248551                0.00010000                0.22133395                0.03659401               -0.43341369                0.45454106                1.01418869               -0.09051042
               7.02445000                0.99605403                2.98586208                0.00010000                0.23675125                0.23135934               -0.66626835                0.21684954                0.78687202                0.12295458
               8.02690670                0.99141999                2.97532250                1.00000000                0.29474896                0.28300873               -0.94232431                0.02701485                0.38291216                0.17298131
               9.03034498                0.98588247                2.95952268                1.00000000                0.41627554                0.39391894               -1.37435839               -0.04093024                0.09138338                0.04802503
              10.03523221                0.98083714                2.94342781                1.00000000                0.48872360                0.53935098               -1.83592293               -0.04817906                0.06085258               -0.17132948
               0.03237197                2.01434883                3.04506119                1.00000000               -0.39685303               -0.40026319                1.52572591               -0.08049797                0.03773220                0.44558071
               1.02840344                2.00939766                3.02778848                1.00000000               -0.30873185               -0.28136633                1.00107510               -0.07232193                0.06420760                0.01415508
               2.02619734                2.00406971                3.01075156                0.00010000               -0.16138747               -0.16867899                0.48319851               -0.01149770                0.37917598               -0.44856999
               3.02517569                1.99927390                2.99973984                0.00010000                0.05736303               -0.02636421                0.00644306                0.19654189                1.06741342               -0.52072702
               4.02734460                1.99675440                2.99912002                0.00010000                0.15067287                0.10917267               -0.08939852                0.60423918                1.56575792               -0.25103239
               5.02818915                1.99685612                2.99663663                0.00010000                0.13258928                0.03730330               -0.20952250                0.77647493                1.46723644               -0.22358043
               6.02999638                1.99741265                2.99302175                0.00010000                0.12838954               -0.03692864               -0.37706580                0.74557940                1.52866971               -0.12108264
               7.03075694                1.99848597                2.99140573                0.00010000                0.08803404                0.06410160               -0.24611686                0.42322563                1.14084066                0.01565172
               8.03175706                1.99386862                2.98140881                0.00010000                0.18969886                0.21007855               -0.68926105               -0.08507397                0.57503379                0.26762738
               9.03455092                1.98945727                2.96604373                1.00000000                0.36678633                0.31531873               -1.22822909               -0.05978203                0.22779170                0.20492087
              10.03909279                1.98597050                2.94878760                1.00000000                0.45418710                0.47936417               -1.69075846               -0.04885871                0.11898107               -0.20314492
               0.03583117                3.01077278                3.04250882                1.00000000               -0.36620917               -0.31645099                1.40933138               -0.08799347                0.05464717                0.41633954
               1.03216908                3.00689665                3.02305237                1.00000000               -0.26228037               -0.21722379                0.82694295               -0.07641016                0.07427228                0.00500502
               2.03058556                3.00256906                3.00347024                0.00010000               -0.07126614               -0.12072413                0.24903848                0.00122352                0.49906091               -0.41975578
               3.03074376                2.99897145                2.99256719                0.00010000                0.15231220                0.00986839               -0.13969115                0.33432614                1.59553771               -0.09966049
               4.03363181                2.99750819                2.99713139                0.00010000                0.20754059                0.08956246               -0.21877579                0.50451171                2.15412460               -0.23697262
               5.03489457                2.99739253                2.99616293                0.00010000                0.09108038                0.06588554               -0.23431894                0.60762059                1.90175296               -0.17279456
               6.03545341                2.99764852                2.99468934                0.00010000                0.07819851                0.02854822               -0.28341290                0.52731591                1.79336875               -0.05893466
               7.03645854                2.99733606                2.99131063                0.00010000               -0.06097438               -0.02395971               -0.42472053                0.35276799                1.74935611               -0.05451087
               8.03423393                2.99562157                2.98935523                0.00010000                0.02944593                0.14698704               -0.15726653               -0.00933709                1.00228770                0.49793867
               9.03704746                2.99218885                2.97468953                1.00000000                0.34973219                0.26203157               -1.07573977               -0.07405675                0.31380166                0.26017948
              10.04122857                2.99042443                2.95403980                1.00000000                0.41811142                0.39215555               -1.50319033               -0.03814094               -0.00846334               -0.18371609
               0.03836436                4.00801981                3.03990088                1.00000000               -0.32854015               -0.24812048                1.30002292               -0.07938772                0.07176342                0.34176634
               1.03507896                4.00505318                3.01853903                1.00000000               -0.21086767               -0.15532523                0.64548644               -0.05897802                0.09555184               -0.01879108
               2.03414701                4.00165523                2.99702919                0.00010000                0.09220632               -0.05553207                0.00426744                0.04165361                1.05896219               -0.36406924
               3.03692309                3.99947127                2.99519536                0.00010000                0.24333722                0.11886068               -0.29656793                0.29391983                2.14854078                0.07848591
               4.03901375                3.99854564                2.99556516                0.00010000                0.16390703                0.11514082               -0.27496813                0.39256164                2.27054364               -0.15447240
               5.04020123                3.99817383                2.99599756                0.00010000                0.07927074                0.07706758               -0.24473331                0.45648235                2.26967202               -0.11745373
               6.04059917                3.99798361                2.99593920                0.00010000               -0.01809833                0.04422773               -0.22025327                0.45151136                2.26374611               -0.04231916
               7.03983926                3.99800678                2.99629868                0.00010000               -0.19408163                0.05979139               -0.16881886                0.24222596                2.38158890                0.21411251
               8.03671754                3.99680836                2.99984936                0.00010000               -0.07861687                0.12661805               -0.05618179                0.03954046                1.37218826                0.54976862
               9.03826692                3.99469790                2.98138005                1.00000000                0.25706378                0.23017951               -0.84155398               -0.05113139                0.22409922                0.15580106
              10.04185881                3.99381362                2.95894908                1.00000000                0.35918876                0.29959695               -1.33978079               -0.05431934                0.00993617               -0.17397580
               0.04017666                5.00581037                3.03701787                1.00000000               -0.28225666               -0.20484248                1.19316069               -0.05929702                0.07333154                0.24645680
               1.03735410                5.00379014                3.01393913                0.00010000               -0.15880559               -0.10503836                0.46909624               -0.02946823                0.10726411               -0.05874777
               2.03700055                5.00145842                2.99092256                0.00010000                0.11888187                0.00798362               -0.19349601                0.11843632                1.28230579               -0.31276295
               3.03973174                5.00134866                2.99178554                0.00010000                0.28899615                0.16407882               -0.35585686               -0.02506305                2.51930102               -0.47870235
               4.04278048                4.99981100                2.99404922                0.00010000                0.24272556                0.11070454               -0.35045533                0.15429731                2.60008254               -0.14158320
               5.04458625                4.99893388                2.99590562                0.00010000                0.09351083                0.07576113               -0.25475278                0.32540848                2.61910005               -0.07819986
               6.04465069                4.99853308                2.99770408                0.00010000               -0.10539708                0.05099427               -0.12196235                0.34575038                2.69057498                0.00494857
               7.04247830                4.99853189                3.00130122                0.00010000               -0.31585407                0.04642121                0.06311730                0.21219266                2.93120858                0.21534227
               8.03833361                4.99815393                3.00918210                0.00010000               -0.17293649                0.10269085                0.03814307                0.05792210                1.64072677                0.45031457
               9.03901958                4.99679244                2.98694780                0.00010000                0.17885712                0.17549667               -0.59741705               -0.01618443                0.11471316                0.11814889
              10.04191075                4.99641637                2.96286985                1.00000000                0.28911781                0.22266618               -1.16000423               -0.04666095                0.00321453               -0.16300735
               0.04121887                6.00392296                3.03371987                1.00000000               -0.23773213               -0.17809958                1.07848279               -0.04542919                0.05716237                0.14893363
               1.03884155                6.00295242                3.00913012                0.00010000               -0.11308254               -0.06711039                0.31424320               -0.00916165                0.11856344               -0.08292627
               2.03895722                6.00181490                2.98528179                0.00010000               -0.03861549                0.04462064               -0.34111566                0.13415577                1.09884284               -0.24493427
               3.03806924                6.00275284                2.98067958                0.00010000                0.27786324                0.03380984               -0.07755535               -0.23290239                2.76202227               -0.67085318
               4.04451448                6.00075974                2.99145860                0.00010000                0.49590424                0.09478355               -0.52354766               -0.02335079                3.24130508               -0.18877167
               5.04798732                5.99968905                2.99573998                0.00010000                0.17008415                0.07044838               -0.27342792                0.21338109                2.97434877               -0.06525962
               6.04791617                5.99900350                2.99937037                0.00010000               -0.17625283                0.04126182               -0.02907881                0.25573275                3.07608354                0.01422011
               7.04446227                5.99893520                3.00593834                0.00010000               -0.41503689                0.02280343                0.28189724                0.16890441                3.39760451                0.19386163
               8.03961543                5.99886218                3.01737816                0.00010000               -0.23907354                0.03546640                0.13040678                0.07152836                1.86755713                0.38156602
               9.03968080                5.99820783                2.99205103                0.00010000                0.10311527                0.10029273               -0.34630095                0.02111442                0.04137264                0.11476562
              10.04167773                5.99826694                2.96675064                1.00000000                0.19969383                0.14082684               -0.90530944               -0.02441029                0.02275755               -0.10900484
               0.04120917                7.00224837                3.03013299                1.00000000               -0.19302417               -0.16240184                0.96321343               -0.04425731                0.03723983                0.06786651
               1.03927892                7.00244794                3.00449890                0.00010000               -0.06629610               -0.03551006                0.15186506               -0.01289475                0.12774917               -0.05677169
               2.03988324                7.00235083                2.98025905                0.00010000               -0.15750353                0.07126567               -0.53163771               -0.00321421                1.04679752               -0.11417149
               3.03612885                7.00202486                2.97307958                0.00010000                0.27470038                0.06317232                0.01510051               -0.25158223                2.98238731               -0.26262971
               4.04537725                7.00170667                2.98837200                0.00010000                0.72406267                0.09796003               -0.72342298                0.01366772                3.69865401               -0.22034155
               5.05061011                7.00034284                2.99521524                0.00010000                0.25709732                0.06914172               -0.31189968                0.12228575                3.32148355               -0.07136148
               6.05051920                6.99935831                3.00075908                0.00010000               -0.23061982                0.02933757                0.05239526                0.16840270                3.42595865                0.01283739
               7.04599771                6.99898796                3.01000253                0.00010000               -0.50138263               -0.01913030                0.48644564                0.10906910                3.82046596                0.15091730
               8.04049154                6.99886325                3.02490861                0.00010000               -0.29803029               -0.02959461                0.22596144                0.04754873                2.08334509                0.29580488
               9.04003710                6.99879829                2.99720999                0.00010000                0.04063962                0.03488046               -0.14142821                0.01781754               -0.01415959                0.11205704
              10.04130434                6.99923290                2.97110366                0.00010000                0.12672328                0.07846622               -0.66115921               -0.01695478                0.06327972               -0.01872313
               0.03993460                8.00067492                3.02645187                1.00000000               -0.14534025               -0.16298296                0.85764572               -0.04993746                0.05018630                0.01360376
               1.03848120                8.00224222                3.00068559                0.00010000               -0.03092951                0.00433144               -0.02380334               -0.03639749                0.19188930               -0.00186224
               2.03931601                8.00324021                2.97743714                0.00010000               -0.23997266                0.14599756               -0.74208762               -0.07058268                1.29577156                0.05280697
               3.03368175                8.00401629                2.97339252                0.00010000                0.35769188                0.31404635               -0.52700266               -0.26566908                3.05290927                0.03790548
               4.04646985                8.00271894                2.98512524                0.00010000                0.95498255                0.12229664               -0.92626189               -0.02429225                3.78901661               -0.22951997
               5.05278140                8.00107189                2.99439030                0.00010000                0.30846296                0.07207008               -0.35585630                0.06119393                3.66095873               -0.06338592
               6.05263911                7.99959025                3.00186817                0.00010000               -0.28213447                0.02829029                0.12062101                0.07733167                3.73685772                0.01255624
               7.04713871                7.99855259                3.01328275                0.00010000               -0.59415210               -0.04475188                0.67520806                0.01814742                4.13552125                0.10644217
               8.04075607                7.99827029                3.03064851                0.00010000               -0.37356053               -0.10971417                0.36662059               -0.04395790                2.26149443                0.07369527
               9.03966750                7.99890544                3.00239089                0.00010000               -0.01433259               -0.00322227                0.01077633               -0.02645162               -0.00852619                0.08315307
              10.04046942                7.99983626                2.97606040                0.00010000                0.08019174                0.09025298               -0.55846761               -0.04972849                0.08124891                0.05193285
               0.03707583                8.99898872                3.02276094                0.00010000               -0.10901474               -0.17566006                0.75821230               -0.04774442                0.09191115               -0.00813670
               1.03598568                9.00253456                2.99754025                0.00010000               -0.01891563                0.06426417               -0.20214316               -0.03660219                0.29685237                0.02390641
               2.03669752                9.00527078                2.97611391                0.00010000               -0.23244663                0.26187925               -1.03394263               -0.04050390                1.48020762                0.11318308
               3.03133675                9.00830578                2.97399059                0.00010000                0.55691460                0.32971833               -1.46952342               -0.29929105                2.97129342                0.02813570
               4.04783581                9.00415261                2.98169152                0.00010000                1.18129613                0.07484753               -1.07488452               -0.15315119                3.87312889               -0.16360050
               5.05496267                9.00178425                2.99353903                0.00010000                0.33746561                0.07176843               -0.39450432                0.01533092                3.99938320               -0.04069250
               6.05458512                8.99992412                3.00268179                0.00010000               -0.36410266                0.04326888                0.17955031                0.01562227                4.03035885                0.02041339
               7.04768062                8.99809292                3.01613029                0.00010000               -0.76627915                0.00104865                0.82171535               -0.08587581                4.23670509                0.07111940
               8.03925954                8.99666897                3.03224784                0.00010000               -0.48692614               -0.11291147                0.58380009               -0.14771379                2.34838409               -0.12263050
               9.03794210                8.99873385                3.00704254                0.00010000               -0.04057059               -0.05479493                0.21889047               -0.02803547                0.13069970                0.03840571
              10.03844813                9.00103796                2.98076059                0.00010000                0.05060304                0.13488770               -0.56638071               -0.06964860                0.06465937                0.03932270
               0.03188802                9.99716172                3.01901921                0.00010000               -0.04209249               -0.18269948                0.58171014                0.11779658                0.11386156               -0.00640540
               1.03146709               10.00352750                2.99419798                0.00010000                0.04233482                0.09929350               -0.39494422                0.11394491                0.34403091                0.05011816
               2.03273471               10.00847780                2.97367358                1.00000000               -0.13264975                0.32070196               -1.25016982               -0.04212252                1.52763290                0.15715972
               3.02881410               10.01061065                2.97177386                0.00010000                0.85968249                0.23048707               -1.61367741               -0.46536083                3.09000717                0.13386779
               4.04992836               10.00421589                2.97959462                0.00010000                1.42512028                0.00632790               -1.17354130               -0.19591459                4.07702180               -0.17295073
               5.05731650               10.00250725                2.99286979                0.00010000                0.33572595                0.07230073               -0.38974512                0.04737007                4.21440774               -0.02655367
               6.05664288               10.00045563                3.00307983                0.00010000               -0.43200808                0.05315056                0.23106362                0.00909184                4.23654062                0.03674853
               7.04867634                9.99857357                3.01786489                0.00010000               -0.97410096                0.04806495                0.92691383               -0.12260614                4.40689147                0.15241417
               8.03716086                9.99601206                3.03395356                0.00010000               -0.69692723               -0.06569126                0.73756956               -0.24806864                2.46436301               -0.20796671
               9.03473780                9.99780954                3.01085977                0.00010000               -0.13463266               -0.09243012                0.48809215                0.00566804                0.23750673                0.02491797
              10.03446821               10.00253402                2.98452410                0.00010000               -0.02695868                0.14960553               -0.41090708                0.07445566                0.06764372               -0.01065197
               0.03617528                0.03185577                4.07025732                1.00000000               -0.43628199               -0.50252826                1.72014437               -0.10489338               -0.23491078                0.27516766
               1.03181246                0.02175100                4.05048233                1.00000000               -0.35761013               -0.36413109                1.26281938               -0.08518542               -0.26273972               -0.01372464
               2.02902307                0.01143368                4.02998619                1.00000000               -0.19744185               -0.23959015                0.81372268               -0.06630881               -0.23471383               -0.15389357
               3.02786362                0.00141364                4.01073265                0.00010000                0.17641733               -0.12732836                0.37254716                0.17401188                0.30297832               -0.13861444
               4.03255142               -0.00374009                4.00098068                0.00010000                0.45081032               -0.19420987                0.16286375                0.09694365                1.00651136               -0.00822525
               5.03687983               -0.00497254                3.99382406                0.00010000                0.25635632               -0.02877501               -0.14884803               -0.01044515                1.06938621                0.00471098
               6.03767855               -0.00589355                3.98484855                0.00010000                0.01019801                0.15939799               -0.50652350                0.02278979                0.95940282                0.03292178
               7.03708379               -0.00975387                3.97472591                0.00010000                0.04428882                0.27322429               -0.80719537                0.08022007                0.61677070                0.01118922
               8.03856432               -0.01663733                3.95839856                1.00000000                0.25593213                0.32788525               -1.13700644               -0.00977836                0.13128004                0.20191791
               9.04220243               -0.02470838                3.93869866                1.00000000                0.43254686                0.42961120               -1.51054903               -0.06917175               -0.07635999                0.02095990
              10.04721526               -0.03260762                3.91835215                1.00000000                0.50128320                0.55415429               -1.90090956               -0.09139341               -0.12084475               -0.14965233
               0.04523111                1.02683048                4.06421661                1.00000000               -0.40594599               -0.47651368                1.59856491               -0.04743738               -0.00604174                0.38214605
               1.04117165                1.01810969                4.04411208                1.00000000               -0.33512198               -0.34062711                1.13575617               -0.03636322                0.04355239               -0.01240952
               2.03852867                1.00903777                4.02475491                1.00000000               -0.19905118               -0.21514628                0.69415266               -0.01707448                0.21456400               -0.35798397
               3.03719062                1.00014035                4.00808384                0.00010000               -0.09073605               -0.10362101                0.29741339                0.16286764                0.82701904               -0.41221804
               4.03671395                0.99431781                4.00122191                0.00010000                0.03307392               -0.01384437                0.12203589                0.45986963                1.35231941               -0.22726097
               5.03785210                0.99473971                3.99554436                0.00010000                0.17915811                0.00052621               -0.14728593                0.62235427                1.32543409               -0.16048668
               6.04029711                0.99570043                3.98795593                0.00010000                0.27028879                0.03174413               -0.46251044                0.50453489                1.16966485               -0.05356619
               7.04325788                0.99297838                3.97873618                0.00010000                0.28233426                0.25496539               -0.72635436                0.24744161                0.95651389                0.27267839
               8.04594379                0.98664152                3.96575319                1.00000000                0.31189882                0.30139958               -0.98217355                0.02807394                0.45353070                0.23895368
               9.04949585                0.97958774                3.94583588                1.00000000                0.41283870                0.40293278               -1.36831459               -0.01897590                0.09024661                0.06209456
              10.05420057                0.97293393                3.92542535                1.00000000                0.47047136                0.53193027               -1.77246648               -0.03383860                0.05205935               -0.17954037
               0.05266811                2.02232549                4.06017017                1.00000000               -0.37902136               -0.41787967                1.48842369               -0.06454893                0.04034200                0.49448922
               1.04887790                2.01493846                4.03777669                1.00000000               -0.30085970               -0.29000946                0.99369190               -0.05585319                0.07099450               -0.01683004
               2.04665092                2.00713075                4.01567658                0.00010000               -0.15184803               -0.16779090                0.50654977               -0.02649529                0.43802875               -0.57214592
               3.04584094                1.99934122                4.00066049                0.00010000                0.02492690               -0.08624071                0.13156239                0.31207643                1.42423219               -0.78018966
               4.04714946                1.99598302                3.99792458                0.00010000                0.10516738                0.15280038               -0.08187981                0.74486283                1.91737433               -0.38087211
               5.04794429                1.99503798                3.99428815                0.00010000                0.11905604                0.05703409               -0.22138454                0.89232251                1.78055272               -0.27651258
               6.04953058                1.99474133                3.98959673                0.00010000                0.15736200               -0.02781082               -0.36329131                0.87752921                1.85260664               -0.10915183
               7.05109153                1.99534544                3.98757111                0.00010000                0.14929308                0.05876384               -0.44346825                0.46136189                1.45835902                0.13478860
               8.05251644                1.98939066                3.97366871                0.00010000                0.22194893                0.24913703               -0.80884241               -0.00911341                0.59579230                0.43415833
               9.05553051                1.98335028                3.95378543                1.00000000                0.36648345                0.34334299               -1.22574827               -0.04193871                0.22096156                0.22952429
              10.05984611                1.97803099                3.93211692                1.00000000                0.43156033                0.48436528               -1.64161754               -0.04432059                0.11541257               -0.19389876
               0.05871419                3.01847289                4.05642754                1.00000000               -0.34648695               -0.35334572                1.37108173               -0.06862730                0.04793409                0.48695251
               1.05524933                3.01230950                4.03136449                1.00000000               -0.25590957               -0.23421829                0.83101409               -0.05694624                0.06194966               -0.02304875
               2.05359600                3.00568196                4.00622562                0.00010000               -0.03347203               -0.11816535                0.29426772               -0.05448210                0.58271761               -0.55103060
               3.05457988                2.99841554                3.99171111                0.00010000                0.11592172                0.06653816               -0.08263014                0.38476620                2.02084056               -0.39996844
               4.05591444                2.99737381                3.99483814                0.00010000                0.11801764                0.13082722               -0.19401669                0.68767814                2.57834908               -0.28401951
               5.05694024                2.99588039                3.99366138                0.00010000                0.08128996                0.09767285               -0.25028706                0.71826153                2.27290620               -0.20552834
               6.05754024                2.99514421                3.99155929                0.00010000                0.04477756                0.05014598               -0.31168062                0.67363588                2.16205881               -0.06815229
               7.05783579                2.99415365                3.98845978                0.00010000                0.01082243               -0.04680119               -0.34811215                0.45917003                2.05600059               -0.00987204
               8.05775669                2.99162426                3.98452013                0.00010000                0.10904820                0.19358587               -0.52083501                0.07255547                1.30370384                0.74349654
               9.06001675                2.98645460                3.96401650                1.00000000                0.30980271                0.29327811               -1.05924611               -0.05836499                0.23351792                0.29924120
              10.06395274                2.98262123                3.93899659                1.00000000                0.39359870                0.41874494               -1.48789952               -0.03767079               -0.01215376               -0.19003240
               0.06362235                4.01525858                4.05263514                1.00000000               -0.30924366               -0.29763615                1.25358180               -0.06218910                0.05686193                0.43526709
               1.06052991                4.01025409                4.02508750                1.00000000               -0.20835532               -0.17974308                0.66182033               -0.04773920                0.07204587               -0.02854972
               2.05945524                4.00476744                3.99748387                0.00010000                0.06572485               -0.06220791                0.07475870                0.05472405                1.18563958               -0.48485142
               3.06184441                4.00067198                3.99244538                0.00010000                0.19914656                0.20908651               -0.25940185                0.33512019                2.50840364               -0.01814469
               4.06343817                3.99859956                3.99267303                0.00010000                0.13473562                0.13452305               -0.26798102                0.49589269                2.74831937               -0.21846489
               5.06453912                3.99699144                3.99337945                0.00010000                0.06459329                0.11028224               -0.26176439                0.55352697                2.72191878               -0.15539189
               6.06473004                3.99574425                3.99367763                0.00010000               -0.03721189                0.06769856               -0.23821811                0.52717376                2.70948584               -0.01018061
               7.06379488                3.99440942                3.99461723                0.00010000               -0.15317154                0.04992233               -0.21245240                0.41665754                2.87178846                0.26448564
               8.06166661                3.99326238                3.99812171                0.00010000               -0.02143217                0.14240610               -0.24358285                0.10563586                1.63037804                0.77202199
               9.06336624                3.98921584                3.97278271                1.00000000                0.25464090                0.25075159               -0.85853586               -0.04552790                0.10813891                0.20484783
              10.06675942                3.98640589                3.94564376                1.00000000                0.33931861                0.33629351               -1.31503073               -0.04086224                0.00177057               -0.21242665
               0.06747938                5.01252017                4.04859445                1.00000000               -0.26937062               -0.25913432                1.14048417               -0.05700909                0.07021772                0.35946713
               1.06478568                5.00871464                4.01889967                0.00010000               -0.16033926               -0.13204705                0.50271128               -0.03984066                0.09133828               -0.05185387
               2.06427260                5.00443780                3.98931444                0.00010000                0.13322468               -0.00686157               -0.12955457                0.11810398                1.54603552               -0.43601833
               3.06745017                5.00259727                3.98897401                0.00010000                0.26201178                0.13186920               -0.24196460                0.29710486                3.09253400               -0.36866373
               4.06951283                5.00006428                3.99046630                0.00010000                0.17079588                0.13113373               -0.31983044                0.29893303                3.16353205               -0.28201848
               5.07086609                4.99808604                3.99317528                0.00010000                0.05764523                0.10674896               -0.26647179                0.39152918                3.18960477               -0.13483732
               6.07066574                4.99649819                3.99643535                0.00010000               -0.11076361                0.07602234               -0.15159061                0.39318770                3.26778393                0.03677729
               7.06865081                4.99515210                4.00134579                0.00010000               -0.28013799                0.06850378               -0.05411280                0.34081744                3.49184615                0.27830890
               8.06506298                4.99447238                4.00880969                0.00010000               -0.13440644                0.10277103               -0.07068490                0.12038531                1.88668081                0.58947928
               9.06596269                4.99146963                3.98075224                0.00010000                0.18462142                0.19103492               -0.63033716               -0.02864628                0.07197829                0.15250779
              10.06875541                4.98934710                3.95157160                1.00000000                0.27927194                0.26003089               -1.12321937               -0.04096657                0.00712220               -0.22280860
               0.07009322                6.01007589                4.04418405                1.00000000               -0.22777542               -0.23288216                1.03179434               -0.06139977                0.07019442                0.28278388
               1.06781546                6.00761315                4.01258834                0.00010000               -0.10792654               -0.08899907                0.34340376               -0.04363071                0.11829260               -0.08088608
               2.06793469                6.00463021                3.98164064                0.00010000                0.21722809                0.03647534               -0.34031297                0.08505402                1.72571802               -0.41512106
               3.07216003                6.00330937                3.98227844                0.00010000                0.29966891                0.02527724               -0.02706075                0.24004310                3.71523853               -0.53547043
               4.07392807                6.00122224                3.98657657                0.00010000                0.18878831                0.10213318               -0.37373464                0.19423316                3.77013611               -0.36960323
               5.07593579                5.99912642                3.99271736                0.00010000                0.07998311                0.10251249               -0.28262413                0.26126270                3.72054198               -0.14105314
               6.07552773                5.99726470                3.99909285                0.00010000               -0.16493804                0.07048332               -0.06478693                0.27500568                3.78671109                0.04122608
               7.07263703                5.99577949                4.00750057                0.00010000               -0.38854732                0.04876468                0.09500192                0.26224342                4.05384162                0.24273612
               8.06775678                5.99531780                4.01865122                0.00010000               -0.23592186                0.05464722                0.11262364                0.09701366                2.11979392                0.51792228
               9.06791859                5.99303654                3.98822832                0.00010000                0.12141816                0.12421948               -0.40430679               -0.02500437                0.03598790                0.13282796
              10.07018515                5.99160651                3.95740766                1.00000000                0.22665507                0.19453466               -0.94092520               -0.03278948                0.02439811               -0.18765426
               0.07117686                7.00786252                4.03954174                1.00000000               -0.18181239               -0.20882068                0.92448719               -0.06903211                0.04989660                0.22849900
               1.06935874                7.00693466                4.00619849                0.00010000               -0.04497000               -0.04550972                0.15879215               -0.06294669                0.12282322               -0.07006752
               2.07027746                7.00516731                3.97396812                0.00010000                0.31501328                0.09061194               -0.61200291               -0.03526433                1.88185624               -0.34427744
               3.07565901                7.00310282                3.97560426                0.00010000                0.36514883               -0.00421876               -0.04771214                0.14818839                4.24321504               -0.57662141
               4.07758044                7.00210694                3.98192305                0.00010000                0.21949361                0.12526015               -0.47809272                0.19716325                4.31924495               -0.38439469
               5.08004888                7.00013629                3.99173932                0.00010000                0.09661688                0.10119946               -0.31121719                0.17264015                4.24666858               -0.13937488
               6.07951278                6.99790785                4.00136990                0.00010000               -0.21031470                0.05977121                0.01578461                0.16490911                4.28139732                0.03377501
               7.07584258                6.99612739                4.01310814                0.00010000               -0.48832887                0.01523697                0.24724053                0.16402595                4.57014385                0.20529362
               8.06974620                6.99556533                4.02775535                0.00010000               -0.33343458               -0.00779285                0.29790148                0.04458398                2.34536882                0.43023836
               9.06917389                6.99395402                3.99552274                0.00010000                0.06067431                0.06347630               -0.19358166               -0.03307108                0.00693688                0.13853479
              10.07095969                6.99323780                3.96327305                0.00010000                0.17857947                0.15087028               -0.79239747               -0.04047463                0.02395010               -0.13049243
               0.07056831                8.00589948                4.03487705                0.00010000               -0.13165584               -0.18917723                0.81816661               -0.07252579                0.05411796                0.19965934
               1.06925175                8.00670296                4.00032841                0.00010000                0.02464685                0.00980941               -0.05668728               -0.07402801                0.15951924               -0.01911411
               2.07106124                8.00644245                3.96748044                0.00010000                0.44662055                0.20546486               -0.97767959               -0.18901192                1.85121060               -0.19127070
               3.07818416                8.00322499                3.96597181                0.00010000                0.48883083                0.22392358               -0.76376443               -0.09421446                4.58407980               -1.08282324
               4.08083786                8.00372744                3.97697603                0.00010000                0.27017613                0.17655053               -0.65043835                0.18018886                4.89075343               -0.28776922
               5.08358768                8.00115041                3.99048748                0.00010000                0.09984719                0.09348348               -0.34185440                0.08350777                4.73585323               -0.11485169
               6.08283480                7.99846012                4.00324224                0.00010000               -0.26638041                0.06765357                0.08818165                0.06982940                4.73403406                0.03048342
               7.07826007                7.99608423                4.01802669                0.00010000               -0.60064846               -0.00651136                0.40853726                0.03557068                5.01619744                0.15560228
               8.07082184                7.99516194                4.03562867                0.00010000               -0.43376840               -0.10217314                0.53378751               -0.04112679                2.57321413                0.26048182
               9.06958471                7.99430607                4.00261246                0.00010000               -0.00068686                0.00653693                0.00339148               -0.04645452                0.02554526                0.13387184
              10.07080810                7.99462391                3.96916853                0.00010000                0.12233919                0.13810441               -0.67995620               -0.04832495                0.01779704               -0.08773590
               0.06811939                9.00407898                4.03020600                0.00010000               -0.07841809               -0.17868120                0.70985423               -0.05956568                0.09232277                0.15193169
               1.06733521                9.00713085                3.99497015                0.00010000                0.09279030                0.08589440               -0.29370744               -0.04626696                0.24631188                0.00710860
               2.06997519                9.00927660                3.96219249                0.00010000                0.45772601                0.37901703               -1.37682407               -0.20963051                1.40184590               -0.07026324
               3.07648973                9.00758129                3.94839814                0.00010000                0.66418027                0.61819915               -1.96262410               -0.29362403                4.67045219               -0.89186252
               4.08325880                9.00563795                3.97316697                0.00010000                0.52483114                0.12999918               -0.79277400                0.00986512                5.76029676               -0.18356876
               5.08698635                9.00200596                3.98926115                0.00010000                0.13583726                0.09103515               -0.36482717                0.02370635                5.12804144               -0.06560156
               6.08597554                8.99926092                4.00476613                0.00010000               -0.35670849                0.07736128                0.15433242                0.01421846                5.13342143                0.03148142
               7.07985218                8.99599716                4.02202486                0.00010000               -0.76368574                0.06781581                0.53932889               -0.07458746                5.35754016                0.07688629
               8.07070183                8.99352187                4.04137041                0.00010000               -0.55346732               -0.26190982                0.93359432               -0.18669450                2.85391480                0.10440947
               9.06878283                8.99408476                4.00940043                0.00010000               -0.06721645               -0.06498024                0.22274688               -0.04934853                0.14175147                0.09438497
              10.06935750                8.99599988                3.97484189                0.00010000                0.05746669                0.13706607               -0.56450509               -0.05113842                0.01227192               -0.07743248
               0.06327326               10.00232585                4.02470627                0.00010000               -0.01444730               -0.17531254                0.53352241                0.12488637                0.19363419                0.12206212
               1.06312879               10.00842085                3.98944251                0.00010000                0.15724671                0.12899995               -0.51691207                0.16420483                0.37567919                0.01451422
               2.06641819               10.01402279                3.95718995                1.00000000                0.64107727                0.47461889               -1.60339310                0.00270631                1.50259028               -0.01179688
               3.07595033               10.01558897                3.94268060                0.00010000                1.00961507                0.80076859               -2.23296686               -0.43870789                4.90748036               -0.28558544
               4.08661049               10.00632742                3.97005722                0.00010000                0.72442521                0.06894739               -0.89199470               -0.29572346                6.11977855               -0.14335348
               5.09043884               10.00297111                3.98860303                0.00010000                0.12587348                0.09651567               -0.36208127                0.02924491                5.45184674               -0.03024458
               6.08912796               10.00000735                4.00585482                0.00010000               -0.39657265                0.07464261                0.21728910                0.03871378                5.43623260                0.03758697
               7.08250738                9.99744055                4.02476261                0.00010000               -1.00638055                0.14433827                0.65357407               -0.23865991                5.72388110                0.07278058
               8.06900035                9.98992375                4.04644283                0.00010000               -0.81938324               -0.35981201                1.22755868               -0.39185184                3.11756916               -0.04051939
               9.06611972                9.99300646                4.01566793                0.00010000               -0.15226388               -0.10782944                0.46232288                0.10576279                0.28381627                0.06734399
              10.06595508                9.99736523                3.98068795                0.00010000               -0.01646422                0.13653488               -0.36530489                0.09563457                0.07895174               -0.08008690
               0.05579859                0.04143641                5.08730935                1.00000000               -0.43081293               -0.49283036                1.68641667               -0.09818716               -0.26302240                0.31310309
               1.05149046                0.02862612                5.06312952                1.00000000               -0.35445326               -0.36446911                1.26370807               -0.07561895               -0.29056702               -0.01417013
               2.04870953                0.01556667                5.03827928                1.00000000               -0.19528583               -0.24740980                0.83960815               -0.05799078               -0.25331936               -0.18039027
               3.04758474                0.00286279                5.01482733                0.00010000                0.22341596               -0.15362670                0.43759494                0.22325991                0.39500364               -0.16619134
               4.05317784               -0.00394062                5.00288307                0.00010000                0.49616321               -0.22237637                0.20861690                0.07878132                1.12724951               -0.01696788
               5.05750801               -0.00663610                4.99246227                0.00010000                0.27107456               -0.03912664               -0.12916914               -0.01775071                1.07837231                0.00446085
               6.05859934               -0.00887557                4.97974879                0.00010000                0.03651227                0.14431622               -0.50628336                0.01228900                0.95619773                0.02957668
               7.05823825               -0.01393797                4.96649930                0.00010000                0.05493618                0.26003593               -0.82389542                0.07513153                0.63761368                0.02670443
               8.05969806               -0.02246246                4.94698636                1.00000000                0.25338128                0.33913833               -1.14855570                0.00103594                0.13117056                0.23842718
               9.06330588               -0.03227635                4.92366075                1.00000000                0.42718894                0.43139485               -1.50133760               -0.05748721               -0.10130828                0.02712153
              10.06824184               -0.04195596                4.89955189                1.00000000                0.49359583                0.54375266               -1.86161871               -0.08269718               -0.14729250               -0.17467468
               0.06762702                1.03650811                5.07997742                1.00000000               -0.39578713               -0.47043646                1.55304443               -0.04430872               -0.00509010                0.43276169
               1.06366914                1.02498143                5.05541765                1.00000000               -0.33078686               -0.34087360                1.12592875               -0.02945373                0.05341311               -0.01535054
               2.06101128                1.01309257                5.03183553                1.00000000               -0.20490779               -0.22052922                0.71852363               -0.01451583                0.25802570               -0.41189657
               3.05957099                1.00132653                5.01140274                0.00010000               -0.11480874               -0.14099843                0.34886501                0.22853202                0.99750195               -0.46815923
               4.05871510                0.99383561                5.00281765                0.00010000                0.01134929               -0.02693304                0.17996946                0.52663467                1.54140367               -0.29711642
               5.05979797                0.99297264                4.99421798                0.00010000                0.18290288               -0.00775283               -0.12402914                0.66760143                1.40646683               -0.18791633
               6.06237316                0.99256759                4.98323530                0.00010000                0.29925216                0.02509112               -0.46961214                0.54279845                1.24470704               -0.03299945
               7.06578302                0.98866239                4.97133499                0.00010000                0.32522250                0.26980551               -0.74445030                0.29876068                1.04973868                0.33428671
               8.06887761                0.98092892                4.95567903                1.00000000                0.33473680                0.31236601               -1.01824285                0.05678685                0.50827104                0.28917833
               9.07247775                0.97203759                4.93215638                1.00000000                0.41084280                0.40717485               -1.36463788               -0.01156446                0.08691127                0.07110462
              10.07709447                0.96348157                4.90797848                1.00000000                0.46167137                0.52386240               -1.72524298               -0.03079083                0.04669049               -0.20728527
               0.07796578                2.03202768                5.07482967                1.00000000               -0.36488584               -0.42306263                1.44281533               -0.05745781                0.04196398                0.55834392
               1.07431693                2.02180864                5.04766232                1.00000000               -0.29458390               -0.29282821                0.98354689               -0.04653780                0.07443188               -0.02855307
               2.07207411                2.01115608                5.02088256                0.00010000               -0.14522928               -0.16757085                0.53607639               -0.04419011                0.50496058               -0.66822064
               3.07141234                2.00004283                5.00237108                0.00010000               -0.00048386               -0.10696693                0.19108176                0.36708455                1.60657462               -0.90466287
               4.07206443                1.99552072                4.99748242                0.00010000                0.03578583                0.16218658               -0.00258854                0.88497178                2.20392891               -0.50443906
               5.07212806                1.99320885                4.99220894                0.00010000                0.08505605                0.06090095               -0.15983604                0.99695528                2.04818951               -0.33215022
               6.07376555                1.99162626                4.98575592                0.00010000                0.18620429               -0.01815080               -0.43217564                0.98861636                2.14476853               -0.07562755
               7.07585214                1.99145814                4.98253636                0.00010000                0.18465211                0.07150533               -0.52824308                0.54966482                1.64145354                0.21589142
               8.07745859                1.98378486                4.96523197                0.00010000                0.23348983                0.25547886               -0.85946593                0.01413374                0.63234758                0.54797212
               9.08052194                1.97586714                4.94152877                1.00000000                0.36397375                0.35694006               -1.22212627               -0.02499831                0.22244867                0.24937648
              10.08473807                1.96852129                4.91595524                1.00000000                0.42161281                0.48076841               -1.59731782               -0.03804284                0.12025944               -0.21995537
               0.08691594                3.02804686                5.06993046                1.00000000               -0.33059497               -0.37347225                1.32935635               -0.06064447                0.04150663                0.55912029
               1.08360999                3.01912486                5.03967265                1.00000000               -0.25113218               -0.24308167                0.82879348               -0.04757410                0.05299642               -0.03931908
               2.08189329                3.00974115                5.00935559                0.00010000               -0.05309716               -0.11433499                0.32918012               -0.07549311                0.63807984               -0.65965622
               3.08254805                2.99918719                4.99091459                0.00010000                0.06776121                0.09013241               -0.05449819                0.39139275                2.24155446               -0.49572023
               4.08324852                2.99707935                4.99325105                0.00010000                0.05417485                0.15137331               -0.13498287                0.79925536                2.97958229               -0.38124312
               5.08363154                2.99419066                4.99115719                0.00010000                0.03238371                0.11716245               -0.23720849                0.83160904                2.66033215               -0.25011867
               6.08389619                2.99220458                4.98845573                0.00010000                0.04930849                0.06388422               -0.32182843                0.78436963                2.52511422               -0.04372135
               7.08461771                2.99009250                4.98434838                0.00010000                0.04275458               -0.05238335               -0.43976068                0.54063624                2.41143499                0.02437698
               8.08475128                2.98603850                4.97893853                0.00010000                0.13118196                0.20871912               -0.60743353                0.13924649                1.36856761                0.88157092
               9.08724135                2.97917639                4.95350460                1.00000000                0.31370130                0.30959845               -1.04603371               -0.02779243                0.19011836                0.33222838
              10.09102531                2.97309694                4.92428181                1.00000000                0.37839594                0.42343892               -1.45374613               -0.03624304               -0.01249993               -0.20509125
               0.09459689                4.02455824                5.06497251                1.00000000               -0.29257390               -0.32980296                1.21513220               -0.05839112                0.04593767                0.52584015
               1.09167115                4.01694701                5.03177544                1.00000000               -0.20474851               -0.19363195                0.66960374               -0.04189835                0.05839955               -0.03755947
               2.09050192                4.00886938                4.99852437                0.00010000                0.01154272               -0.05799367                0.12401713                0.04260463                1.28422930               -0.58839818
               3.09190200                4.00184547                4.99000732                0.00010000                0.12720769                0.24775704               -0.21320384                0.37806510                2.86951810               -0.04139342
               4.09304607                3.99854818                4.99020554                0.00010000                0.08665014                0.15938716               -0.23257943                0.61539761                3.25657809               -0.27423732
               5.09363501                3.99555210                4.99076228                0.00010000                0.02525152                0.13542833               -0.25633840                0.65667546                3.20823670               -0.18177053
               6.09355110                3.99290394                4.99117484                0.00010000               -0.04020279                0.08244115               -0.26453156                0.63990202                3.19072181                0.00255539
               7.09283095                3.99041047                4.99204963                0.00010000               -0.11957384                0.05611160               -0.28970672                0.51892373                3.32445007                0.34713310
               8.09115962                3.98795924                4.99497770                0.00010000                0.00383496                0.16877514               -0.35441670                0.17790656                1.77287910                0.86154453
               9.09290765                3.98205911                4.96420933                1.00000000                0.25062471                0.26102911               -0.85436484               -0.02566447                0.05092102                0.24962284
              10.09617212                3.97699007                4.93264846                1.00000000                0.32644697                0.35496765               -1.28682920               -0.03744557                0.00009908               -0.22650434
               0.10097057                5.02145080                5.05982755                1.00000000               -0.25096950               -0.29634478                1.10457951               -0.05899298                0.06129276                0.47172793
               1.09846088                5.01525222                5.02399336                0.00010000               -0.15618238               -0.14555671                0.51067550               -0.03949273                0.08610453               -0.05339127
               2.09784692                5.00858128                4.98833147                0.00010000                0.09848353               -0.00052961               -0.07555518                0.10848363                1.79925982               -0.53514361
               3.10043055                5.00414233                4.98694624                0.00010000                0.20014629                0.17838528               -0.19806988                0.36109414                3.54110430               -0.29061364
               4.10184985                5.00026709                4.98765261                0.00010000                0.09893741                0.16813691               -0.26953305                0.45945515                3.67966975               -0.27743609
               5.10240930                4.99689922                4.99057618                0.00010000               -0.00069979                0.13759227               -0.25484963                0.49165968                3.77305135               -0.16033908
               6.10183585                4.99385340                4.99467227                0.00010000               -0.12342043                0.09947656               -0.19509323                0.48157915                3.86057310                0.05577165
               7.09994089                4.99121473                5.00021896                0.00010000               -0.25875380                0.08085515               -0.14536166                0.43551882                4.03082613                0.35304034
               8.09666078                4.98941400                5.00776841                0.00010000               -0.11218285                0.11578621               -0.13487439                0.16530894                2.10059673                0.66752664
               9.09769723                4.98439698                4.97434106                0.00010000                0.18768514                0.20173917               -0.64527576               -0.02406232                0.03555524                0.20256283
              10.10041448                4.98019629                4.94040547                1.00000000                0.27172509                0.29111652               -1.11133375               -0.03832352                0.00281561               -0.24872648
               0.10581418                6.01863134                5.05435576                1.00000000               -0.20633671               -0.26627211                0.99503783               -0.06339527                0.06611144                0.41442333
               1.10375081                6.01403588                5.01599819                0.00010000               -0.10163485               -0.09728531                0.33935435               -0.04622112                0.12551288               -0.08848675
               2.10378148                6.00885879                4.97847553                0.00010000                0.18436319                0.05220982               -0.29708543                0.08224861                2.11741051               -0.54061591
               3.10743808                6.00541318                4.98013837                0.00010000                0.28483999                0.13283636               -0.25912721                0.28299039                4.11001203               -0.47973468
               4.10947828                6.00191092                4.98398391                0.00010000                0.12219055                0.16761150               -0.27380286                0.33340000                4.29557125               -0.35816990
               5.10988189                5.99830394                4.99008750                0.00010000               -0.03055525                0.14430037               -0.24852844                0.33349425                4.38464303               -0.16924427
               6.10886718                5.99489347                4.99807463                0.00010000               -0.19505793                0.10155110               -0.12174066                0.33330555                4.50253762                0.05821762
               7.10598073                5.99202758                5.00783838                0.00010000               -0.37918108                0.06764894                0.00032700                0.32278688                4.67989876                0.31712324
               8.10128355                5.99027496                5.01963064                0.00010000               -0.21683089                0.05382830                0.08008469                0.11949299                2.41689093                0.59035085
               9.10164411                5.98609389                4.98396490                0.00010000                0.12617318                0.13939350               -0.43558829               -0.02508261                0.03931507                0.17469834
              10.10380702                5.98281240                4.94793214                1.00000000                0.21629083                0.23329485               -0.94458236               -0.03473779                0.01344698               -0.24333912
               0.10889360                7.01612536                5.04862273                1.00000000               -0.15845932               -0.23137471                0.87981726               -0.06688073                0.04729125                0.37728349
               1.10730901                7.01330652                5.00767474                0.00010000               -0.03895028               -0.04738012                0.14436046               -0.05912496                0.13046066               -0.09791258
               2.10811459                7.00962548                4.96801900                0.00010000                0.28646092                0.11658210               -0.57302975                0.02039415                2.37091462               -0.53464056
               3.11303823                7.00679906                4.97212534                0.00010000                0.37562476                0.20763859               -0.41735492                0.12117597                4.61097109               -0.71721577
               4.11562709                7.00361932                4.97881014                0.00010000                0.15292037                0.19043563               -0.33280552                0.16385697                4.89199251               -0.43517426
               5.11609663                6.99978523                4.98899089                0.00010000               -0.04243803                0.14745429               -0.25267218                0.18077373                5.02303776               -0.17074470
               6.11477833                6.99588442                5.00107477                0.00010000               -0.25407501                0.09551055               -0.04927295                0.18479395                5.12819062                0.05005470
               7.11101513                6.99256771                5.01494734                0.00010000               -0.48970042                0.03601738                0.15054864                0.18508178                5.29947862                0.27957658
               8.10498432                6.99049057                5.03086664                0.00010000               -0.31784959               -0.02050500                0.30536731                0.04840815                2.72959349                0.51434714
               9.10465814                6.98718485                4.99333836                0.00010000                0.06491965                0.08056476               -0.23001104               -0.03169682                0.04652230                0.16250341
              10.10628271                6.98486219                4.95525571                0.00010000                0.16245730                0.18501536               -0.79471204               -0.03695532                0.00903269               -0.22788296
               0.11011424                8.01400385                5.04281520                0.00010000               -0.10460514               -0.19636150                0.75650948               -0.06653806                0.04507884                0.36147620
               1.10906819                8.01308827                4.99955184                0.00010000                0.02912901                0.01280567               -0.07822022               -0.05984956                0.14453525               -0.07429048
               2.11069682                8.01119043                4.95788355                0.00010000                0.33997795                0.22652644               -0.92069275               -0.01652350                2.30133714               -0.45481384
               3.11586775                8.00956595                4.95811723                0.00010000                0.45362124                0.34803412               -0.67818619               -0.23688549                4.94470710               -1.33773617
               4.11976925                8.00571963                4.97211647                0.00010000                0.26822528                0.18903621               -0.48243643               -0.08806421                5.66971219               -0.44086200
               5.12123226                8.00125303                4.98755321                0.00010000                0.00056639                0.12857171               -0.27197092                0.04558756                5.66878233               -0.13895343
               6.11978058                7.99680368                5.00363181                0.00010000               -0.30780177                0.10283731                0.01955548                0.06032070                5.71709042                0.04281049
               7.11507622                7.99274792                5.02145349                0.00010000               -0.60729991                0.01635062                0.30699555                0.01365955                5.88640425                0.21793035
               8.10763458                7.98986486                5.04132426                0.00010000               -0.42188356               -0.12737832                0.57190447               -0.05323978                3.04774904                0.41510229
               9.10663855                7.98770519                5.00245872                0.00010000                0.00393249                0.01906155               -0.02700047               -0.03523238                0.07215834                0.15770888
              10.10771323                7.98651271                4.96246128                0.00010000                0.10746780                0.15538518               -0.65684629               -0.04285166                0.00697578               -0.22242657
               0.10939399                9.01219813                5.03695802                0.00010000               -0.04685574               -0.17007152                0.62763250               -0.05485095                0.06593364                0.29292449
               1.10892543                9.01356263                4.99166610                0.00010000                0.09562293                0.08923887               -0.32319122               -0.03066577                0.19658732               -0.05631179
               2.11130645                9.01415600                4.94857742                0.00010000                0.24229413                0.35282520               -1.28626307               -0.04756414                1.74462031               -0.29697816
               3.11377131                9.01375974                4.93473811                0.00010000                0.54361415                0.33840310               -0.99304499               -0.42636389                5.19996119               -1.08880096
               4.12217873                9.00740004                4.96583604                0.00010000                0.60765113                0.09243381               -0.67220498               -0.23854086                6.85674040               -0.32371797
               5.12592434                9.00235666                4.98624248                0.00010000                0.11555569                0.09827883               -0.29116614               -0.00676444                6.24057246               -0.07277350
               6.12448984                8.99794117                5.00576844                0.00010000               -0.38485976                0.11131574                0.08090409               -0.00172852                6.23254752                0.03103489
               7.11822714                8.99289472                5.02691687                0.00010000               -0.77637925                0.09028679                0.45808619               -0.12542231                6.43667754                0.11646999
               8.10896226                8.98794300                5.05091972                0.00010000               -0.54607469               -0.24040180                0.90835320               -0.21781441                3.40373307                0.26413402
               9.10730565                8.98756608                5.01149748                0.00010000               -0.05758076               -0.05418820                0.19215783               -0.02213230                0.12472002                0.13941065
              10.10781064                8.98796989                4.96947049                0.00010000                0.05049963                0.13637303               -0.51507227               -0.04491939               -0.00945119               -0.18941557
               0.10628822               10.01060242                5.02968966                0.00010000                0.02087803               -0.15957067                0.45051712                0.11648616                0.24228629                0.24058896
               1.10649700               10.01487305                4.98385974                0.00010000                0.16301068                0.13104226               -0.54628840                0.13938257                0.44061346               -0.05478827
               2.10954843               10.01824694                4.94160572                0.00010000                0.37997182                0.40909328               -1.48061150               -0.10275355                1.98256817               -0.22772270
               3.11409643               10.01633401                4.92711453                0.00010000                0.84265382                0.25742740               -1.20418775               -0.50141931                5.49327752               -0.61085767
               4.12640151               10.00756831                4.96175473                0.00010000                0.82297037                0.01682672               -0.74806425               -0.23349280                7.32289439               -0.26203893
               5.13055584               10.00321860                4.98562817                0.00010000                0.14032208                0.08619395               -0.29472166                0.03623478                6.66816982               -0.03636294
               6.12920795                9.99903000                5.00742562                0.00010000               -0.39949482                0.10888265                0.13463409                0.03856339                6.63869568                0.03665681
               7.12256595                9.99455366                5.03093637                0.00010000               -1.03005086                0.16589403                0.58100908               -0.26477806                6.91997273                0.07222701
               8.10860693                9.98505683                5.05850474                0.00010000               -0.81984674               -0.28861721                1.13214231               -0.43214443                3.80698124                0.21098364
               9.10616901                9.98662143                5.02010622                0.00010000               -0.12998604               -0.09446520                0.41509964                0.09550338                0.32127404                0.13096761
              10.10600721                9.98924017                4.97721800                0.00010000               -0.01617993                0.12702761               -0.32880158                0.08153099                0.09927366               -0.16073159
               0.07927447                0.05278169                6.10398565                1.00000000               -0.42432926               -0.48162901                1.64820125               -0.09159606               -0.30201094                0.35597213
               1.07503118                0.03689136                6.07575649                1.00000000               -0.35077976               -0.36214677                1.25825302               -0.06835315               -0.33274821               -0.01328103
               2.07225888                0.02071339                6.04677835                1.00000000               -0.19356374               -0.25168163                0.85454562               -0.05309646               -0.28415098               -0.19636721
               3.07115991                0.00493900                6.01948455                0.00010000                0.26012966               -0.17055842                0.48218482                0.26676275                0.45114155               -0.19751079
               4.07746147               -0.00394862                6.00515301                0.00010000                0.52108225               -0.22752586                0.23406473                0.05984309                1.17729332               -0.02056160
               5.08158155               -0.00839474                5.99124067                0.00010000                0.26520000               -0.03705408               -0.11762615               -0.01809757                1.04244373                0.00268972
               6.08276547               -0.01227504                5.97472288                0.00010000                0.05084693                0.13083517               -0.49549382                0.00605676                0.91885415                0.02332061
               7.08259849               -0.01889115                5.95824800                0.00010000                0.06304093                0.25182035               -0.82505127                0.07208931                0.62062047                0.02780610
               8.08402629               -0.02925413                5.93542745                1.00000000                0.25061227                0.34336099               -1.15788832                0.01284961                0.10227058                0.26445115
               9.08761074               -0.04115722                5.90867191                1.00000000                0.42304199                0.42990259               -1.49529398               -0.05261797               -0.13783554                0.03000087
              10.09248713               -0.05295428                5.88111978                1.00000000                0.48763946                0.53391495               -1.82993091               -0.07940006               -0.18307588               -0.20576253
               0.09424885                1.04796540                6.09527750                1.00000000               -0.38670449               -0.46211784                1.50880185               -0.04117014               -0.01023916                0.49002796
               1.09038180                1.03326989                6.06663066                1.00000000               -0.32723778               -0.33894824                1.11560502               -0.02431814                0.05528504               -0.01304411
               2.08770409                1.01819657                6.03912538                1.00000000               -0.21116327               -0.22335567                0.73547264               -0.01269920                0.28256894               -0.45288184
               3.08615854                1.00323342                6.01506114                0.00010000               -0.14886575               -0.16014467                0.37659795                0.28961061                1.13456483               -0.51817742
               4.08472678                0.99377612                6.00482129                0.00010000               -0.02973741               -0.02952731                0.20701870                0.59650042                1.68309304               -0.34784959
               5.08556379                0.99123472                5.99306378                0.00010000                0.16737339               -0.00747420               -0.11116532                0.71551076                1.43908540               -0.18233336
               6.08807424                0.98903331                5.97856369                0.00010000                0.31225688                0.01417004               -0.46104661                0.58626969                1.27978513               -0.06083052
               7.09180893                0.98362705                5.96384717                0.00010000                0.36067881                0.27705135               -0.74817032                0.34961199                1.10924243                0.39662139
               8.09528782                0.97417948                5.94538834                1.00000000                0.35628547                0.31723673               -1.03194302                0.08297246                0.53905296                0.32356959
               9.09893463                0.96314181                5.91854313                1.00000000                0.41011881                0.40734038               -1.35649723               -0.00745759                0.08478264                0.07425786
              10.10349020                0.95238487                5.89092049                1.00000000                0.45555612                0.51414163               -1.69121518               -0.03013334                0.04075135               -0.24240109
               0.10784209                2.04353933                6.08902648                1.00000000               -0.35284446               -0.42264763                1.39835548               -0.05213983                0.04028295                0.63120587
               1.10431365                2.03011239                6.05744762                1.00000000               -0.29003641               -0.29299436                0.97348594               -0.03953713                0.07761463               -0.02984518
               2.10204136                2.01624627                6.02639811                0.00010000               -0.14705413               -0.16747737                0.56432032               -0.04823539                0.55826962               -0.75098563
               3.10137256                2.00173611                6.00448213                0.00010000               -0.03255908               -0.11842585                0.22472615                0.42857691                1.77530359               -1.00650416
               4.10139018                1.99546084                5.99787281                0.00010000               -0.03689924                0.16248562                0.10534246                1.01281861                2.46463618               -0.62139138
               5.10063458                1.99145577                5.99109143                0.00010000                0.03541735                0.05449828               -0.00710076                1.09629714                2.17838565               -0.34796319
               6.10209853                1.98800836                5.98095321                0.00010000                0.19049879               -0.00912204               -0.56109935                1.09855938                2.29672799               -0.08244803
               7.10444456                1.98664988                5.97700625                0.00010000                0.20362271                0.07504329               -0.56097668                0.64275073                1.81124310                0.26602568
               8.10617098                1.97709061                5.95647939                0.00010000                0.24058229                0.26652294               -0.88063369                0.05118548                0.66632636                0.62364827
               9.10925620                1.96698959                5.92934291                1.00000000                0.36136826                0.36383969               -1.21304296               -0.01104287                0.23479640                0.26890128
              10.11339835                1.95732855                5.90017056                1.00000000                0.41421471                0.47206626               -1.56367808               -0.03319727                0.12686034               -0.25507583
               0.12005993                3.03951245                6.08301467                1.00000000               -0.31758134               -0.38305252                1.28834143               -0.05558620                0.03662265                0.63798796
               1.11688412                3.02741000                6.04794036                1.00000000               -0.24721336               -0.24650946                0.82352321               -0.04165115                0.04561590               -0.04450767
               2.11511566                3.01484702                6.01280922                0.00010000               -0.06843037               -0.11113366                0.35873335               -0.08392607                0.68550393               -0.75619719
               3.11551551                3.00086490                5.99062115                0.00010000                0.00739098                0.10381747               -0.00313521                0.41799211                2.50004162               -0.60888582
               4.11526348                2.99702584                5.99213848                0.00010000               -0.02866516                0.16262118               -0.08501908                0.89421870                3.33834350               -0.47989746
               5.11494221                2.99232468                5.98891721                0.00010000               -0.02060779                0.12406309               -0.21618352                0.94625031                2.99669448               -0.32391484
               6.11485133                2.98885087                5.98512272                0.00010000                0.03197417                0.07852313               -0.32711393                0.89809108                2.84217539                0.00340846
               7.11558169                2.98512792                5.97966457                0.00010000                0.05602435               -0.05841881               -0.48850688                0.63477686                2.65981790                0.04470409
               8.11597182                2.97950994                5.97237146                0.00010000                0.14470731                0.22863904               -0.67714598                0.20420949                1.48536954                1.01650644
               9.11847584                2.97041860                5.94309582                1.00000000                0.30882590                0.31911268               -1.03493749               -0.01130258                0.19190888                0.36902282
              10.12214833                2.96182619                5.90992167                1.00000000                0.36724962                0.42117979               -1.42208149               -0.03500123               -0.01280093               -0.22732848
               0.13093526                4.03587828                6.07693778                1.00000000               -0.27892101               -0.34704823                1.17738198               -0.05392278                0.03923920                0.61616848
               1.12814605                4.02518220                6.03847957                1.00000000               -0.20136583               -0.19929720                0.66870819               -0.03674759                0.04874329               -0.04069162
               2.12690794                4.01402360                5.99996421                0.00010000               -0.02962275               -0.05316316                0.15972925                0.04097490                1.37635406               -0.68109324
               3.12755359                4.00381246                5.98818130                0.00010000                0.04534171                0.28945243               -0.17736454                0.40626326                3.22488810               -0.04960616
               4.12781478                3.99871326                5.98802144                0.00010000                0.00904797                0.18556763               -0.20605523                0.71686893                3.73201254               -0.31597454
               5.12773455                3.99393703                5.98825268                0.00010000               -0.02788307                0.16146735               -0.24609534                0.76154064                3.67106629               -0.20684972
               6.12725711                3.98957882                5.98838699                0.00010000               -0.06267666                0.09314796               -0.28696053                0.74637791                3.63334432                0.01041313
               7.12648102                3.98548150                5.98882310                0.00010000               -0.11463126                0.06481209               -0.34135555                0.63370379                3.71907271                0.39948716
               8.12496449                3.98166339                5.99103337                0.00010000                0.01164411                0.18300211               -0.41114645                0.24356702                1.93114543                0.99612291
               9.12671390                3.97337184                5.95569541                1.00000000                0.24593287                0.26733585               -0.84757792               -0.01751753                0.02997609                0.29466512
              10.12988315                3.96575214                5.91990718                1.00000000                0.31692451                0.36313519               -1.26296077               -0.03524118               -0.00095555               -0.24216794
               0.14037364                5.03257148                6.07068604                1.00000000               -0.23697865               -0.31545515                1.06545493               -0.05497638                0.05952253                0.57612975
               1.13800385                5.02342406                6.02911318                0.00010000               -0.15343650               -0.15100846                0.51141976               -0.03639121                0.08534457               -0.05871856
               2.13730491                5.01378376                5.98780333                0.00010000                0.04736334                0.00533857               -0.03323426                0.12323378                2.01657826               -0.64070120
               3.13895112                5.00665395                5.98501261                0.00010000                0.10856906                0.23615593               -0.18553744                0.41258647                3.98414808               -0.26631735
               4.13947629                5.00073719                5.98507564                0.00010000                0.01781711                0.20940243               -0.25317767                0.54878297                4.17959118               -0.28171541
               5.13930746                4.99555403                5.98807828                0.00010000               -0.06209322                0.16948947               -0.24957701                0.58900075                4.32210186               -0.16608215
               6.13823442                4.99071383                5.99253348                0.00010000               -0.15681295                0.12238646               -0.22417682                0.57203098                4.40984933                0.07304602
               7.13617120                4.98642416                5.99843856                0.00010000               -0.26408051                0.09560392               -0.19763751                0.53270695                4.54098507                0.40991098
               8.13295281                4.98316998                6.00611220                0.00010000               -0.10672338                0.11815971               -0.18159870                0.21723755                2.32369839                0.77537613
               9.13403673                4.97576532                5.96784673                0.00010000                0.18650482                0.20806825               -0.64948978               -0.01957991                0.01809792                0.25206822
              10.13668291                4.96908889                5.92934493                1.00000000                0.26461768                0.30686647               -1.09807202               -0.03581973               -0.00031762               -0.27412980
               0.14813058                6.02956918                6.06408481                1.00000000               -0.19246334               -0.28113638                0.94920380               -0.05846254                0.06695676                0.52927823
               1.14620595                6.02216203                6.01937543                0.00010000               -0.09939280               -0.10006499                0.33664117               -0.04354824                0.13122276               -0.10766966
               2.14614272                6.01413037                5.97569893                0.00010000                0.13229734                0.06413622               -0.25785981                0.11568994                2.42719296               -0.68735876
               3.14885189                6.00853558                5.97709589                0.00010000                0.18738164                0.20628415               -0.30194420                0.34535508                4.70119553               -0.54978313
               4.14989036                6.00290131                5.98110051                0.00010000                0.03430173                0.22668509               -0.28959811                0.39348475                4.85759184               -0.38380709
               5.14953793                5.99732682                5.98774679                0.00010000               -0.10313768                0.18508279               -0.23693266                0.40313961                5.01690400               -0.17826005
               6.14782760                5.99202655                5.99665803                0.00010000               -0.24294628                0.13189718               -0.15199474                0.39762385                5.15503035                0.07827886
               7.14467900                5.98739358                6.00750711                0.00010000               -0.39297608                0.08398258               -0.05223251                0.39345602                5.30691018                0.37592823
               8.13996808                5.98402658                6.02025291                0.00010000               -0.21378042                0.04943304                0.04771388                0.15669346                2.71243064                0.70044945
               9.14040339                5.97753321                5.97951656                0.00010000                0.12757602                0.14724734               -0.44913854               -0.02292888                0.03153438                0.21930034
              10.14251960                5.97188947                5.93851601                1.00000000                0.21162079                0.25310514               -0.93563540               -0.03323728                0.01360826               -0.29001432
               0.15401868                7.02694875                6.05713809                1.00000000               -0.14469845               -0.23877326                0.82334349               -0.05929885                0.04723909                0.49637819
               1.15257169                7.02142276                6.00908570                0.00010000               -0.03867586               -0.04681224                0.14083062               -0.05070548                0.13334171               -0.13693828
               2.15324516                7.01506648                5.96250753                0.00010000                0.22577940                0.13286879               -0.52663041                0.08683740                2.76011893               -0.74179628
               3.15708728                7.01077963                5.96725717                0.00010000                0.26547876                0.26609584               -0.46616264                0.20989442                5.36565355               -0.84217010
               4.15855473                7.00527089                5.97526694                0.00010000                0.05788636                0.24915007               -0.34906920                0.16909123                5.58035313               -0.53307012
               5.15824501                6.99925568                5.98668588                0.00010000               -0.12172946                0.18964636               -0.23051729                0.19954737                5.76885117               -0.20499972
               6.15612015                6.99335177                6.00038444                0.00010000               -0.31023601                0.12980560               -0.07862495                0.21484270                5.89966758                0.06618569
               7.15204029                6.98810381                6.01611911                0.00010000               -0.50865474                0.05398670                0.09770803                0.22117871                6.05452035                0.34237094
               8.14594705                6.98415865                6.03386270                0.00010000               -0.31625119               -0.03078390                0.28616390                0.07049807                3.10146842                0.64626439
               9.14571526                6.97871027                5.99092252                0.00010000                0.06792908                0.08839604               -0.24926509               -0.02600919                0.04669499                0.19858840
              10.14730563                6.97415100                5.94737881                0.00010000                0.15903689                0.20355652               -0.78056243               -0.03478230                0.01286298               -0.30060968
               0.15799660                8.02479371                6.05000724                0.00010000               -0.09224893               -0.19428744                0.68667975               -0.05663121                0.04032333                0.48132058
               1.15707411                8.02122579                5.99876400                0.00010000                0.02629996                0.01369772               -0.07479627               -0.04650533                0.12864345               -0.13351252
               2.15852260                8.01678775                5.94906659                0.00010000                0.28856339                0.22741904               -0.84138094                0.05910690                2.83992322               -0.70292744
               3.16284538                8.01385749                5.95240808                0.00010000                0.31367671                0.30141708               -0.50581961               -0.13801886                5.96641435               -1.52977629
               4.16479613                8.00788431                5.96732730                0.00010000                0.13013093                0.21272217               -0.42499564               -0.12016215                6.51310998               -0.59101798
               5.16544799                8.00111975                5.98504806                0.00010000               -0.07598997                0.16099206               -0.24228212                0.01793696                6.57583476               -0.19470052
               6.16327633                7.99462266                6.00363335                0.00010000               -0.35761453                0.13680207               -0.00955254                0.05927635                6.62596571                0.05293376
               7.15829570                7.98847331                6.02416660                0.00010000               -0.62523708                0.03699380                0.25052435                0.00912026                6.79333053                0.28356888
               8.15077159                7.98341090                6.04706676                0.00010000               -0.42024223               -0.12672850                0.54767998               -0.04616758                3.49715910                0.58282675
               9.14989086                7.97930113                6.00207245                0.00010000                0.00854525                0.02575992               -0.04907002               -0.02195491                0.06300700                0.19158427
              10.15094249                7.97596060                5.95603160                0.00010000                0.10516352                0.16519273               -0.63201085               -0.03821175                0.00841441               -0.30671223
               0.16002190                9.02306300                6.04275865                0.00010000               -0.03743509               -0.15596803                0.54388481               -0.04751785                0.05294899                0.39437297
               1.15964755                9.02169671                5.98850632                0.00010000                0.08868438                0.08560058               -0.30543528               -0.02486254                0.17210906               -0.11780228
               2.16179559                9.01961486                5.93646723                0.00010000                0.17913937                0.33119986               -1.15813422               -0.02982803                2.46660072               -0.48924953
               3.16323034                9.01680797                5.92853724                0.00010000                0.35468217                0.23807463               -0.35482483               -0.36340162                6.60284838               -1.37557931
               4.16888923                9.00952533                5.95972287                0.00010000                0.43175266                0.06824736               -0.51656242               -0.22869189                7.87884110               -0.42317641
               5.17186539                9.00247553                5.98343783                0.00010000                0.05314389                0.11763660               -0.26088425               -0.03770843                7.31050216               -0.11434016
               6.16995211                8.99608781                6.00638421                0.00010000               -0.42154716                0.14017367                0.05070249               -0.01572452                7.28132077                0.03473523
               7.16343445                8.98884369                6.03118658                0.00010000               -0.78781152                0.11863862                0.39924366               -0.14658611                7.50585453                0.16778462
               8.15419588                8.98162408                6.05953748                0.00010000               -0.53539918               -0.22187559                0.81467851               -0.22098448                3.94069634                0.41346666
               9.15272647                8.97922546                6.01324359                0.00010000               -0.04867169               -0.04464057                0.15826418               -0.01140738                0.10626399                0.17601788
              10.15322245                8.97745485                5.96454045                0.00010000                0.04959815                0.13474893               -0.47967656               -0.03833603               -0.01416113               -0.25818078
               0.15977883               10.02167435                6.03371662                0.00010000                0.02461706               -0.13886524                0.36978961                0.10203705                0.28484934                0.32291352
               1.16002500               10.02293780                5.97851675                0.00010000                0.15179725                0.12410880               -0.51873253                0.12461407                0.50175423               -0.11123645
               2.16281477               10.02341174                5.92757772                0.00010000                0.28209379                0.37968792               -1.35072992               -0.11402252                2.78853040               -0.33286729
               3.16566687               10.01861899                5.91859685                0.00010000                0.58699847                0.18110119               -0.53581734               -0.46447096                7.10565309               -0.81256570
               4.17455474               10.00924926                5.95509594                0.00010000                0.62322361               -0.02760770               -0.55530891               -0.19077445                8.51709980               -0.25687847
               5.17813135               10.00347248                5.98270860                0.00010000                0.10194686                0.09969578               -0.27185743                0.03543925                7.84440472               -0.04631202
               6.17659368                9.99742614                6.00854750                0.00010000               -0.41518133                0.13383229                0.09788203                0.03283669                7.79359184                0.03831784
               7.16982772                9.99084608                6.03638280                0.00010000               -1.03117779                0.20023967                0.50871097               -0.28331022                8.10552579                0.11261544
               8.15597012                9.97897339                6.06908568                0.00010000               -0.79978920               -0.26506820                1.00258631               -0.44446421                4.45807084                0.29308028
               9.15383193                9.97840832                6.02396992                0.00010000               -0.11265619               -0.08171464                0.36138756                0.09465634                0.35623216                0.16574484
              10.15371700                9.97865558                5.97411191                0.00010000               -0.01149360                0.12007311               -0.30180554                0.07418160                0.12412790               -0.21021561
               0.10621670                0.06597216                7.12027337                1.00000000               -0.41739047               -0.47043198                1.61029354               -0.08607823               -0.34453479                0.40004786
               1.10204279                0.04661216                7.08829458                1.00000000               -0.34591264               -0.35827538                1.24694028               -0.06292852               -0.38469053               -0.01041993
               2.09929845                0.02694526                7.05537019                1.00000000               -0.19049394               -0.25300828                0.85962285               -0.04926493               -0.32706682               -0.20338612
               3.09823292                0.00775940                7.02447103                0.00010000                0.28345691               -0.17940027                0.50779229                0.30166202                0.47710290               -0.23256394
               4.10496758               -0.00368841                7.00756436                0.00010000                0.52770505               -0.21527546                0.24182006                0.04127778                1.18169209               -0.01768011
               5.10878702               -0.01022851                6.99010975                0.00010000                0.25007542               -0.02962693               -0.11036290               -0.01509103                0.98298220                0.00336947
               6.10996909               -0.01609077                6.96983891                0.00010000                0.05795419                0.12114262               -0.48205927                0.00405416                0.86168118                0.01525526
               7.10994610               -0.02458019                6.94999828                0.00010000                0.06752338                0.24167556               -0.82293854                0.06948951                0.57830567                0.02932199
               8.11131956               -0.03709522                6.92382859                1.00000000                0.24553669                0.34435920               -1.15780405                0.02238650                0.05987687                0.28209779
               9.11485683               -0.05141877                6.89375487                1.00000000                0.41825104                0.42705244               -1.48656592               -0.05042853               -0.17738236                0.03009670
              10.11968458               -0.06567263                6.86295327                1.00000000                0.48277474                0.52553959               -1.80646289               -0.07836779               -0.21873985               -0.23899237
               0.12471592                1.06126784                7.11015345                1.00000000               -0.37889595               -0.45287648                1.46877229               -0.03822097               -0.01813224                0.54920439
               1.12092696                1.04302941                7.07772975                1.00000000               -0.32418709               -0.33550652                1.10327582               -0.01989338                0.05104653               -0.00769727
               2.11823218                1.02441518                7.04654498                1.00000000               -0.21802920               -0.22463660                0.74463451               -0.00787297                0.29021191               -0.48134349
               3.11656637                1.00596540                7.01893470                0.00010000               -0.19289280               -0.17033374                0.39467970                0.34772236                1.23860037               -0.56565780
               4.11437432                0.99415883                7.00695803                0.00010000               -0.08645443               -0.02679426                0.21397196                0.66450427                1.78854295               -0.33931962
               5.11483729                0.98947522                6.99199468                0.00010000                0.14055758                0.03123315               -0.10496561                0.73950833                1.44843529               -0.07901255
               6.11718547                0.98512065                6.97401437                0.00010000                0.31529671               -0.02454809               -0.44897201                0.60887704                1.29637037               -0.17533599
               7.12114322                0.97783657                6.95637158                0.00010000                0.38886216                0.27707251               -0.74476126                0.39162227                1.14626320                0.44865777
               8.12496272                0.96634837                6.93504017                1.00000000                0.37490156                0.31849636               -1.03274368                0.10720468                0.55811384                0.35047201
               9.12864125                0.95285176                6.90502644                1.00000000                0.40960243                0.40556206               -1.34577714               -0.00478715                0.08343952                0.07533875
              10.13315476                0.93958277                6.87415417                1.00000000                0.45135125                0.50456157               -1.66558307               -0.03012992                0.03662528               -0.28048522
               0.14192915                2.05691463                7.10279677                1.00000000               -0.34315616               -0.41862674                1.35815019               -0.04720648                0.03763895                0.70817953
               1.13849759                2.03990203                7.06713204                1.00000000               -0.28620778               -0.29133246                0.96295046               -0.03306557                0.08144039               -0.02536524
               2.13620500                2.02245253                7.03216896                1.00000000               -0.15269383               -0.16820392                0.58611533               -0.04294464                0.59798044               -0.82314490
               3.13544371                2.00435273                7.00686561                0.00010000               -0.07285709               -0.13275525                0.24932173                0.49882055                1.97198272               -1.09848129
               4.13474785                1.99577570                6.99958927                0.00010000               -0.14141751                0.15869663                0.30791373                1.16942135                2.73505338               -0.69593056
               5.13261536                1.99039615                6.99206692                0.00010000               -0.04812845                0.05379422                0.14270717                1.16932359                2.03935017               -0.35192687
               6.13378528                1.98341826                6.97453394                0.00010000                0.19677337               -0.01408425               -0.63092412                1.16859938                2.23265055               -0.07995849
               7.13655083                1.98096126                6.97131683                0.00010000                0.23315903                0.06665820               -0.57757638                0.76392771                2.03490140                0.29763254
               8.13844847                1.96927470                6.94761929                0.00010000                0.24879315                0.27331370               -0.88518260                0.08979571                0.69748336                0.67911715
               9.14152669                1.95669247                6.91726791                1.00000000                0.35857479                0.36762960               -1.20105750                0.00159829                0.25168115                0.28742984
              10.14561996                1.94441860                6.88468168                1.00000000                0.40932681                0.46154954               -1.53745280               -0.02924495                0.13566783               -0.29329200
               0.15779699                3.05289531                7.09569728                1.00000000               -0.30692443               -0.38522000                1.24969179               -0.05080776                0.03259575                0.71982060
               1.15472775                3.03720276                7.05614312                1.00000000               -0.24372030               -0.24708360                0.81634632               -0.03611051                0.03933591               -0.04419210
               2.15292259                3.02105110                7.01653026                0.00010000               -0.07540660               -0.10995615                0.38278098               -0.08850969                0.73025466               -0.84609035
               3.15321962                3.00331030                6.99085188                0.00010000               -0.06016304                0.10545794                0.04249506                0.45902432                2.73568326               -0.73162756
               4.15171933                2.99733276                6.99155067                0.00010000               -0.13192112                0.17579163               -0.04230827                1.00539472                3.65061164               -0.61146134
               5.15058119                2.99055110                6.98683352                0.00010000               -0.08634892                0.09289394               -0.18432415                1.07908080                3.28598245               -0.47259195
               6.14999235                2.98483897                6.98191345                0.00010000               -0.00079295                0.11415868               -0.32477146                1.02404571                3.10229247                0.10569285
               7.15056534                2.97916973                6.97457824                0.00010000                0.05175350               -0.06675195               -0.51627836                0.74954352                2.85963150                0.04753433
               8.15102742                2.97181464                6.96539561                0.00010000                0.14819916                0.24331237               -0.71082428                0.27481875                1.60496118                1.13189465
               9.15352932                2.96020435                6.93280586                1.00000000                0.30450937                0.32545186               -1.02282213                0.00528946                0.21316238                0.40530963
              10.15711761                2.94881376                6.89584018                1.00000000                0.35882869                0.41524254               -1.39704309               -0.03358323               -0.01320266               -0.25293964
               0.17229810                4.04921023                7.08852015                1.00000000               -0.26785104               -0.35344701                1.13951186               -0.04950030                0.03423293                0.70353369
               1.16961959                4.03496036                7.04514960                1.00000000               -0.19854150               -0.20103821                0.66433747               -0.03170491                0.04127887               -0.04174826
               2.16832727                4.02025341                7.00171895                0.00010000               -0.06385236               -0.05092828                0.18870179                0.04289992                1.44215193               -0.76548160
               3.16834254                4.00646189                6.98646003                0.00010000               -0.03561618                0.32955492               -0.18214576                0.43298530                3.53726518               -0.08236973
               4.16761494                3.99929153                6.98608444                0.00010000               -0.08258814                0.21104705               -0.18302466                0.82244083                4.18549364               -0.36499780
               5.16669078                3.99225403                6.98584037                0.00010000               -0.09836860                0.17661846               -0.23477054                0.86111002                4.09514093               -0.23124753
               6.16564757                3.98570144                6.98543563                0.00010000               -0.10623749                0.11021572               -0.29713059                0.85262055                4.03144157                0.00003651
               7.16456603                3.97962622                6.98522252                0.00010000               -0.13686735                0.07796040               -0.37004188                0.75280243                4.08633820                0.45079316
               8.16291022                3.97414095                6.98675478                0.00010000                0.00336708                0.19436703               -0.43819938                0.31372245                2.09700450                1.12809270
               9.16463337                3.96320151                6.94725777                1.00000000                0.24096271                0.27064239               -0.83921569               -0.00601759                0.02376143                0.33673248
              10.16772948                3.95272345                6.90738925                1.00000000                0.30961099                0.36455502               -1.24194188               -0.03309935               -0.00145437               -0.26110413
               0.18530674                5.04582637                7.08113665                1.00000000               -0.22562604               -0.32226870                1.02486727               -0.05073844                0.05990649                0.66852592
               1.18305048                5.03318200                7.03422175                0.00010000               -0.15138387               -0.15251967                0.50920766               -0.03261364                0.08816396               -0.06758046
               2.18227906                5.02003254                6.98766679                0.00010000               -0.01046385                0.00770053                0.00371484                0.14985042                2.20578335               -0.74175960
               3.18284120                5.00990139                6.98323549                0.00010000                0.00484718                0.28555386               -0.16927665                0.46195155                4.39061990               -0.26140611
               4.18237600                5.00155371                6.98258906                0.00010000               -0.07238540                0.23759737               -0.24288957                0.62731772                4.66130257               -0.29730930
               5.18139349                4.99408347                6.98558464                0.00010000               -0.13517186                0.19385575               -0.24665510                0.67306239                4.83824937               -0.17616595
               6.17967257                4.98704328                6.99018873                0.00010000               -0.21058096                0.14533280               -0.23900624                0.66026807                4.91904730                0.08665714
               7.17718187                4.98072894                6.99626621                0.00010000               -0.29729928                0.11196840               -0.22714811                0.63083645                5.02728529                0.46397822
               8.17372658                4.97570198                7.00413643                0.00010000               -0.11777032                0.11962527               -0.20740525                0.27503779                2.54832319                0.88653639
               9.17482647                4.96561720                6.96135127                0.00010000                0.18425764                0.21013000               -0.64748845               -0.01093987                0.01007271                0.29711022
              10.17741173                4.95610486                6.91844403                1.00000000                0.25852673                0.31273875               -1.08114915               -0.03369422               -0.00164858               -0.29725378
               0.19657207                6.04276486                7.07333984                1.00000000               -0.18109307               -0.28479410                0.90270881               -0.05366836                0.06722949                0.62287773
               1.19476114                6.03190997                7.02273102                0.00010000               -0.09835995               -0.10014112                0.33424295               -0.04007582                0.13718889               -0.13333214
               2.19460488                6.02040742                6.97331834                0.00010000                0.06496289                0.06946778               -0.21844269                0.15647227                2.69793682               -0.82929101
               3.19606040                6.01217296                6.97409948                0.00010000                0.06871721                0.23710343               -0.28305937                0.41933725                5.24431630               -0.63395597
               4.19597922                6.00404348                6.97819195                0.00010000               -0.06989775                0.25887109               -0.28166149                0.46938065                5.44565771               -0.41759751
               5.19466245                5.99613114                6.98534885                0.00010000               -0.18858780                0.21502478               -0.23725599                0.47636404                5.62333038               -0.18972979
               6.19220746                5.98860809                6.99503474                0.00010000               -0.30691964                0.15947709               -0.16721137                0.47001652                5.76868651                0.09640352
               7.18852405                5.98186559                7.00679373                0.00010000               -0.43423709                0.10133485               -0.08168884                0.46853848                5.90832491                0.43443642
               8.18352272                5.97653346                7.02058492                0.00010000               -0.22561792                0.04500097                0.02140360                0.20111106                2.99912113                0.81442292
               9.18401170                5.96740411                6.97498213                0.00010000                0.12787735                0.14917619               -0.45338390               -0.01528841                0.02584042                0.26139850
              10.18608027                5.95897823                6.92921943                1.00000000                0.20685733                0.26147760               -0.92028643               -0.03180544                0.01262949               -0.32446286
               0.20594316                7.04013049                7.06508960                1.00000000               -0.13367567               -0.23775816                0.76947874               -0.05337612                0.04493956                0.58708213
               1.20460640                7.03117917                7.01049135                0.00010000               -0.03988249               -0.04562838                0.14140199               -0.04440119                0.13427038               -0.17945393
               2.20514551                7.02142189                6.95748639                0.00010000                0.14927416                0.13823824               -0.47570387                0.13553108                3.11725400               -0.92856265
               3.20759188                7.01464346                6.96280209                0.00010000                0.13299652                0.27586953               -0.41737354                0.30920762                6.07499962               -0.90502343
               4.20780544                7.00673113                6.97182876                0.00010000               -0.06178621                0.26999332               -0.32526730                0.25763788                6.30571848               -0.58680244
               5.20635616                6.99838397                6.98438055                0.00010000               -0.22334939                0.22379633               -0.22288693                0.26410793                6.48834736               -0.23390393
               6.20333845                6.99023282                6.99950227                0.00010000               -0.38644397                0.16272433               -0.09194293                0.26727767                6.62735904                0.07989173
               7.19862728                6.98275564                7.01690150                0.00010000               -0.55640837                0.07431228                0.06684935                0.26772707                6.77834374                0.40471725
               8.19221028                6.97660200                7.03658992                0.00010000               -0.32756769               -0.03434184                0.25583789                0.09971360                3.45138747                0.77089919
               9.19207593                6.96860072                6.98835306                0.00010000                0.07085529                0.09058496               -0.26029091               -0.01727177                0.04010341                0.23554222
              10.19362739                6.96133441                6.93964447                0.00010000                0.15514617                0.21193018               -0.76348474               -0.03248334                0.01235151               -0.34899668
               0.21340718                8.03800970                7.05654879                0.00010000               -0.08254669               -0.18771393                0.62642468               -0.05050657                0.03446095                0.56906295
               1.21258171                8.03099740                6.99805592                0.00010000                0.02220135                0.01373339               -0.06563640               -0.03924381                0.11736547               -0.19116460
               2.21385121                8.02317219                6.94105593                0.00010000                0.21768034                0.22189931               -0.76325020                0.10774996                3.37241766               -0.91886189
               3.21693532                8.01769036                6.94800084                0.00010000                0.17701330                0.27079637               -0.41975197                0.06259603                6.87154782               -1.37117071
               4.21739147                8.00944335                6.96361656                0.00010000               -0.02462061                0.22183783               -0.33246704               -0.00168803                7.32957942               -0.66486403
               5.21644291                8.00060707                6.98270757                0.00010000               -0.21050628                0.20126785               -0.21461686                0.07680543                7.41685969               -0.23462211
               6.21318135                7.99186258                7.00344076                0.00010000               -0.44667458                0.17444498               -0.02083545                0.08869122                7.48356676                0.06071536
               7.20750942                7.98335184                7.02646398                0.00010000               -0.67547191                0.06392917                0.21511799                0.02738644                7.65003978                0.34587411
               8.19967191                7.97584662                7.05227786                0.00010000               -0.42877819               -0.12042937                0.49497159               -0.03135651                3.91213514                0.71753338
               9.19893385                7.96921581                7.00147732                0.00010000                0.01456558                0.02941238               -0.06799201               -0.01388775                0.05122895                0.22693181
              10.19996322                7.96321683                6.94982106                0.00010000                0.10293684                0.16957770               -0.61191253               -0.03458188                0.00691995               -0.36252173
               0.21895762                9.03637621                7.04783572                0.00010000               -0.02985856               -0.14324682                0.47888024               -0.04334873                0.04059054                0.46848151
               1.21865904                9.03145384                6.98555740                0.00010000                0.08249643                0.08150399               -0.28364468               -0.02135330                0.15358698               -0.17490877
               2.22060755                9.02585988                6.92541474                0.00010000                0.19568026                0.30982103               -1.05489582               -0.00033602                3.35948512               -0.65358987
               3.22257264                9.02005939                6.92764161                0.00010000                0.21237059                0.11365611               -0.06936800               -0.14680178                7.77255739               -1.22944664
               4.22485496                9.01116788                6.95550479                0.00010000                0.14501967                0.11206296               -0.34823894               -0.12048927                8.64172677               -0.47207977
               5.22547303                9.00240932                6.98102480                0.00010000               -0.12437271                0.15718773               -0.21127731                0.00516527                8.28711003               -0.14310583
               6.22236751                8.99372172                7.00678249                0.00010000               -0.51410323                0.18036018                0.03940003               -0.00754334                8.26897143                0.03873110
               7.21519097                8.98403422                7.03490174                0.00010000               -0.83241646                0.15308498                0.35093857               -0.14497231                8.50664211                0.21302828
               8.20571918                8.97419341                7.06721329                0.00010000               -0.53815053               -0.20122972                0.72976659               -0.21679692                4.43140206                0.51304698
               9.20442796                8.96918897                7.01466276                0.00010000               -0.03927369               -0.03660780                0.12718279               -0.00669422                0.09262144                0.20878459
              10.20493370                8.96472596                6.95987696                0.00010000                0.05057457                0.13380437               -0.45866941               -0.03417217               -0.01762393               -0.30480656
               0.22238494               10.03514476                7.03708546                0.00010000                0.02860351               -0.12314482                0.31090157                0.09100387                0.30789682                0.38124947
               1.22267098               10.03262748                6.97348509                0.00010000                0.14269982                0.11736379               -0.48606552                0.11238637                0.54613404               -0.16101620
               2.22523894               10.02936861                6.91459112                0.00010000                0.30101521                0.35087259               -1.24376433               -0.17006126                3.79481083               -0.44185865
               3.22869128               10.01996348                6.91639818                0.00010000                0.36964083               -0.00959128               -0.11959098               -0.27233592                8.44959113               -0.83361025
               4.23263176               10.01168461                6.95064855                0.00010000                0.26505463                0.05167232               -0.37039105               -0.03295333                9.41346458               -0.22542377
               5.23399237               10.00375082                6.98019102                0.00010000               -0.06130845                0.13415009               -0.21791473                0.04119281                8.91393095               -0.05029484
               6.23140559                9.99546978                7.00938326                0.00010000               -0.49270473                0.17480608                0.08172575                0.03694338                8.88436060                0.04940515
               7.22413828                9.98641354                7.04111059                0.00010000               -1.06121814                0.23793166                0.44802122               -0.28765703                9.22147485                0.14495112
               8.21018122                9.97182202                7.07855646                0.00010000               -0.79354294               -0.23713900                0.90224542               -0.45028967                5.04365002                0.35826774
               9.20826742                9.96848365                7.02733398                0.00010000               -0.09877191               -0.07053141                0.31486233                0.08749079                0.38305713                0.19364552
              10.20820579                9.96589292                6.97118189                0.00010000               -0.00616354                0.11669551               -0.28994463                0.06813459                0.14215471               -0.24465242
               0.13634135                0.08102248                8.13619152                1.00000000               -0.41008042               -0.45963997                1.57490037               -0.08175862               -0.38788279                0.44303564
               1.13224055                0.05781263                8.10069529                1.00000000               -0.34001271               -0.35341415                1.23178620               -0.05925332               -0.44200548               -0.00595272
               2.12954110                0.03429610                8.06397081                1.00000000               -0.18663759               -0.25251656                0.85811878               -0.04638406               -0.37875167               -0.20358439
               3.12850780                0.01136039                8.02964039                0.00010000                0.29577479               -0.18347056                0.52195968                0.33168778                0.47803312               -0.26886096
               4.13545659               -0.00308955                8.00998942                0.00010000                0.52294247               -0.19456335                0.24120684                0.02522633                1.16213459               -0.00960796
               5.13896665               -0.01209721                7.98903342                0.00010000                0.23269871               -0.02055025               -0.10571833               -0.01061500                0.91769595                0.00615806
               6.14011057               -0.02032085                7.96508170                0.00010000                0.06041390                0.11524200               -0.47021455                0.00371191                0.79612006                0.00705440
               7.14017492               -0.03105132                7.94178923                0.00010000                0.06783347                0.23329805               -0.81752422                0.06762326                0.52396046                0.02925435
               8.14146724               -0.04603532                7.91227136                1.00000000                0.23817444                0.34335479               -1.15116291                0.03044498                0.01291815                0.29565040
               9.14493841               -0.06309843                7.87894059                1.00000000                0.41241460                0.42339685               -1.47488874               -0.04992951               -0.21602934                0.02893625
              10.14971553               -0.08013593                7.84499052                1.00000000                0.47771171                0.51826836               -1.78723795               -0.07857994               -0.25234662               -0.27174760
               0.15873361                1.07642608                8.12465294                1.00000000               -0.37224075               -0.44316954                1.43353105               -0.03560915               -0.02727539                0.60725265
               1.15501121                1.05427849                8.08869617                1.00000000               -0.32151180               -0.33104591                1.08941775               -0.01627159                0.04279807               -0.00037596
               2.15230338                1.03177093                8.05401807                1.00000000               -0.22468561               -0.22490014                0.74698148               -0.00132524                0.28640548               -0.49974830
               3.15051749                1.00952568                8.02295473                0.00010000               -0.24328620               -0.17555474                0.40640380                0.40390010                1.31623491               -0.61142566
               4.14743765                0.99496482                8.00910073                0.00010000               -0.15206734                0.00195620                0.21235472                0.68024735                1.87184478               -0.19685438
               5.14747615                0.98769729                7.99096447                0.00010000                0.10935448                0.08378001               -0.10184744                0.66885118                1.45312693                0.06751919
               6.14962474                0.98083157                7.96958425                0.00010000                0.31161212               -0.05845181               -0.43779202                0.54877191                1.30784039               -0.28511531
               7.15370839                0.97128166                7.94895195                0.00010000                0.40852475                0.27235933               -0.73829752                0.42244813                1.17389158                0.48887252
               8.15779524                0.95739823                7.92473346                1.00000000                0.38905161                0.31764185               -1.02595906                0.12781068                0.57269955                0.37320958
               9.16148942                0.94113554                7.89162758                1.00000000                0.40859990                0.40285992               -1.33324973               -0.00312271                0.08340657                0.07542236
              10.16596724                0.92504675                7.85760883                1.00000000                0.44778144                0.49563181               -1.64533680               -0.03044770                0.03416913               -0.31903049
               0.17992435                2.07215909                8.11618948                1.00000000               -0.33540834               -0.41203024                1.32278953               -0.04240942                0.03480404                0.78419976
               1.17657027                2.05119171                8.07670663                1.00000000               -0.28284751               -0.28849485                0.95164318               -0.02671713                0.08652162               -0.01800208
               2.17426740                2.02979809                8.03812041                1.00000000               -0.15891793               -0.16978527                0.60052554               -0.03169044                0.62742457               -0.88573483
               3.17339191                2.00784929                8.00946856                0.00010000               -0.16887333               -0.14438772                0.26800121                0.59213749                2.27344387               -1.18142265
               4.17088993                1.99694958                8.00403108                0.00010000               -0.34574936                0.16683124                0.55887922                1.32927636                2.92398905               -0.72674642
               5.16647692                1.98957839                7.99394557                0.00010000               -0.16941479                0.07010535                0.13578057                1.21917326                1.75556973               -0.40525883
               6.16750164                1.97851011                7.96833473                0.00010000                0.27901532               -0.03842686               -0.55144108                1.21725893                2.11326127               -0.02222055
               7.17205723                1.97439586                7.96545472                0.00010000                0.33339649                0.04456249               -0.59460328                0.86955881                2.24048691                0.31998129
               8.17416957                1.96031751                7.93877574                0.00010000                0.25851033                0.28070630               -0.88015976                0.13055479                0.73477948                0.71774395
               9.17722743                1.94495877                7.90532176                1.00000000                0.35572964                0.36996948               -1.18783366                0.01321376                0.27138138                0.30492548
              10.18128416                1.92977670                7.86942151                1.00000000                0.40567260                0.45065431               -1.51673846               -0.02578728                0.14571428               -0.33229623
               0.19982018                3.06818548                8.10800850                1.00000000               -0.29823173               -0.38247531                1.21446284               -0.04585443                0.02952409                0.79921117
               1.19683786                3.04850859                8.06426729                1.00000000               -0.24040947               -0.24615561                0.80810375               -0.03038453                0.03432625               -0.04154736
               2.19501199                3.02837523                8.02046484                0.00010000               -0.08145505               -0.11103281                0.40160684               -0.08487569                0.77036428               -0.93014099
               3.19520876                3.00663793                7.99147105                0.00010000               -0.13589533                0.09660797                0.07589630                0.52338613                2.94026560               -0.86830589
               4.19229408                2.99830145                7.99129232                0.00010000               -0.24548406                0.17126699               -0.01159559                1.18579215                3.95168297               -0.84718910
               5.19029908                2.98909940                7.98523073                0.00010000               -0.15708159                0.04912825               -0.13270942                1.27854208                3.52745307               -0.66766227
               6.18915245                2.98006303                7.97862729                0.00010000               -0.05034581                0.13970790               -0.33348537                1.20378326                3.30954421                0.20959607
               7.18929216                2.97217291                7.96933900                0.00010000                0.03454884               -0.07932343               -0.52512299                0.88903663                3.03927060                0.05726140
               8.18984343                2.96301235                7.95815497                0.00010000                0.15011741                0.25834512               -0.72650395                0.35308921                1.73018930                1.23616726
               9.19229451                2.94853493                7.92263938                1.00000000                0.29861019                0.33011557               -1.01051773                0.01873550                0.25025506                0.43951628
              10.19581563                2.93405983                7.88198080                1.00000000                0.35211204                0.40747571               -1.37683724               -0.03216186               -0.01298754               -0.27967322
               0.21836103                4.06450959                8.09972802                1.00000000               -0.25881997               -0.35315794                1.10349002               -0.04502873                0.03052176                0.78381927
               1.21577283                4.04626860                8.05176632                1.00000000               -0.19602384               -0.20087822                0.65855671               -0.02665076                0.03540417               -0.04238155
               2.21444055                4.02757744                8.00373825                0.00010000               -0.09197084               -0.05130228                0.21288477                0.04538450                1.47018428               -0.84148377
               3.21393341                4.00978145                7.98453839                0.00010000               -0.11481215                0.35742216               -0.20407555                0.47149803                3.81847957               -0.12671455
               4.21214431                4.00037492                7.98436095                0.00010000               -0.18236171                0.21910243               -0.16153881                0.94193047                4.62630110               -0.42084636
               5.21028618                3.99056096                7.98355727                0.00010000               -0.18202580                0.17114162               -0.22011368                0.95515221                4.48465610               -0.27179326
               6.20850379                3.98130427                7.98244438                0.00010000               -0.16987692                0.13924167               -0.29755279                0.95148935                4.39206695               -0.00760962
               7.20688864                3.97280940                7.98142226                0.00010000               -0.18172317                0.09798048               -0.38462637                0.88285940                4.42835654                0.50247531
               8.20486933                3.96548442                7.98226938                0.00010000               -0.01669891                0.20291106               -0.45475123                0.38712398                2.26682874                1.26543245
               9.20655466                3.95156108                7.93891110                1.00000000                0.23608933                0.27241191               -0.82984127                0.00389396                0.02804068                0.37530719
              10.20959112                3.93792622                7.89506834                1.00000000                0.30364545                0.36268988               -1.22337096               -0.03104748               -0.00156390               -0.27992881
               0.23540157                5.06112232                8.09118338                1.00000000               -0.21645756               -0.32179016                0.98590769               -0.04653991                0.06187790                0.74742919
               1.23323699                5.04449103                8.03929734                0.00010000               -0.14973707               -0.15214078                0.50554351               -0.02873731                0.09346362               -0.07865440
               2.23240683                5.02734918                7.98787763                0.00010000               -0.06978761                0.00737557                0.03618336                0.17938923                2.37004163               -0.83431452
               3.23184124                5.01378637                7.98162708                0.00010000               -0.10268200                0.32542065               -0.15617631                0.51327568                4.75839062               -0.23538409
               4.23035319                5.00268349                7.98021785                0.00010000               -0.16842349                0.24673693               -0.22999059                0.70728476                5.11494403               -0.31509874
               5.22847277                4.99252223                7.98314518                0.00010000               -0.22096936                0.20876825               -0.23805775                0.75199679                5.32219250               -0.18692284
               6.22593380                4.98284786                7.98775336                0.00010000               -0.28517842                0.16684061               -0.24301949                0.74314742                5.39399692                0.09999842
               7.22276920                4.97413252                7.99389560                0.00010000               -0.35497900                0.13188103               -0.24143572                0.73146967                5.48960665                0.51941319
               8.21883422                4.96707057                8.00196410                0.00010000               -0.14193057                0.11885696               -0.22306974                0.33717140                2.77116511                0.99778221
               9.21993059                4.95398317                7.95489696                0.00010000                0.18150978                0.20991512               -0.64256146               -0.00129574                0.00821615                0.33909913
              10.22246442                4.94131363                7.90772194                1.00000000                0.25338245                0.31367799               -1.06425427               -0.03163028               -0.00186652               -0.31547957
               0.25069281                6.05807378                8.08213898                1.00000000               -0.17215866               -0.28204409                0.85925199               -0.04917953                0.06748100                0.69739239
               1.24897122                6.04322579                8.02606029                0.00010000               -0.09799071               -0.09911266                0.33174414               -0.03627555                0.14288169               -0.16156195
               2.24873299                6.02772495                7.97133008                0.00010000               -0.00533046                0.07042308               -0.18097399                0.19683794                2.94451343               -0.95912242
               3.24886461                6.01628987                7.97143470                0.00010000               -0.05894238                0.24957164               -0.24937356                0.49941824                5.74898110               -0.69450909
               4.24755415                6.00530966                7.97546728                0.00010000               -0.18514345                0.27133668               -0.26020129                0.55919542                5.99567965               -0.43517226
               5.24516174                5.99473632                7.98300167                0.00010000               -0.28988465                0.23483287               -0.22794287                0.55985483                6.19716631               -0.19177301
               6.24175645                5.98464108                7.99331381                0.00010000               -0.39332097                0.18478617               -0.17148452                0.54616332                6.34506349                0.11802150
               7.23729532                5.97544702                8.00587333                0.00010000               -0.49971735                0.11976944               -0.09712834                0.54853930                6.48131172                0.49314329
               8.23176211                5.96786156                8.02068098                0.00010000               -0.25048187                0.04065538                0.00001238                0.25006946                3.27711578                0.92420467
               9.23228569                5.95575939                7.97044888                0.00010000                0.12677388                0.14713749               -0.45099587               -0.00647954                0.02267745                0.30120423
              10.23429758                5.94419978                7.92011029                1.00000000                0.20118971                0.26279003               -0.89831031               -0.03068947                0.01256746               -0.34739156
               0.26411397                7.05548144                8.07252766                1.00000000               -0.12536533               -0.23224626                0.72143662               -0.04832798                0.04274577                0.65568419
               1.26286032                7.04250878                8.01191374                0.00010000               -0.04172310               -0.04446673                0.14364925               -0.03903664                0.13472775               -0.22149100
               2.26327951                7.02875764                7.95299345                0.00010000                0.06922921                0.13786034               -0.42479604                0.17810299                3.45012398               -1.09132608
               3.26424490                7.01877781                7.95890970                0.00010000               -0.00944334                0.26523418               -0.36578861                0.41018360                6.73795260               -0.93001948
               4.26309064                7.00811023                7.96876160                0.00010000               -0.19532285                0.28006727               -0.28923469                0.37839650                6.97520791               -0.59255977
               5.26033844                6.99721889                7.98222814                0.00010000               -0.34721330                0.25233679               -0.20479467                0.36163036                7.16148083               -0.23657948
               6.25614637                6.98654359                7.99854558                0.00010000               -0.49094640                0.19578339               -0.09376159                0.33719100                7.30674568                0.10116004
               7.25051952                6.97652791                8.01745610                0.00010000               -0.63115663                0.09717691                0.04869618                0.32520807                7.46328310                0.46458851
               8.24352324                6.96788368                8.03897946                0.00010000               -0.35283664               -0.03616794                0.22357010                0.13184289                3.78412870                0.88371773
               9.24346278                6.95692592                7.98571670                0.00010000                0.07233026                0.08853396               -0.26340866               -0.01138470                0.03371386                0.27037054
              10.24496985                6.94656943                7.93210912                0.00010000                0.15070645                0.21389504               -0.74137839               -0.03085746                0.01259714               -0.38215896
               0.27567157                8.05342886                8.06253573                0.00010000               -0.07572848               -0.17927318                0.57548881               -0.04542089                0.03013058                0.63382436
               1.27491428                8.04233645                7.99745128                0.00010000                0.01772279                0.01302923               -0.05467525               -0.03333728                0.10772919               -0.24445961
               2.27602602                8.03048216                7.93380158                0.00010000                0.14007073                0.21251145               -0.69082578                0.14398331                3.85767152               -1.10050831
               3.27771570                8.02159455                7.94401305                0.00010000                0.03274846                0.25219488               -0.39036173                0.23876927                7.72350097               -1.16615746
               4.27668099                8.01091100                7.96067796                0.00010000               -0.18773543                0.24707593               -0.27689823                0.17192267                8.06352318               -0.63996291
               5.27396099                7.99978306                7.98075572                0.00010000               -0.37448700                0.24555338               -0.17840532                0.18185969                8.17328185               -0.23885271
               6.26919125                7.98855675                8.00321664                0.00010000               -0.57507990                0.21881738               -0.01855037                0.14578602                8.27167644                0.07721383
               7.26245939                7.97739055                8.02846896                0.00010000               -0.75951512                0.09648683                0.19097451                0.05992116                8.45278976                0.40032443
               8.25400095                7.96713820                8.05696619                0.00010000               -0.45435762               -0.11386318                0.44678981               -0.01604147                4.30086606                0.82833939
               9.25337224                7.95753006                8.00071261                0.00010000                0.01962274                0.03092899               -0.08324035               -0.01040377                0.03978731                0.25947760
              10.25439341                7.94847768                7.94379335                0.00010000                0.10211665                0.17142300               -0.59592053               -0.03165271                0.00579132               -0.40252093
               0.28539036                9.05189597                8.05233626                0.00010000               -0.02500888               -0.13144939                0.42663448               -0.03936511                0.03103307                0.52317649
               1.28514027                9.04276936                7.98283343                0.00010000                0.07553576                0.07628157               -0.26046317               -0.01801880                0.13693725               -0.22594239
               2.28690107                9.03300787                7.91536931                0.00010000                0.17255845                0.28698239               -0.95734601                0.04121083                4.18310490               -0.79091879
               3.28859144                9.02382170                7.92714988                0.00010000                0.07197550                0.14195492               -0.13814013                0.04647216                8.75981080               -0.96205716
               4.28834058                9.01305175                7.95275809                0.00010000               -0.11307756                0.17711249               -0.25100728                0.03292258                9.25883706               -0.43768378
               5.28632989                9.00212996                7.97921228                0.00010000               -0.34429928                0.21755423               -0.15823671                0.07912289                9.12446980               -0.14955616
               6.28145460                8.99091993                8.00717222                0.00010000               -0.65966993                0.23279787                0.04423128                0.02488785                9.16564518                0.04884035
               7.27313649                8.97845764                8.03820535                0.00010000               -0.91958483                0.19684278                0.31737602               -0.13444492                9.43148510                0.24782506
               8.26306290                8.96560642                8.07413281                0.00010000               -0.56106310               -0.18428936                0.66076596               -0.21471804                4.88498133                0.58989289
               9.26191523                8.95754450                8.01578724                0.00010000               -0.03106667               -0.02956340                0.09944450               -0.00565565                0.08070099                0.23721793
              10.26244157                8.94999789                7.95536706                0.00010000                0.05263411                0.13374997               -0.44686555               -0.03111756               -0.02064837               -0.33851852
               0.29313749               10.05079987                8.03993465                0.00010000                0.03045203               -0.10961046                0.26404189                0.08093458                0.32484854                0.42548113
               1.29344201               10.04386208                7.96879544                0.00010000                0.13302045                0.10927224               -0.45153429                0.10127074                0.57835718               -0.20503558
               2.29579790               10.03622180                7.90270243                0.00010000                0.25796279                0.32139333               -1.13688295               -0.08173929                4.78999217               -0.53106062
               3.29860127               10.02443365                7.91620503                0.00010000                0.16166469                0.06119458               -0.10529859               -0.08744497                9.52879755               -0.56070738
               4.29903119               10.01445325                7.94768812                0.00010000               -0.04630040                0.14015054               -0.27102765                0.05408557               10.08182005               -0.19932802
               5.29767526               10.00413414                7.97835030                0.00010000               -0.28349354                0.20041887               -0.15905173                0.07250976                9.83437000               -0.04209483
               6.29336132                9.99321271                8.01018201                0.00010000               -0.62956236                0.22927719                0.08502563                0.05033564                9.87386426                0.06190015
               7.28508401                9.98132741                8.04534322                0.00010000               -1.13707937                0.28697670                0.40819637               -0.29326271               10.25155782                0.17248830
               8.27061974                9.96345241                8.08713059                0.00010000               -0.81081806               -0.21540067                0.82024394               -0.46374747                5.57700710                0.40150142
               9.26886765                9.95693880                8.03026717                0.00010000               -0.08777344               -0.06057026                0.27421351                0.08025547                0.40453530                0.21684542
              10.26886427                9.95115268                7.96831302                0.00010000               -0.00033839                0.11547822               -0.28735333                0.06365762                0.15586434               -0.27030730
               0.16945150                0.09791004                9.15177138                1.00000000               -0.40281052               -0.44950955                1.54292029               -0.07862280               -0.43023582                0.48362560
               1.16542340                0.07049135                9.11293031                1.00000000               -0.33365940               -0.34808016                1.21478187               -0.05710983               -0.50109852               -0.00024251
               2.16277831                0.04277905                9.07253257                1.00000000               -0.18242112               -0.25084365                0.85275503               -0.04455060               -0.43462233               -0.19970272
               3.16177497                0.01575351                9.03491022                0.00010000                0.30194703               -0.18447920                0.52897456                0.35923100                0.46219281               -0.30503644
               4.16881725               -0.00210321                9.01238850                0.00010000                0.51368408               -0.17167117                0.23855280                0.01237420                1.13059141                0.00168031
               5.17204866               -0.01396745                8.98799538                0.00010000                0.21592136               -0.01190980               -0.10175880               -0.00581401                0.85276576                0.01042052
               6.17313568               -0.02495479                8.96043462                0.00010000                0.05934932                0.11201061               -0.45914118                0.00425796                0.72687694               -0.00036915
               7.17323564               -0.03832054                8.93364779                0.00010000                0.06454398                0.22690574               -0.80919217                0.06603883                0.46447532                0.02906414
               8.17442656               -0.05610641                8.90080534                1.00000000                0.22907237                0.34146010               -1.14034602                0.03677621               -0.03410375                0.30747888
               9.17781709               -0.07621403                8.86425709                1.00000000                0.40556141                0.41930657               -1.46060310               -0.05019653               -0.25286736                0.02706949
              10.18253779               -0.09634420                8.82720851                1.00000000                0.47206998                0.51153695               -1.76908211               -0.07923056               -0.28384696               -0.30354996
               0.19608396                1.09341494                9.13882407                1.00000000               -0.36661657               -0.43334813                1.40295102               -0.03346745               -0.03668674                0.66219311
               1.19241779                1.06701055                9.09951810                1.00000000               -0.31911137               -0.32602409                1.07481621               -0.01353157                0.03204242                0.00803290
               2.18970173                1.04027062                9.06148461                1.00000000               -0.23046880               -0.22439916                0.74414741                0.00557062                0.27563189               -0.51038067
               3.18780841                1.01390872                9.02706277                0.00010000               -0.29501245               -0.17727789                0.41257658                0.45682068                1.37481430               -0.65429375
               4.18380148                0.99618008                9.01120512                0.00010000               -0.21960528                0.05761987                0.20825350                0.59690500                1.94226468                0.06115602
               5.18341631                0.98591345                8.98995773                0.00010000                0.07766612                0.09960824               -0.09939185                0.56798415                1.45907045                0.16160619
               6.18535480                0.97616531                8.96525853                0.00010000                0.30277658               -0.05571964               -0.42757124                0.47203741                1.31788166               -0.33173254
               7.18947184                0.96394852                8.94160563                0.00010000                0.41931337                0.26471851               -0.73001927                0.44133983                1.19809146                0.51646894
               8.19374107                0.94730819                8.91452099                1.00000000                0.39810881                0.31572446               -1.01528622                0.14404892                0.58693336                0.39424426
               9.19743402                0.92797904                8.87836145                1.00000000                0.40672925                0.39966065               -1.31942519               -0.00227771                0.08461341                0.07506656
              10.20187565                0.90877117                8.84124744                1.00000000                0.44416378                0.48724506               -1.62755701               -0.03093882                0.03309311               -0.35719986
               0.22159093                2.08924307                9.12925257                1.00000000               -0.32938391               -0.40369734                1.29202860               -0.03792310                0.03238732                0.85598986
               1.21829709                2.06397087                9.08616490                1.00000000               -0.27996855               -0.28492138                0.93989431               -0.02059307                0.09282343               -0.00947778
               2.21599156                2.03829107                9.04417947                1.00000000               -0.16475835               -0.17200833                0.60830813               -0.01692664                0.64947717               -0.93939403
               3.21500192                2.01220795                9.01222563                0.00010000               -0.36204657               -0.15171846                0.28080032                0.70735802                2.66496965               -1.25601899
               4.20875063                1.99904919                9.01076686                0.00010000               -0.57894079                0.19395189                0.66222071                1.45042927                3.04535330               -0.78371481
               5.20342311                1.98802471                8.99478254                0.00010000               -0.21046354                0.08363529                0.04114837                1.26302991                1.52881061               -0.46048145
               6.20454136                1.97393081                8.96350511                0.00010000                0.37482281               -0.06220369               -0.44808218                1.28346434                2.13468259                0.03386843
               7.21091956                1.96697383                8.95942476                0.00010000                0.43678337                0.01994489               -0.60830166                0.93142463                2.37898871                0.33964756
               8.21327702                1.95020808                8.93001610                0.00010000                0.26944938                0.28680760               -0.87046138                0.16975526                0.78297269                0.74869109
               9.21630855                1.93177919                8.89351124                1.00000000                0.35288615                0.37131472               -1.17428331                0.02335991                0.29253606                0.32152736
              10.22033475                1.91340070                8.85434691                1.00000000                0.40261952                0.44011449               -1.49935983               -0.02288056                0.15661154               -0.37102664
               0.24586990                3.08534099                9.11998654                1.00000000               -0.29119633               -0.37656684                1.18313647               -0.04083678                0.02753172                0.87271067
               1.24295793                3.06131212                9.07230519                1.00000000               -0.23718917               -0.24440939                0.79927311               -0.02450964                0.03080453               -0.03832095
               2.24112611                3.03683045                9.02456239                0.00010000               -0.08802396               -0.11400603                0.41561990               -0.07352239                0.80524838               -1.00783553
               3.24119745                3.01087435                8.99236981                0.00010000               -0.20664023                0.07818063                0.09993660                0.61580895                3.12702359               -1.02458370
               4.23699331                3.00005912                8.99131876                0.00010000               -0.37010855                0.14499424                0.01821180                1.45416284                4.25831235               -1.19507795
               5.23379528                2.98758615                8.98417933                0.00010000               -0.24591720                0.04394995               -0.09879169                1.48697370                3.73375037               -0.83219008
               6.23207496                2.97492124                8.97524374                0.00010000               -0.09861065                0.12461823               -0.33453634                1.39219146                3.47591512                0.27387117
               7.23182307                2.96434742                8.96407578                0.00010000                0.01279294               -0.09273536               -0.52363318                1.02558464                3.22413195                0.08639092
               8.23233082                2.95304434                8.95086553                0.00010000                0.14427583                0.27161986               -0.72314269                0.42694273                1.85478003                1.32543641
               9.23470859                2.93540533                8.91259550                1.00000000                0.29220921                0.33354445               -0.99863813                0.03078997                0.29392465                0.47152490
              10.23817501                2.91757346                8.86830343                1.00000000                0.34664207                0.39915173               -1.36013359               -0.03073857               -0.01215200               -0.30570459
               0.26883193                4.08171174                9.11058996                1.00000000               -0.25144897               -0.34885012                1.07074239               -0.04058043                0.02796196                0.85507396
               1.26631744                4.05908268                9.05832073                1.00000000               -0.19365238               -0.19985908                0.65212603               -0.02166084                0.03091989               -0.04347809
               2.26495888                4.03601095                9.00597665                0.00010000               -0.11140045               -0.05380145                0.23259487                0.04564587                1.46245582               -0.90920711
               3.26408943                4.01377157                8.98237852                0.00010000               -0.19184016                0.37115225               -0.22272461                0.52047309                4.07612240               -0.17896708
               4.26112208                4.00194907                8.98285366                0.00010000               -0.28944860                0.20431369               -0.14190498                1.06478079                5.06278244               -0.48918715
               5.25830046                3.98890371                8.98143810                0.00010000               -0.27490809                0.16572307               -0.20326614                1.04903266                4.84293824               -0.33421787
               6.25562392                3.97642318                8.97948458                0.00010000               -0.24961531                0.16262941               -0.29271350                1.04712711                4.72118856               -0.00469579
               7.25330815                3.96511913                8.97753000                0.00010000               -0.24329771                0.11593556               -0.38921243                1.00787468                4.75027014                0.55958592
               8.25075796                3.95564047                8.97765975                0.00010000               -0.04564632                0.21008443               -0.46364820                0.45743235                2.43850486                1.39483157
               9.25239523                3.93845007                8.93066095                1.00000000                0.23128762                0.27280315               -0.82040834                0.01338111                0.04011023                0.41071708
              10.25538372                3.92138374                8.88292183                1.00000000                0.29884889                0.35899283               -1.20727618               -0.02916230               -0.00108741               -0.29718851
               0.29031639                5.07836399                9.10085481                1.00000000               -0.20908878               -0.31716525                0.95040712               -0.04254688                0.06512518                0.81358534
               1.28822550                5.05731494                9.04433262                0.00010000               -0.14831226               -0.15101798                0.50134619               -0.02496638                0.10077144               -0.09141883
               2.28735015                5.03575442                8.98839045                0.00010000               -0.12783575                0.00491011                0.06389136                0.20721472                2.50910795               -0.91796178
               3.28566879                5.01829740                8.98011197                0.00010000               -0.20966829                0.36143007               -0.15513175                0.56021774                5.09219048               -0.18023778
               4.28315678                5.00414539                8.97798925                0.00010000               -0.26834786                0.24236090               -0.21636498                0.79034928                5.54532318               -0.32968712
               5.28030183                4.99090061                8.98082349                0.00010000               -0.31773464                0.21545067               -0.22511006                0.82436123                5.77562161               -0.19627374
               6.27680209                4.97817383                8.98532834                0.00010000               -0.37692821                0.18765635               -0.23903032                0.81893341                5.83780334                0.11698498
               7.27276327                4.96666613                8.99143750                0.00010000               -0.43267829                0.15244135               -0.24664597                0.82735794                5.92972536                0.57803690
               8.26814852                4.95724603                8.99967504                0.00010000               -0.17651623                0.11808590               -0.23329570                0.39633968                2.99008512                1.10290086
               9.26923294                4.94086140                8.94850004                0.00010000                0.17879560                0.20791879               -0.63596885                0.00740026                0.00979618                0.37879833
              10.27172443                4.92475332                8.89715894                1.00000000                0.24914912                0.31297414               -1.04832930               -0.02955340               -0.00259320               -0.32596993
               0.31007909                6.07536843                9.09052487                1.00000000               -0.16514049               -0.27582845                0.82049837               -0.04513446                0.06769316                0.75635669
               1.30842768                6.05606232                9.02936590                0.00010000               -0.09791825               -0.09782899                0.32948542               -0.03248100                0.14856860               -0.19077307
               2.30812072                6.03610915                8.96969886                0.00010000               -0.07624348                0.06847230               -0.14753373                0.23698637                3.17101455               -1.07690112
               3.30690282                6.02100017                8.96911201                0.00010000               -0.18974391                0.25836685               -0.21950417                0.58005717                6.21355861               -0.72606589
               4.30432585                6.00679629                8.97298792                0.00010000               -0.30717824                0.27619306               -0.23793242                0.65234608                6.50544221               -0.43240197
               5.30075925                5.99321272                8.98078999                0.00010000               -0.40443880                0.24988552               -0.21336188                0.64399858                6.73161996               -0.18171161
               6.29623707                5.98017630                8.99160505                0.00010000               -0.49880697                0.20896833               -0.16736025                0.61992746                6.88581951                0.14654468
               7.29078311                5.96816795                9.00485116                0.00010000               -0.58737889                0.13928232               -0.10404602                0.62608419                7.02434386                0.55271067
               8.28448949                5.95800219                9.02058516                0.00010000               -0.28735842                0.03725590               -0.01640432                0.29621135                3.54557554                1.02334557
               9.28503594                5.94260845                8.96596221                0.00010000                0.12596556                0.14415000               -0.44903854                0.00143139                0.02518375                0.33993279
              10.28700880                5.92764322                8.91125323                1.00000000                0.19728613                0.26274239               -0.88014077               -0.02801980                0.01810245               -0.35996379
               0.32802592                7.07284742                9.07951834                0.00010000               -0.11907511               -0.22454203                0.68003197               -0.04392507                0.04069064                0.70763863
               1.32683517                7.05535836                9.01336434                0.00010000               -0.04369431               -0.04369045                0.14667514               -0.03403966                0.13523795               -0.26139109
               2.32715203                7.03712387                8.94899047                0.00010000               -0.01261875                0.13385042               -0.37863234                0.22142570                3.75840693               -1.23285281
               3.32658279                7.02346473                8.95548631                0.00010000               -0.15804414                0.25634281               -0.32513232                0.50857655                7.34997985               -0.94054334
               4.32399115                7.00966925                8.96604407                0.00010000               -0.33904998                0.29256515               -0.25924452                0.50135032                7.59002394               -0.57132727
               5.31980179                6.99589833                8.98028466                0.00010000               -0.48728709                0.28165769               -0.18518265                0.46472798                7.78119869               -0.21606659
               6.31424541                6.98235319                8.99762704                0.00010000               -0.61713628                0.23019588               -0.08795300                0.41090092                7.93875971                0.13295814
               7.30745907                6.96945178                9.01787542                0.00010000               -0.73065761                0.12205592                0.03849402                0.38352490                8.10619969                0.52341789
               8.29963225                6.95799115                9.04106132                0.00010000               -0.39192623               -0.03710681                0.19607634                0.16243530                4.10100646                0.98332774
               9.29962054                6.94374440                8.98308489                0.00010000                0.07311221                0.08631845               -0.26480898               -0.00582390                0.03248212                0.30144872
              10.30109450                6.93000817                8.92481690                0.00010000                0.14739569                0.21326262               -0.72371843               -0.02818447                0.01624794               -0.40920420
               0.34417871                8.07087759                9.06805857                0.00010000               -0.07082582               -0.17032984                0.53309964               -0.04100678                0.02653936                0.68187490
               1.34347045                8.05518852                8.99696241                0.00010000                0.01320815                0.01162351               -0.04306833               -0.02809367                0.09941394               -0.29206593
               2.34444287                8.03878616                8.92723941                0.00010000                0.05292557                0.20083932               -0.62537352                0.18698406                4.28905271               -1.25320160
               3.34452896                8.02612702                8.94019361                0.00010000               -0.12618043                0.25807656               -0.38082896                0.38293621                8.50157048               -1.03191896
               4.34191926                8.01264759                8.95807859                0.00010000               -0.35795445                0.28674019               -0.25446122                0.33485015                8.74238211               -0.58078718
               5.33736987                7.99884588                8.97913946                0.00010000               -0.55088116                0.29626476               -0.15160626                0.29395708                8.85982527               -0.21355857
               6.33090164                7.98478022                9.00306975                0.00010000               -0.72771071                0.26899815               -0.01028893                0.21025657                8.99276219                0.10487844
               7.32281566                7.97060907                9.03028347                0.00010000               -0.87280284                0.13323418                0.17572419                0.09404223                9.19801624                0.45102529
               8.31344558                7.95726005                9.06121366                0.00010000               -0.49566057               -0.10821336                0.40644747               -0.00347970                4.66465008                0.92215733
               9.31290244                7.94433482                8.99981251                0.00010000                0.02359968                0.03171868               -0.09504331               -0.00821959                0.03018886                0.28693094
              10.31391757                7.93190847                8.93790265                0.00010000                0.10151296                0.17138774               -0.58277143               -0.02930409                0.00452134               -0.43515652
               0.35858393                9.06944082                9.05636841                0.00010000               -0.02192072               -0.12099946                0.38441600               -0.03591779                0.02343658                0.56388521
               1.35836472                9.05559083                8.98034813                0.00010000                0.06846353                0.07071209               -0.23718629               -0.01501439                0.12295087               -0.26980825
               2.35995320                9.04114065                8.90626782                0.00010000                0.10076768                0.26474946               -0.86821013                0.11108760                4.83843446               -0.90323615
               3.36038008                9.02862626                8.92487881                0.00010000               -0.09919522                0.22560010               -0.29317331                0.20079986                9.66607112               -0.76410413
               4.35796930                9.01540406                8.95048464                0.00010000               -0.34158865                0.25952009               -0.23284682                0.17004892                9.88667650               -0.37914191
               5.35354831                9.00182362                8.97786006                0.00010000               -0.56409784                0.28935046               -0.12444588                0.15725521                9.86459209               -0.13246476
               6.34668734                8.98773316                9.00766712                0.00010000               -0.83441137                0.29539838                0.05428265                0.06405777                9.97419028                0.06569070
               7.33686008                8.97211646                9.04124926                0.00010000               -1.04252141                0.24892440                0.29617790               -0.12505364               10.28086070                0.27771021
               8.32583691                8.95582688                9.08042861                0.00010000               -0.60261738               -0.17017810                0.60416397               -0.21929273                5.30462477                0.65022308
               9.32480773                8.94437877                9.01665165                0.00010000               -0.02379023               -0.02370552                0.07514514               -0.00588540                0.07071286                0.26176677
              10.32536111                8.93343592                8.95093965                0.00010000                0.05533782                0.13431850               -0.44169312               -0.02859526               -0.02312039               -0.36437275
               0.37116033               10.06845760                9.04236629                0.00010000                0.03099989               -0.09832233                0.22663313                0.07215574                0.33708309                0.45853937
               1.37147033               10.05660276                8.96445441                0.00010000                0.12344281                0.10119242               -0.41804625                0.09173808                0.60282037               -0.24151190
               2.37362919               10.04408115                8.89185346                0.00010000                0.14056094                0.29404954               -1.03891001                0.06941220                5.60187161               -0.60105242
               3.37428155               10.03063903                8.91429221                0.00010000               -0.07531540                0.20127625               -0.28227452                0.07798977               10.51615478               -0.38961221
               4.37212288               10.01783800                8.94522800                0.00010000               -0.30478383                0.24339400               -0.25376583                0.11505137               10.73381633               -0.15886834
               5.36818588               10.00463289                8.97700999                0.00010000               -0.51164651                0.28092656               -0.12267919                0.10626662               10.64588204               -0.02743606
               6.36188995                9.99068819                9.01108377                0.00010000               -0.79825074                0.29550341                0.09489631                0.06799480               10.76687375                0.07659813
               7.35222086                9.97558756                9.04927451                0.00010000               -1.25462674                0.34711001                0.38363578               -0.30550666               11.19697765                0.19556823
               8.33679742                9.95385649                9.09496134                0.00010000               -0.85225831               -0.19703861                0.75322278               -0.49029221                6.06451341                0.43267134
               9.33517569                9.94386071                9.03281825                0.00010000               -0.07830257               -0.05180604                0.23855380                0.07371389                0.42260857                0.23612842
              10.33523137                9.93459484                8.96543482                0.00010000                0.00556719                0.11589222               -0.29077871                0.06043913                0.16648403               -0.29038414
               0.20541878                0.11658960               10.16704993                1.00000000               -0.39613903               -0.44008459                1.51443039               -0.07643575               -0.47050130                0.52117208
               1.20145739                0.08463220               10.12499093                1.00000000               -0.32750198               -0.34276381                1.19782754               -0.05616818               -0.55922160                0.00610724
               2.19886874                0.05239797               10.08102591                1.00000000               -0.17808318               -0.24815537                0.84507408               -0.04362087               -0.49097251               -0.19339717
               3.19789572                0.02095456               10.04021988                0.00010000                0.30572625               -0.18301620                0.53050050                0.38539713                0.43734934               -0.33868726
               4.20498326               -0.00068918               10.01476047                0.00010000                0.50400578               -0.15012363                0.23673540                0.00207082                1.09245486                0.01471037
               5.20797584               -0.01581348                9.98699824                0.00010000                0.20062175               -0.00442529               -0.09727030               -0.00151261                0.78888187                0.01568925
               6.20899570               -0.02997605                9.95589887                0.00010000                0.05589393                0.11024770               -0.44751026                0.00526600                0.65553103               -0.00694542
               7.20909372               -0.04638572                9.92560539                0.00010000                0.05900826                0.22197869               -0.79759468                0.06435463                0.40227930                0.02925986
               8.21017586               -0.06731705                9.88946444                1.00000000                0.21920864                0.33894003               -1.12643513                0.04122202               -0.08039666                0.31895728
               9.21347789               -0.09076574                9.84972853                1.00000000                0.39799464                0.41484701               -1.44403231               -0.05065117               -0.28827796                0.02490730
              10.21813575               -0.11428478                9.80960888                1.00000000                0.46578653                0.50491330               -1.75011311               -0.07976789               -0.31400570               -0.33464674
               0.23661182                1.11218876               10.15271196                1.00000000               -0.36203031               -0.42365910                1.37641752               -0.03198716               -0.04577136                0.71297539
               1.23299152                1.08120456               10.11019250                1.00000000               -0.31702398               -0.32085646                1.06049521               -0.01149511                0.01991108                0.01678647
               2.23027135                1.04991641               10.06890102                1.00000000               -0.23491270               -0.22327709                0.73773146                0.01236575                0.26066451               -0.51554935
               3.22829327                1.01912440               10.03120626                0.00010000               -0.34416761               -0.17663429                0.41444148                0.50506818                1.42003767               -0.69331307
               4.22338799                0.99780958               10.01326580                0.00010000               -0.28445604                0.09254110                0.20467127                0.46373482                2.00449176                0.31014073
               5.22260415                0.98414226                9.98897663                0.00010000                0.04732397                0.09803234               -0.09660833                0.48279412                1.46645824                0.21315737
               6.22433447                0.97112643                9.96103283                0.00010000                0.29018075               -0.04108396               -0.41755072                0.41245876                1.32662562               -0.34806113
               7.22840776                0.95583407                9.93435156                0.00010000                0.42218104                0.25521904               -0.71981859                0.44891138                1.22046810                0.53429107
               8.23277809                0.93607235                9.90442774                1.00000000                0.40237409                0.31319242               -1.00278591                0.15576720                0.60170423                0.41488858
               9.23645524                0.91338273                9.86523908                1.00000000                0.40395124                0.39605021               -1.30463946               -0.00192751                0.08668526                0.07457893
              10.24085712                0.89076435                9.82505769                1.00000000                0.44018744                0.47924768               -1.61033898               -0.03137378                0.03287586               -0.39493131
               0.26674743                2.10811642               10.14203005                1.00000000               -0.32476029               -0.39432284                1.26533917               -0.03405114                0.03071868                0.92189358
               1.26349983                2.07821507               10.09550452                1.00000000               -0.27756098               -0.28091093                0.92806082               -0.01487098                0.10020310               -0.00083122
               2.26119621                2.04793243               10.05028658                1.00000000               -0.16979551               -0.17475364                0.61114619               -0.00060991                0.66670302               -0.98509105
               3.26010392                2.01742188               10.01508457                0.00010000               -0.59780574               -0.15655150                0.28974872                0.79644069                3.02808366               -1.32399319
               4.24924010                2.00116164               10.01727549                0.00010000               -0.78945198                0.22517501                0.58054235                1.54940517                3.21667665               -0.87419692
               5.24431488                1.98614716                9.99476854                0.00010000               -0.18435159                0.08288872               -0.02205374                1.32427937                1.39335163               -0.47359149
               6.24555306                1.96920227                9.95937309                0.00010000                0.44055710               -0.07827163               -0.40049593                1.35056641                2.22371465                0.05375285
               7.25312602                1.95871866                9.95328869                0.00010000                0.50947407               -0.00192884               -0.61558941                0.97448919                2.48772236                0.36045947
               8.25574255                1.93894680                9.92136651                0.00010000                0.28106599                0.29025378               -0.85946319                0.20389098                0.84090897                0.78031413
               9.25874734                1.91715526                9.88183609                1.00000000                0.35012465                0.37164943               -1.16097961                0.03166131                0.31438050                0.33757279
              10.26274504                1.89530017                9.83943431                1.00000000                0.39976992                0.43032404               -1.48371592               -0.02052901                0.16798410               -0.40919070
               0.29573351                3.10430230               10.13167123                1.00000000               -0.28554116               -0.36868122                1.15561931               -0.03603202                0.02665750                0.93882547
               1.29287810                3.07558634               10.08025275                1.00000000               -0.23405855               -0.24217281                0.79014974               -0.01881266                0.02891939               -0.03541494
               2.29105234                3.04642134               10.02877724                0.00010000               -0.09426159               -0.11835949                0.42535473               -0.05786487                0.83548925               -1.07889923
               3.29099287                3.01599337                9.99346978                0.00010000               -0.27007639                0.05190393                0.11674017                0.71833352                3.30602853               -1.19530906
               4.28565081                3.00231308                9.99165655                0.00010000               -0.49718800                0.13795238                0.03728299                1.74534750                4.54252491               -1.55261076
               5.28104911                2.98580004                9.98325490                0.00010000               -0.34382560                0.05426400               -0.09672844                1.67235301                3.92808535               -0.94969921
               6.27877430                2.96956099                9.97193656                0.00010000               -0.14480447                0.09617423               -0.32698475                1.56390278                3.63872263                0.31017164
               7.27815302                2.95579549                9.95886633                0.00010000               -0.01774931               -0.10396305               -0.51658412                1.14546398                3.40709283                0.12625042
               8.27841931                2.94187743                9.94369212                0.00010000                0.12910404                0.28123703               -0.70919141                0.48930767                1.97699653                1.40567949
               9.28073510                2.92081572                9.90266662                1.00000000                0.28687057                0.33578127               -0.98769659                0.04204282                0.33633502                0.50197585
              10.28415672                2.89937083                9.85477813                1.00000000                0.34216268                0.39133849               -1.34602250               -0.02936013               -0.01081016               -0.33046034
               0.32345871                4.10074280               10.12114287                1.00000000               -0.24541770               -0.34215978                1.04171281               -0.03637179                0.02651519                0.91685661
               1.32100453                4.07337161               10.06480884                1.00000000               -0.19134136               -0.19844266                0.64537001               -0.01694419                0.02778025               -0.04541466
               2.31963188                4.04556524               10.00839015                0.00010000               -0.12128440               -0.05768041                0.24802079                0.04228220                1.42826905               -0.96918968
               3.31857885                4.01845996                9.98008390                0.00010000               -0.26457523                0.37273761               -0.22844305                0.57244226                4.31049607               -0.24026770
               4.31434038                4.00392069                9.98152285                0.00010000               -0.40324090                0.18212046               -0.12787851                1.18349033                5.49517381               -0.57566948
               5.31051403                3.98723244                9.97949195                0.00010000               -0.37523579                0.17224116               -0.18928658                1.14010340                5.17570380               -0.40074915
               6.30683566                3.97112575                9.97659011                0.00010000               -0.33975809                0.17530492               -0.28516314                1.13542611                5.02711219                0.00346513
               7.30371887                3.95663940                9.97363801                0.00010000               -0.31635950                0.12882983               -0.38636618                1.11548913                5.05656811                0.61935743
               8.30050847                3.94457154                9.97299642                0.00010000               -0.08120377                0.21628765               -0.46703401                0.51927786                2.60880862                1.51319287
               9.30209479                3.92387089                9.92250293                1.00000000                0.22695688                0.27210780               -0.81205216                0.02314588                0.05710078                0.44460548
              10.30504761                3.90312694                9.87092281                1.00000000                0.29528204                0.35460023               -1.19448756               -0.02749382               -0.00017986               -0.31117022
               0.34974845                5.09745911               10.11019153                1.00000000               -0.20316695               -0.31027057                0.91907503               -0.03886622                0.06940915                0.86823610
               1.34771678                5.07161749               10.04932426                0.00010000               -0.14694027               -0.14965019                0.49682617               -0.02136484                0.10968939               -0.10546735
               2.34680964                5.04526773                9.98915546                0.00010000               -0.18152585                0.00108388                0.08653621                0.23029612                2.61893714               -0.99300364
               3.34408626                5.02344812                9.97852445                0.00010000               -0.31307545                0.39671247               -0.17364727                0.59778179                5.39878043               -0.10377042
               4.34054813                5.00595549                9.97589055                0.00010000               -0.37200748                0.23430542               -0.20602096                0.87206847                5.96459363               -0.34191398
               5.33664611                4.98924486                9.97864298                0.00010000               -0.42361353                0.22042415               -0.21188494                0.88872926                6.20443572               -0.20447114
               6.33207586                4.97306709                9.98297275                0.00010000               -0.48145472                0.20737619               -0.23107863                0.88516189                6.25519813                0.13846644
               7.32701701                4.95837209                9.98896268                0.00010000               -0.52512384                0.17119499               -0.24625294                0.91096537                6.34879149                0.63912358
               8.32157338                4.94620318                9.99729818                0.00010000               -0.21872007                0.11853236               -0.24160962                0.44699400                3.20464731                1.20332056
               9.32264261                4.92625787                9.94217758                0.00010000                0.17606810                0.20511514               -0.62873618                0.01430823                0.01541872                0.41474901
              10.32509475                4.90646284                9.88675536                1.00000000                0.24521321                0.31078003               -1.03255927               -0.02800438               -0.00272305               -0.33349418
               0.37436462                6.09453739               10.09854895                1.00000000               -0.15960133               -0.26792958                0.78688696               -0.04151116                0.06789812                0.80264930
               1.37276861                6.07037861               10.03264999                0.00010000               -0.09787257               -0.09665230                0.32733313               -0.02871520                0.15429594               -0.22002400
               2.37240717                6.04558691                9.96837940                0.00010000               -0.14609434                0.06461496               -0.11883347                0.27658135                3.37776132               -1.18318613
               3.36984672                6.02639420                9.96704462                0.00010000               -0.32110802                0.27186104               -0.20024030                0.65622612                6.64229670               -0.72961348
               4.36598501                6.00860680                9.97070864                0.00010000               -0.43348543                0.28187572               -0.22237755                0.73956830                6.98210159               -0.41516804
               5.36117701                5.99164093                9.97873443                0.00010000               -0.52866696                0.26516135               -0.19902412                0.71999074                7.23397649               -0.16264567
               6.35541167                5.97527328                9.98996660                0.00010000               -0.61874641                0.23354785               -0.15953148                0.68386584                7.39527389                0.18100321
               7.34880209                5.96006330               10.00379241                0.00010000               -0.69245516                0.15959345               -0.10584067                0.69305608                7.54043541                0.61334487
               8.34156257                5.94694219               10.02035290                0.00010000               -0.33403936                0.03592797               -0.02968625                0.33352077                3.80394012                1.11475411
               9.34212130                5.92797319                9.96146811                0.00010000                0.12575164                0.14233590               -0.44939883                0.00572936                0.02867132                0.37600201
              10.34407760                5.90934254                9.90250747                1.00000000                0.19563027                0.26365442               -0.87053213               -0.02626342                0.02363690               -0.36954812
               0.39723578                7.09210051               10.08612830                0.00010000               -0.11428341               -0.21605521                0.64505178               -0.04010481                0.03881571                0.74683257
               1.39609294                7.06968444               10.01484724                0.00010000               -0.04550538               -0.04336346                0.14982566               -0.02936848                0.13579771               -0.29836094
               2.39632567                7.04656003                9.94542080                0.00010000               -0.09510232                0.12769286               -0.33843348                0.26848070                4.04164421               -1.35557831
               3.39419090                7.02888534                9.95240705                0.00010000               -0.31164470                0.25847341               -0.29676304                0.60470878                7.91509606               -0.94978545
               4.39009278                7.01159301                9.96357670                0.00010000               -0.49057270                0.31239425               -0.23902208                0.61302579                8.16036462               -0.54097294
               5.38437944                6.99454809                9.97852449                0.00010000               -0.63809884                0.31477770               -0.16943774                0.55671839                8.35965600               -0.18315243
               6.37733080                6.97773805                9.99678652                0.00010000               -0.75851077                0.26704813               -0.08017723                0.47533443                8.53092468                0.17238177
               7.36920923                6.96156396               10.01822598                0.00010000               -0.84984451                0.14869611                0.03340161                0.43287053                8.71214918                0.58199188
               8.36033391                6.94692174               10.04290098                0.00010000               -0.44261914               -0.03640672                0.17449088                0.18714875                4.40356254                1.07178110
               9.36035685                6.92910459                9.98042052                0.00010000                0.07484349                0.08643637               -0.27177279               -0.00100439                0.03364448                0.33182433
              10.36183078                6.91173592                9.91763475                0.00010000                0.14739337                0.21546276               -0.71964584               -0.02556926                0.01957861               -0.42861512
               0.41839467                8.09021628               10.07319773                0.00010000               -0.06729503               -0.16172797                0.49827956               -0.03730106                0.02358121                0.71759100
               1.41772172                8.06951134                9.99658991                0.00010000                0.00906059                0.00983807               -0.03194085               -0.02342889                0.09224781               -0.33372419
               2.41857588                8.04814077                9.92129411                0.00010000               -0.04068986                0.18845313               -0.56812265                0.24328741                4.66702168               -1.38061888
               3.41690792                8.03156367                9.93639647                0.00010000               -0.29965503                0.27778380               -0.37745011                0.51095269                9.21278085               -0.96647476
               4.41258278                8.01485468                9.95558874                0.00010000               -0.53707919                0.33632486               -0.24733335                0.46864458                9.38736897               -0.52619644
               5.40616634                7.99793648                9.97772360                0.00010000               -0.73401471                0.35310239               -0.13646349                0.39096846                9.50320528               -0.17601891
               6.39790249                7.98061424               10.00301086                0.00010000               -0.89452670                0.32408404               -0.00278736                0.26595775                9.66261027                0.14018008
               7.38827581                7.96303722               10.03198345                0.00010000               -1.00687895                0.17284213                0.16618601                0.11913960                9.89402278                0.49990460
               8.37776491                7.94621405               10.06509514                0.00010000               -0.54943905               -0.10292700                0.37348737                0.00418968                5.00857864                1.00328624
               9.37728703                7.92970192                9.99881175                0.00010000                0.02693218                0.03347540               -0.10605542               -0.00503260                0.02503482                0.31034930
              10.37830355                7.91365180                9.93213792                0.00010000                0.10165278                0.17211720               -0.57589191               -0.02639308                0.00702055               -0.46117380
               0.43789964                9.08886596               10.06002458                0.00010000               -0.01997659               -0.11206977                0.35072690               -0.03306243                0.01743059                0.59433899
               1.43769988                9.06988120                9.97808971                0.00010000                0.06197209                0.06539802               -0.21584528               -0.01236668                0.11153836               -0.30677752
               2.43913909                9.05032910                9.89800511                0.00010000               -0.00019184                0.24443478               -0.79070852                0.19907306                5.35869096               -0.99417895
               3.43769604                9.03444102                9.92128641                0.00010000               -0.30231116                0.31254691               -0.38938701                0.33161557               10.50372488               -0.66278161
               4.43309286                9.01831950                9.94810115                0.00010000               -0.56283928                0.34672436               -0.24753776                0.27880376               10.54569337               -0.32882802
               5.42643926                9.00161013                9.97672336                0.00010000               -0.77718264                0.36745511               -0.11083292                0.22355062               10.56075716               -0.10575339
               6.41754921                8.98421973               10.00825787                0.00010000               -1.02235229                0.36485615                0.06141475                0.09712225               10.71977175                0.08744403
               7.40599221                8.96502080               10.04412891                0.00010000               -1.18981002                0.30755202                0.28197094               -0.12431717               11.06778798                0.30497415
               8.39375301                8.94486320               10.08621609                0.00010000               -0.65868802               -0.15868358                0.55883864               -0.23226690                5.69673628                0.70007801
               9.39281845                8.92977410               10.01729015                0.00010000               -0.01749225               -0.01868734                0.05402374               -0.00628080                0.06287891                0.28164114
              10.39340316                8.91517827                9.94653319                0.00010000                0.05847149                0.13514246               -0.44171602               -0.02672123               -0.02516288               -0.38656936
               0.45570293               10.08797489               10.04446731                0.00010000                0.03083207               -0.08910678                0.19721816                0.06476960                0.34598343                0.48343451
               1.45601125               10.07081930                9.96043451                0.00010000                0.11473010                0.09380964               -0.38808388                0.08386601                0.62177210               -0.27139454
               2.45799753               10.05302947                9.88192423                0.00010000               -0.02307102                0.27003717               -0.95398324                0.23560995                6.23926864               -0.65587907
               3.45554983               10.03781461                9.91055954                0.00010000               -0.35038929                0.33735916               -0.42138168                0.22336379               11.43785754               -0.31389499
               4.45098974               10.02178917                9.94261280                0.00010000               -0.54063495                0.34696657               -0.27483984                0.16323661               11.42716499               -0.12767659
               5.44473713               10.00528558                9.97589672                0.00010000               -0.72777377                0.36754464               -0.10899411                0.13589700               11.40837006               -0.00971334
               6.43643427                9.98791136               10.01207994                0.00010000               -0.97955671                0.36916344                0.10177723                0.08364006               11.59162984                0.09200765
               7.42514599                9.96918827               10.05301594                0.00010000               -1.40339975                0.41674642                0.36721390               -0.32817070               12.07258917                0.21535193
               8.40836627                9.94304038               10.10219504                0.00010000               -0.91498270               -0.18228182                0.70057743               -0.53167825                6.51540238                0.45603708
               9.40684634                9.92932817               10.03503824                0.00010000               -0.07027392               -0.04459278                0.20811621                0.06850239                0.43817616                0.25201782
              10.40696079                9.91635465                9.96249745                0.00010000                0.01144542                0.11763778               -0.29910316                0.05841033                0.17479690               -0.30616426
               0.24415947                0.13700941               11.18205999                1.00000000               -0.38964896               -0.43150823                1.48909664               -0.07510414               -0.50774896                0.55581534
               1.24026298                0.10021037               11.13688686                1.00000000               -0.32147802               -0.33776754                1.18170789               -0.05602872               -0.61538176                0.01265639
               2.23772991                0.06316089               11.08943405                1.00000000               -0.17377899               -0.24619222                0.84022137               -0.04303353               -0.54755063               -0.18659618
               3.23678740                0.02700701               11.04552023                1.00000000                0.30790430               -0.18292379                0.53332649                0.40667094                0.40791320               -0.37017382
               4.24388800                0.00118034               11.01712321                0.00010000                0.49502457               -0.13124634                0.23633021               -0.00757814                1.05131820                0.02831431
               5.24668789               -0.01761045               10.98604998                0.00010000                0.18755803                0.00167475               -0.09196187                0.00195867                0.72559428                0.02174656
               6.24763916               -0.03536161               10.95148442                0.00010000                0.05138823                0.10914834               -0.43497732                0.00646077                0.58321994               -0.01286705
               7.24771566               -0.05522769               10.91769590                0.00010000                0.05281636                0.21787260               -0.78288045                0.06245073                0.33822566                0.03002653
               8.24869548               -0.07965386               10.87827663                1.00000000                0.20957184                0.33577519               -1.10996161                0.04375043               -0.12670009                0.33053777
               9.25190709               -0.10673698               10.83537645                1.00000000                0.39007461                0.41000378               -1.42547740               -0.05097711               -0.32313315                0.02276536
              10.25649698               -0.13393475               10.79220625                1.00000000                0.45898817                0.49818679               -1.72951283               -0.07987967               -0.34359041               -0.36530178
               0.28020747                1.13269432               11.16635242                1.00000000               -0.35805126               -0.41438639                1.35309841               -0.03131795               -0.05379632                0.75965407
               1.27662695                1.09683269               11.12072801                1.00000000               -0.31531065               -0.31581899                1.04696645               -0.01068553                0.00692732                0.02522900
               2.27390125                1.06069897               11.07623924                1.00000000               -0.23912833               -0.22239287                0.73133041                0.01803703                0.24350839               -0.51727811
               3.27184439                1.02517778               11.03535160                0.00010000               -0.38901534               -0.17712225                0.41689167                0.54780912                1.45761901               -0.72931845
               4.26612095                0.99986787               11.01529855                0.00010000               -0.34329675                0.09970825                0.20228704                0.33703585                2.06054712                0.49086592
               5.26497845                0.98240630               10.98802556                0.00010000                0.01957189                0.09425321               -0.09357862                0.41833283                1.47403415                0.24422175
               6.26651238                0.96572987               10.95690752                0.00010000                0.27539188               -0.02681300               -0.40764170                0.37005389                1.33404656               -0.35561083
               7.27048629                0.94695104               10.92720926                0.00010000                0.41876254                0.24479690               -0.70792656                0.44694754                1.24104884                0.54566566
               8.27488763                0.92370389               10.89446527                1.00000000                0.40257405                0.31019196               -0.98942682                0.16321693                0.61645759                0.43570168
               9.27853777                0.89736306               10.85226866                1.00000000                0.40041583                0.39200425               -1.28917056               -0.00177564                0.08915891                0.07428757
              10.28289595                0.87104712               10.80904066                1.00000000                0.43581808                0.47156000               -1.59278346               -0.03154359                0.03306475               -0.43220922
               0.31525637                2.12872168               11.15455935                1.00000000               -0.32117419               -0.38448187                1.24198482               -0.03114207                0.02978052                0.98176994
               1.31204463                2.09389399               11.10472612                1.00000000               -0.27554009               -0.27665958                0.91648187               -0.01026453                0.10852899                0.00719225
               2.30974557                2.05871303               11.05640240                1.00000000               -0.17349761               -0.17750356                0.61037319                0.01440968                0.68160692               -1.02398636
               3.30857468                2.02346457               11.01802061                0.00010000               -0.81726894               -0.16044674                0.29541887                0.85278975                3.30895740               -1.38729303
               4.29340019                2.00317450               11.02237771                0.00010000               -0.96910649                0.24458396                0.44834977                1.63738974                3.42897911               -0.94822365
               5.28919255                1.98427462               10.99434146                0.00010000               -0.14523478                0.07312292               -0.05283915                1.40130790                1.33485945               -0.47147843
               6.29049549                1.96410213               10.95549520                0.00010000                0.47440210               -0.09111142               -0.38217885                1.40596147                2.32153914                0.06104355
               7.29868059                1.94966825               10.94711297                0.00010000                0.55261544               -0.02139667               -0.61708501                1.00854680                2.58962396                0.38454428
               8.30154780                1.92654998               10.91282683                0.00010000                0.29238854                0.29120620               -0.84906240                0.23088453                0.90558786                0.81611759
               9.30452836                1.90110310               10.87029164                1.00000000                0.34750921                0.37074766               -1.14823926                0.03789837                0.33666648                0.35369028
              10.30849799                1.87549645               10.82467260                1.00000000                0.39696280                0.42143178               -1.46887512               -0.01867451                0.17964688               -0.44665797
               0.34924000                3.12500469               11.14309893                1.00000000               -0.28096904               -0.35965536                1.13147887               -0.03182244                0.02683324                0.99751181
               1.34643031                3.09129950               11.08810819                1.00000000               -0.23105669               -0.23955531                0.78088684               -0.01373260                0.02860209               -0.03313917
               2.34461887                3.05714889               11.03306949                0.00010000               -0.09958000               -0.12320457                0.43146929               -0.04135106                0.86157258               -1.14365598
               3.34443871                3.02196884               10.99470461                0.00010000               -0.32800868                0.02234908                0.12756684                0.81013172                3.47025018               -1.37040550
               4.33805869                3.00475955               10.99206442                0.00010000               -0.61808658                0.15135932                0.03579092                2.00586145                4.79796685               -1.84969080
               5.33207698                2.98386876               10.98224476                0.00010000               -0.44103580                0.06130126               -0.10700764                1.83514090                4.12067434               -1.02873591
               6.32923798                2.96390765               10.96870405                0.00010000               -0.19338020                0.06770802               -0.32067534                1.70894754                3.80608853                0.33363120
               7.32820937                2.94652310               10.95374410                0.00010000               -0.05837536               -0.11291593               -0.50759962                1.24864955                3.58710733                0.17211508
               8.32807047                2.92952802               10.93668170                0.00010000                0.10699479                0.28741413               -0.69470221                0.53881617                2.09771065                1.48329932
               9.33034927                2.90477801               10.89284157                1.00000000                0.28326518                0.33640582               -0.97788204                0.05151119                0.37489557                0.53182873
              10.33373577                2.87947575               10.84138298                1.00000000                0.33865036                0.38433311               -1.33384785               -0.02810778               -0.00907439               -0.35429660
               0.38203029                4.12152857               11.13142421                1.00000000               -0.24045203               -0.33410281                1.01625103               -0.03261328                0.02610289                0.96979511
               1.37962577                4.08910288               11.07122813                1.00000000               -0.18905401               -0.19675301                0.63837796               -0.01272900                0.02590757               -0.04822041
               2.37824921                4.05624894               11.01093706                0.00010000               -0.12295580               -0.06219016                0.25945893                0.03592517                1.37935101               -1.02223112
               3.37716665                4.02391155               10.97780966                0.00010000               -0.33158530                0.36462104               -0.21976070                0.62116702                4.52037790               -0.31589844
               4.37161750                4.00620169               10.98029609                0.00010000               -0.52096917                0.16808850               -0.12204343                1.29302570                5.91485590               -0.66759064
               5.36674727                3.98550064               10.97765236                0.00010000               -0.47987031                0.18499755               -0.18152412                1.22429850                5.49177019               -0.45815944
               6.36202010                3.96545629               10.97378131                0.00010000               -0.43570310                0.18295096               -0.27711677                1.21288333                5.31978026                0.01596707
               7.35803321                3.94740993               10.96980267                0.00010000               -0.39754380                0.13855491               -0.37991114                1.20231328                5.35004520                0.67954213
               8.35406922                3.93229826               10.96831907                0.00010000               -0.12111791                0.22139723               -0.46734143                0.56886925                2.77571312                1.62253397
               9.35561085                3.90783122               10.91441990                1.00000000                0.22355646                0.27065938               -0.80547811                0.03098600                0.07664888                0.47854996
              10.35854035                3.88318311               10.85903207                1.00000000                0.29295006                0.35115139               -1.18540230               -0.02587864                0.00048813               -0.32081568
               0.41343911                5.11832263               11.11923631                1.00000000               -0.19837472               -0.30219640                0.89185727               -0.03558502                0.07450575                0.91295455
               1.41145536                5.08736444               11.05426914                0.00010000               -0.14552033               -0.14820110                0.49196144               -0.01800782                0.11983207               -0.12039944
               2.41052870                5.05590509               10.99012118                0.00010000               -0.22730303               -0.00344297                0.10415572                0.24644668                2.69265906               -1.06018156
               3.40690930                5.02926126               10.97663902                0.00010000               -0.40992931                0.43068725               -0.21479499                0.62345459                5.68274510               -0.01922857
               4.40233012                5.00812132               10.97386883                0.00010000               -0.48004791                0.23025454               -0.20158013                0.94840047                6.38697417               -0.35278833
               5.39730834                4.98756871               10.97658579                0.00010000               -0.53718821                0.22888306               -0.20169771                0.94394444                6.61628869               -0.20990246
               6.39158635                4.96756667               10.98070677                0.00010000               -0.59473380                0.22631556               -0.22231694                0.93949831                6.65298623                0.16372895
               7.38541367                4.94929420               10.98651244                0.00010000               -0.62798933                0.18808099               -0.24294693                0.97808062                6.74949101                0.70170718
               8.37902657                4.93395596               10.99484285                0.00010000               -0.26647619                0.11981049               -0.24828463                0.48601872                3.41482019                1.30036021
               9.38008414                4.91019120               10.93592531                0.00010000                0.17439284                0.20271647               -0.62572092                0.01933815                0.02641957                0.44977283
              10.38251442                4.88649878               10.87650775                1.00000000                0.24302790                0.30948779               -1.02266852               -0.02611857                0.00103212               -0.33765952
               0.44323497                6.11548464               11.10626261                1.00000000               -0.15518124               -0.25936662                0.75818273               -0.03831620                0.06810830                0.83874060
               1.44168315                6.08613886               11.03591256                0.00010000               -0.09768208               -0.09566070                0.32504408               -0.02506551                0.16009855               -0.24872979
               2.44128132                6.05618008               10.96732219                0.00010000               -0.21318191                0.05962488               -0.09514989                0.31414190                3.56347870               -1.27901187
               3.43741951                6.03252530               10.96510721                0.00010000               -0.45016285                0.29279586               -0.19484957                0.72231034                7.03873226               -0.70342811
               4.43227807                6.01080678               10.96854037                0.00010000               -0.56193499                0.29241847               -0.21614772                0.81519439                7.43643353               -0.38906634
               5.42618081                5.99007830               10.97680951                0.00010000               -0.65967492                0.28387025               -0.18811952                0.78262884                7.71457569               -0.13852116
               6.41908457                5.96998260               10.98841442                0.00010000               -0.74876456                0.25949520               -0.15132626                0.73346526                7.88127126                0.21937824
               7.41120552                5.95117155               11.00273435                0.00010000               -0.80959836                0.18031897               -0.10508867                0.74428944                8.03363053                0.67501507
               8.40289260                5.93469447               11.01999144                0.00010000               -0.38753636                0.03642794               -0.04188410                0.35981973                4.05482708                1.20280628
               9.40345480                5.91188555               10.95697423                0.00010000                0.12551081                0.14230230               -0.45130952                0.00769558                0.03534622                0.40784484
              10.40540282                5.88937287               10.89384258                1.00000000                0.19480209                0.26533170               -0.86792598               -0.02410885                0.03045517               -0.38123064
               0.47136435                7.11313530               11.09241937                0.00010000               -0.11057323               -0.20757534                0.61588026               -0.03685710                0.03712524                0.77634889
               1.47025862                7.08545123               11.01636085                0.00010000               -0.04696207               -0.04336467                0.15257582               -0.02509227                0.13642700               -0.33222406
               2.47042511                7.05709759               10.94222180                0.00010000               -0.17649030                0.12046983               -0.30458195                0.31806864                4.30004312               -1.46220551
               3.46672881                7.03511718               10.94955105                0.00010000               -0.46720544                0.26964362               -0.27940378                0.69712685                8.43887058               -0.95867869
               4.46108100                7.01396969               10.96126362                0.00010000               -0.64718574                0.33962198               -0.22744788                0.70951880                8.69877899               -0.50871070
               5.45378510                6.99324611               10.97689590                0.00010000               -0.79592951                0.35241615               -0.15873832                0.63089592                8.90988947               -0.14585550
               6.44516241                6.97275657               10.99602349                0.00010000               -0.90987550                0.30649365               -0.07322287                0.52319474                9.09456848                0.21542833
               7.43558759                6.95290058               11.01854346                0.00010000               -0.98267233                0.17663424                0.03081901                0.46671277                9.28985965                0.64020283
               8.42550896                6.93468452               11.04455114                0.00010000               -0.50139611               -0.03418998                0.15697650                0.20164565                4.69398507                1.15353625
               9.42555966                6.91303724               10.97764943                0.00010000                0.07743266                0.08933160               -0.28414119                0.00132297                0.03480599                0.36040313
              10.42705762                6.89180541               10.91042398                0.00010000                0.14979516                0.22068431               -0.72702749               -0.02304219                0.02161311               -0.44578247
               0.49786596                8.11133314               11.07802416                0.00010000               -0.06469452               -0.15386388                0.47001828               -0.03426003                0.02112275                0.74434941
               1.49721902                8.08527157               10.99632360                0.00010000                0.00553917                0.00797260               -0.02215076               -0.01936595                0.08611136               -0.36997700
               2.49797675                8.05858948               10.91587696                0.00010000               -0.13645340                0.17646812               -0.51988654                0.30759041                5.00092700               -1.48722410
               3.49448995                8.03791817               10.93264460                0.00010000               -0.48186186                0.30451905               -0.37126815                0.63197308                9.86648940               -0.94295290
               4.48833951                8.01759922               10.95313193                0.00010000               -0.72390473                0.39168729               -0.24439030                0.57868349               10.00710131               -0.48517817
               5.48001185                7.99712662               10.97641019                0.00010000               -0.92227576                0.41446593               -0.12861829                0.46674481               10.12039440               -0.13746086
               6.46989399                7.97611248               11.00301400                0.00010000               -1.07000136                0.38281936                0.00213836                0.30462167               10.29901563                0.17802701
               7.45861183                7.95470424               11.03360719                0.00010000               -1.15525704                0.21414354                0.15947081                0.12841146               10.55383810                0.54703937
               8.44678885                7.93401067               11.06868341                0.00010000               -0.61257317               -0.09779914                0.34758789                0.00346927                5.33793648                1.07503130
               9.44636036                7.91367218               10.99769140                0.00010000                0.03083915                0.03739250               -0.12059449               -0.00177920                0.02339268                0.33289737
              10.44740564                7.89378655               10.92638481                0.00010000                0.10452716                0.17697973               -0.58293166               -0.02285617                0.01169455               -0.48164235
               0.52280228                9.11005802               11.06338295                0.00010000               -0.01873259               -0.10461560                0.32415862               -0.03075220                0.01265052                0.61746994
               1.52261496                9.08561068               10.97603123                0.00010000                0.05640161                0.06068430               -0.19749586               -0.01006187                0.10239593               -0.33792824
               2.52393032                9.06062695               10.89045365                0.00010000               -0.11282137                0.22679197               -0.72604438                0.29548351                5.79069907               -1.06808077
               3.52035853                9.04120756               10.91709107                0.00010000               -0.52420523                0.39483522               -0.42852795                0.45183375               11.27611725               -0.61704205
               4.51344621                9.02180344               10.94553389                0.00010000               -0.78758985                0.43309789               -0.26139948                0.36586821               11.21595686               -0.29431240
               5.50460673                9.00153543               10.97564341                0.00010000               -0.98844906                0.44826428               -0.10754103                0.27418999               11.23803534               -0.07939267
               6.49367723                8.98041296               11.00889541                0.00010000               -1.21745586                0.43858617                0.06433488                0.11786793               11.42763339                0.11038939
               7.48025762                8.95718345               11.04688868                0.00010000               -1.35334145                0.37081543                0.27120556               -0.13693535               11.81032752                0.33021536
               8.46661040                8.93272854               11.09160538                0.00010000               -0.72547076               -0.14956764                0.52393155               -0.25520279                6.06925213                0.74289693
               9.46574820                8.91378509               11.01773212                0.00010000               -0.01193247               -0.01336574                0.03506378               -0.00535403                0.05866454                0.29761112
              10.46637175                8.89534501               10.94210533                0.00010000                0.06235506                0.13782503               -0.44920052               -0.02384552               -0.02439832               -0.40649919
               0.54614560               10.10924082               11.04631066                0.00010000                0.03032511               -0.08171964                0.17443430                0.05877440                0.35261439                0.50253436
               1.54644885               10.08648525               10.95669273                0.00010000                0.10719689                0.08745738               -0.36262445                0.07761365                0.63699704               -0.29603069
               2.54828954               10.06312532               10.87277380                0.00010000               -0.20493558                0.24983644               -0.88312175                0.40240286                6.75918715               -0.69924577
               3.54235014               10.04581487               10.90586457                0.00010000               -0.64802676                0.46073121               -0.48664728                0.35595368               12.29632196               -0.28197723
               4.53532900               10.02626118               10.93973120                0.00010000               -0.77320018                0.44577384               -0.29544155                0.20213080               12.14888152               -0.10822457
               5.52688613               10.00609191               10.97483010                0.00010000               -0.93628355                0.45564786               -0.10677174                0.15909120               12.15332636                0.00609002
               6.51660333                9.98488420               11.01311931                0.00010000               -1.16642980                0.44712422                0.10429836                0.09404163               12.37608199                0.10659565
               7.50355754                9.96212054               11.05661879                0.00010000               -1.57600870                0.49370911                0.35470292               -0.36325176               12.89874334                0.23231234
               8.48508316                9.93101932               11.10897289                0.00010000               -0.99603622               -0.17092174                0.66116362               -0.58850846                6.94056031                0.47548911
               9.48363681                9.91340487               11.03698057                0.00010000               -0.06371291               -0.03802268                0.18206115                0.06504778                0.45179062                0.26417704
              10.48380890                9.89654305               10.95945276                0.00010000                0.01720839                0.11980448               -0.31078164                0.05753305                0.18077806               -0.32117024
               0.28561005                0.15912104               12.19683186                1.00000000               -0.38343659               -0.42385579                1.46661149               -0.07433168               -0.54290884                0.58789660
               1.28177569                0.11720303               12.14862509                1.00000000               -0.31628505               -0.33331495                1.16693147               -0.05651093               -0.66665344                0.01960161
               2.27928435                0.07505568               12.09783034                1.00000000               -0.17054277               -0.24531686                0.83967076               -0.04237762               -0.59993075               -0.18456779
               3.27836483                0.03388835               12.05088641                1.00000000                0.30977655               -0.18506898                0.54027058                0.42568860                0.37208724               -0.40451709
               4.28547988                0.00352643               12.01948708                0.00010000                0.48808420               -0.11540253                0.23727983               -0.01639390                1.00521611                0.04232697
               5.28812651               -0.01932972               11.98515900                0.00010000                0.17671457                0.00649346               -0.08600446                0.00463353                0.66320529                0.02829271
               6.28901417               -0.04107959               11.94719933                0.00010000                0.04697498                0.10830212               -0.42196313                0.00764374                0.51110525               -0.01829888
               7.28906601               -0.06481191               11.90994778                0.00010000                0.04735695                0.21422184               -0.76602766                0.06029821                0.27295263                0.03136089
               8.28996131               -0.09308357               11.86726521                1.00000000                0.20097983                0.33197529               -1.09159229                0.04450668               -0.17398420                0.34222693
               9.29308561               -0.12409485               11.82121898                1.00000000                0.38215156                0.40481346               -1.40538211               -0.05106061               -0.35824545                0.02087807
              10.29760434               -0.15525963               11.77501862                1.00000000                0.45187326                0.49134528               -1.70727004               -0.07947126               -0.37311481               -0.39561163
               0.32678474                1.15488248               12.17977393                1.00000000               -0.35414803               -0.40578582                1.33245581               -0.03128651               -0.06105652                0.80281132
               1.32324326                1.11386988               12.13113182                1.00000000               -0.31334099               -0.31121507                1.03428609               -0.01141488               -0.00542496                0.03359349
               2.32051792                1.07260251               12.08352763                1.00000000               -0.24284587               -0.22166143                0.72710941                0.02086411                0.22778382               -0.52002516
               3.31838634                1.03203766               12.03954409                0.00010000               -0.42964699               -0.17826721                0.42170026                0.58564128                1.48970181               -0.76661117
               4.31192498                1.00237240               12.01731154                0.00010000               -0.39552396                0.09524320                0.20055316                0.23582488                2.10932737                0.61202042
               5.31047586                0.98073521               11.98710506                0.00010000               -0.00466365                0.09140571               -0.09071381                0.36995441                1.48144320                0.26567230
               6.31183170                0.96000343               11.95287999                0.00010000                0.25975628               -0.01468996               -0.39823330                0.33966290                1.34060395               -0.36065622
               7.31567098                0.93733031               11.92019303                0.00010000                0.41080728                0.23433081               -0.69513504                0.43768004                1.25973901                0.55333513
               8.32004785                0.91023618               11.88463920                1.00000000                0.39960255                0.30681452               -0.97571646                0.16686467                0.63041616                0.45678481
               9.32366304                0.87995328               11.83945567                1.00000000                0.39632817                0.38755037               -1.27330075               -0.00165336                0.09165768                0.07453021
              10.32797441                0.84965382               11.79320202                1.00000000                0.43113767                0.46421582               -1.57468720               -0.03135981                0.03336131               -0.46887776
               0.36700951                2.15100532               12.16686975                1.00000000               -0.31821495               -0.37474010                1.22135375               -0.02931283                0.02947437                1.03639670
               1.36382736                2.11097873               12.11383416                1.00000000               -0.27378250               -0.27241724                0.90540084               -0.00732755                0.11701344                0.01462706
               2.36153386                2.07062245               12.06249404                1.00000000               -0.17598004               -0.17944750                0.60693928                0.02568593                0.69439500               -1.05850044
               3.36030776                2.03032300               12.02099295                0.00010000               -1.00175172               -0.16207241                0.29769673                0.89127235                3.51925883               -1.44770106
               4.34149882                2.00543129               12.02624249                0.00010000               -1.12065909                0.25142385                0.34571257                1.71602069                3.63810086               -0.99821229
               5.33789458                1.98249839               11.99371175                0.00010000               -0.11432445                0.05896011               -0.06828592                1.47712122                1.32762834               -0.47041380
               6.33921233                1.95862661               11.95172951                0.00010000                0.48461427               -0.10279654               -0.37337643                1.44706695                2.41470474                0.06827196
               7.34758686                1.93987471               11.94094699                0.00010000                0.57316481               -0.03911070               -0.61473090                1.03363186                2.69075449                0.41267647
               8.35067563                1.91305272               11.90438526                0.00010000                0.30240229                0.29074952               -0.83989968                0.25048297                0.97414537                0.85574392
               9.35363491                1.88365616               11.85887130                1.00000000                0.34502222                0.36853744               -1.13617682                0.04203248                0.35949092                0.37071287
              10.35757608                1.85402468               11.81005681                1.00000000                0.39411682                0.41357995               -1.45446269               -0.01724771                0.19156809               -0.48318967
               0.40625165                3.14738768               12.15430081                1.00000000               -0.27720762               -0.35019999                1.11024737               -0.02844281                0.02777961                1.04968288
               1.40347958                3.10842154               12.09587049                1.00000000               -0.22821452               -0.23662426                0.77160489               -0.00958219                0.02957445               -0.03146197
               2.40168736                3.06901356               12.03740663                0.00010000               -0.10383195               -0.12767607                0.43464840               -0.02609028                0.88387874               -1.20231863
               3.40140294                3.02879621               11.99602112                0.00010000               -0.38086810               -0.00577131                0.13366020                0.88534718                3.61516815               -1.53903236
               4.39407000                3.00740088               11.99237237                0.00010000               -0.72899856                0.16665879                0.02535700                2.22070862                5.03038845               -2.07804433
               5.38682297                2.98191442               11.98111474                0.00010000               -0.53366364                0.06149155               -0.11773121                1.97581263                4.31364997               -1.08484378
               6.38339673                2.95794750               11.96552306                0.00010000               -0.24527281                0.04078815               -0.31591178                1.82511530                3.97684115                0.35597584
               7.38191751                2.93654810               11.94871434                0.00010000               -0.10603345               -0.12063987               -0.49884473                1.33494125                3.76435731                0.22419139
               8.38127606                2.91605117               11.92979807                0.00010000                0.08071064                0.29041753               -0.68416257                0.57529045                2.21766327                1.56221632
               9.38353172                2.88732403               11.88310898                1.00000000                0.28081730                0.33509939               -0.96919869                0.05770509                0.41105560                0.56264126
              10.38689241                2.85792542               11.82810117                1.00000000                0.33606817                0.37805867               -1.32325477               -0.02701352               -0.00717425               -0.37728794
               0.44437292                4.14400132               12.14146789                1.00000000               -0.23630906               -0.32539406                0.99396589               -0.02944558                0.02658459                1.01513046
               1.44200983                4.10624625               12.07757640                1.00000000               -0.18677714               -0.19482341                0.63118029               -0.00917125                0.02514455               -0.05170965
               2.44063738                4.06806893               12.01357932                0.00010000               -0.11912286               -0.06672901                0.26733029                0.02834551                1.32590619               -1.06931127
               3.43962738                4.03020758               11.97568868                0.00010000               -0.39212956                0.34848957               -0.20054783                0.66430588                4.70528292               -0.41436528
               4.43279479                4.00876447               11.97908198                0.00010000               -0.63815831                0.16272832               -0.12364840                1.38957462                6.31474666               -0.75333887
               5.42686421                3.98372822               11.97586147                0.00010000               -0.58569148                0.19876251               -0.17819906                1.29944391                5.79891364               -0.50202709
               6.42108096                3.95944237               11.97104778                0.00010000               -0.53410991                0.18805324               -0.27031937                1.27729476                5.60488460                0.03355608
               7.41618201                3.93746191               11.96603979                0.00010000               -0.48377288                0.14632301               -0.37288223                1.26859734                5.63429618                0.74091772
               8.41140550                3.91886107               11.96364959                0.00010000               -0.16336237                0.22434210               -0.46637580                0.60385438                2.93961053                1.72778852
               9.41291476                3.89035814               11.90639337                1.00000000                0.22137651                0.26874848               -0.80085618                0.03495783                0.09745124                0.51202475
              10.41583303                3.86158586               11.84721477                1.00000000                0.29182687                0.34868592               -1.17948504               -0.02432384                0.00063181               -0.32925739
               0.48117289                5.14087979               12.12802867                1.00000000               -0.19443402               -0.29360925                0.86832420               -0.03277382                0.08019362                0.94947865
               1.47922855                5.10452507               12.05916349                0.00010000               -0.14399721               -0.14669706                0.48668723               -0.01498227                0.13084235               -0.13585072
               2.47829294                5.06767898               11.99123857                0.00010000               -0.26175174               -0.00814337                0.11710493                0.25428254                2.72315227               -1.12046722
               3.47399351                5.03576600               11.97422855                0.00010000               -0.49760477                0.46030177               -0.27509032                0.63761417                5.94614960                0.05956670
               4.46834085                5.01065545               11.97185895                0.00010000               -0.59297850                0.23331022               -0.20326964                1.01701268                6.82452273               -0.36187120
               5.46213394                4.98588967               11.97460903                0.00010000               -0.65659547                0.24160837               -0.19568464                0.98916928                7.01810656               -0.21095435
               6.45520894                4.96170856               11.97852641                0.00010000               -0.71315913                0.24508720               -0.21460290                0.98080932                7.03815790                0.19285610
               7.44787076                4.93947456               11.98410374                0.00010000               -0.73760125                0.20353374               -0.23878042                1.02725583                7.13654945                0.76576240
               8.44045691                4.92053802               11.99233249                0.00010000               -0.31823316                0.12144738               -0.25309292                0.51190846                3.62034166                1.39556999
               9.44150610                4.89269900               11.92966316                0.00010000                0.17467959                0.20239136               -0.63026452                0.02117176                0.04006366                0.48544688
              10.44395050                4.86489914               11.86630199                1.00000000                0.24444088                0.31079221               -1.02442569               -0.02413787                0.00746936               -0.34232536
               0.51642689                6.13812913               12.11371261                1.00000000               -0.15158881               -0.25069246                0.73382151               -0.03556096                0.06831160                0.86683060
               1.51491101                6.10331231               12.03915088                0.00010000               -0.09723962               -0.09480719                0.32235729               -0.02162821                0.16597419               -0.27653775
               2.51448210                6.06790606               11.96647640                0.00010000               -0.27539088                0.05410885               -0.07650435                0.34723485                3.72552665               -1.36556493
               3.50940319                6.03941361               11.96314763                0.00010000               -0.57353612                0.32041844               -0.20560260                0.77287936                7.40609326               -0.64376404
               4.50301138                6.01343067               11.96638568                0.00010000               -0.69043547                0.30858929               -0.21908594                0.87647196                7.87919277               -0.35704439
               5.49559448                5.98856039               11.97497204                0.00010000               -0.79495612                0.30703147               -0.18159799                0.82984324                8.18308792               -0.11125047
               6.48711226                5.96434412               11.98694008                0.00010000               -0.88484009                0.28692329               -0.14449470                0.76689347                8.35156793                0.26029936
               7.47789768                5.94153259               12.00169064                0.00010000               -0.93465155                0.20103095               -0.10370678                0.77769612                8.50974363                0.73769943
               8.46841923                5.92129002               12.01951522                0.00010000               -0.44602993                0.03812388               -0.05233616                0.37620559                4.30024388                1.28912347
               9.46897708                5.89440597               11.95244192                0.00010000                0.12653902                0.14482414               -0.45873024                0.00928532                0.04420964                0.43890665
              10.47095001                5.86780170               11.88514895                1.00000000                0.19729277                0.26894534               -0.87687667               -0.02225542                0.03640030               -0.39564300
               0.55009532                7.13586594               12.09844591                0.00010000               -0.10762653               -0.19947191                0.59172532               -0.03413349                0.03561669                0.79867984
               1.54901906                7.10262893               12.01789876                0.00010000               -0.04794961               -0.04354412                0.15451874               -0.02123225                0.13717967               -0.36314471
               2.54913633                7.06876115               11.93932917                0.00010000               -0.25462882                0.11291900               -0.27709615                0.36683780                4.53489286               -1.55542581
               3.54392648                7.04217437               11.94681897                0.00010000               -0.62064120                0.28754913               -0.27220714                0.78228174                8.92713027               -0.96202410
               4.53672351                7.01682723               11.95902775                0.00010000               -0.80545597                0.37250917               -0.22309779                0.79018852                9.21491490               -0.47424303
               5.52781736                6.99203030               11.97534972                0.00010000               -0.95744472                0.39396824               -0.15256439                0.68587361                9.44228628               -0.10744375
               6.51757461                6.96744703               11.99532206                0.00010000               -1.06692921                0.34793729               -0.06806884                0.55192130                9.63961457                0.25968815
               7.50647878                6.94349518               12.01884236                0.00010000               -1.12334878                0.20501022                0.02903475                0.48194753                9.84773286                0.69809038
               8.49510764                6.92130049               12.04604051                0.00010000               -0.56493291               -0.03147949                0.14157579                0.20602549                4.97565324                1.23236921
               9.49518012                6.89559549               11.97473770                0.00010000                0.08031499                0.09356002               -0.29797920                0.00269728                0.03573221                0.38685145
              10.49671394                6.87027804               11.90309420                0.00010000                0.15338169                0.22679510               -0.73980766               -0.02171318                0.02248351               -0.46346625
               0.58221826                8.13413970               12.08259809                0.00010000               -0.06271073               -0.14685429                0.44724507               -0.03178881                0.01907542                0.76474210
               1.58159115                8.10244142               11.99614689                0.00010000                0.00275773                0.00622892               -0.01415689               -0.01586118                0.08089904               -0.40168556
               2.58227341                8.07016444               11.91089638                0.00010000               -0.23042048                0.16547430               -0.48057547                0.37400313                5.30060694               -1.57733025
               3.57698274                8.04516460               11.92897110                0.00010000               -0.66570948                0.33529191               -0.36392428                0.74640429               10.47308315               -0.93708636
               4.56895922                8.02088086               11.95070093                0.00010000               -0.91452942                0.45033743               -0.24196924                0.67056585               10.60529345               -0.45353148
               5.55869215                7.99643976               11.97515123                0.00010000               -1.11367108                0.47860364               -0.12431972                0.52215393               10.72031515               -0.10130945
               6.54668580                7.97130286               12.00305363                0.00010000               -1.25044950                0.44375873                0.00490604                0.32375118               10.91469082                0.21553023
               7.53368316                7.94563279               12.03517286                0.00010000               -1.31231889                0.25591643                0.15405187                0.11837875               11.19014299                0.59261591
               8.52043943                7.92066043               12.07204690                0.00010000               -0.68148452               -0.09344194                0.32714070               -0.00843245                5.65756511                1.14145269
               9.52005347                7.89627717               11.99639986                0.00010000                0.03555998                0.04208353               -0.13853631               -0.00055755                0.02203277                0.35615192
              10.52115062                7.87233760               11.92047929                0.00010000                0.10971511                0.18511469               -0.60111013               -0.02121428                0.01374178               -0.49952516
               0.61285609                9.13292886               12.06650775                0.00010000               -0.01789993               -0.09847705                0.30337065               -0.02889477                0.00880759                0.63548169
               1.61267709                9.10275351               11.97413979                0.00010000                0.05185646                0.05671299               -0.18246305               -0.00806629                0.09515219               -0.36446272
               2.61389322                9.07207064               11.88348422                0.00010000               -0.22694726                0.21199071               -0.67377568                0.39313571                6.16631961               -1.12896731
               3.60813815                9.04888021               11.91271585                0.00010000               -0.75167789                0.47317317               -0.43719150                0.56497319               11.99158774               -0.59608566
               4.59885966                9.02583398               11.94287316                0.00010000               -1.01498563                0.51745948               -0.26673465                0.43823902               11.87958522               -0.27087391
               5.58783844                9.00160237               11.97457254                0.00010000               -1.20015302                0.52971156               -0.10662549                0.31058056               11.90330204               -0.05637896
               6.57485660                8.97632220               12.00954457                0.00010000               -1.41748245                0.51463041                0.06478332                0.12462749               12.11363235                0.13230093
               7.55948879                8.94861350               12.04955302                0.00010000               -1.52809989                0.43707471                0.26238134               -0.16532139               12.52504411                0.35384199
               8.54429461                8.91943165               12.09669472                0.00010000               -0.79984952               -0.14226383                0.49770495               -0.29000354                6.43069216                0.78195743
               9.54349180                8.89643716               12.01799142                0.00010000               -0.00629080               -0.00811750                0.01604609               -0.00512542                0.05724414                0.31227674
              10.54416879                8.87398034               11.93754918                0.00010000                0.06769937                0.14493878               -0.46688218               -0.02161417               -0.02369351               -0.42291212
               0.64199107               10.13217015               12.04795600                0.00010000                0.02969749               -0.07587041                0.15700631                0.05405065                0.35777475                0.51763582
               1.64228805               10.10357568               11.95318202                0.00010000                0.10091771                0.08221779               -0.34176378                0.07280006                0.64984077               -0.31670521
               2.64400943               10.07440425               11.86426180                0.00010000               -0.38845912                0.23336123               -0.82568066                0.56423910                7.20603874               -0.73428925
               3.63451886               10.05462806               11.90082659                0.00010000               -0.95037900                0.57478508               -0.50575711                0.47936125               13.09678922               -0.26730510
               4.62500185               10.03123005               11.93670397                0.00010000               -1.00516605                0.53960645               -0.30405846                0.23451451               12.87413620               -0.09626900
               5.61441554               10.00703399               11.97376128                0.00010000               -1.14173139                0.54316194               -0.10650985                0.17598190               12.88856826                0.01872432
               6.60216722                9.98159547               12.01416591                0.00010000               -1.35741282                0.52732664                0.10431716                0.09807613               13.13723206                0.11942190
               7.58726729                9.95437428               12.06011000                0.00010000               -1.76757575                0.57607800                0.34426925               -0.41116597               13.69383193                0.24687646
               8.56681570                9.91781515               12.11541832                0.00010000               -1.09325018               -0.16165017                0.63153829               -0.66086348                7.35157102                0.49466199
               9.56540228                9.89611482               12.03867947                0.00010000               -0.05918624               -0.03223337                0.15928188                0.06210986                0.46800404                0.27282680
              10.56563198                9.87523638               11.95628181                0.00010000                0.02296948                0.12560408               -0.32833495                0.05847437                0.19155921               -0.33204047
               0.32971484                0.18288320               13.21139222                1.00000000               -0.37834048               -0.41705337                1.44682240               -0.07385533               -0.57563227                0.61788732
               1.32593143                0.13558893               13.16022549                1.00000000               -0.31224346               -0.32934335                1.15397425               -0.05708025               -0.71250618                0.02613789
               2.32346997                0.08807495               13.10622747                1.00000000               -0.16795123               -0.24401864                0.83812984               -0.04191201               -0.64643686               -0.18612665
               3.32257241                0.04160131               13.05632564                1.00000000                0.31248804               -0.18622899                0.54493142                0.44335947                0.33281476               -0.43914318
               4.32971973                0.00637794               13.02186880                0.00010000                0.48336696               -0.10250716                0.23953515               -0.02422078                0.95454447                0.05646367
               5.33223975               -0.02093670               12.98432989                0.00010000                0.16763788                0.01036980               -0.07980570                0.00656914                0.60157297                0.03514256
               6.33307249               -0.04708892               12.94304516                0.00010000                0.04345381                0.10754839               -0.40919935                0.00868678                0.44012454               -0.02335965
               7.33310882               -0.07509098               12.90237535                0.00010000                0.04360534                0.21095025               -0.74851497                0.05788422                0.20713217                0.03325564
               8.33394459               -0.10755730               12.85644479                1.00000000                0.19399743                0.32768418               -1.07230299                0.04378153               -0.22273205                0.35395618
               9.33698877               -0.14279279               12.80726881                1.00000000                0.37454015                0.39941310               -1.38437928               -0.05089072               -0.39410847                0.01935071
              10.34143540               -0.17821378               12.75806085                1.00000000                0.44466240                0.48451557               -1.68386487               -0.07859118               -0.40286028               -0.42560759
               0.37627055                1.17871266               13.19300154                1.00000000               -0.35057959               -0.39802298                1.31429510               -0.03160624               -0.06768589                0.84306033
               1.37276475                1.13229550               13.14141373                1.00000000               -0.31129461               -0.30705326                1.02261750               -0.01243634               -0.01654101                0.04157743
               2.37004466                1.08563476               13.09078142                1.00000000               -0.24551230               -0.22054614                0.72313850                0.02241174                0.21375270               -0.52427112
               3.36785451                1.03973902               13.04378561                0.00010000               -0.46490643               -0.17838947                0.42502809                0.61785487                1.51664454               -0.80321324
               4.36074653                1.00535287               13.01930961                0.00010000               -0.44078205                0.08857442                0.19914869                0.15758203                2.15196562                0.69521374
               5.35903887                0.97916699               12.98621128                0.00010000               -0.02550197                0.08966793               -0.08826562                0.33260219                1.48872922                0.28280292
               6.36023649                0.95398657               12.94894285                0.00010000                0.24414954               -0.00432890               -0.38975835                0.31666991                1.34696688               -0.36471569
               7.36392186                0.92701853               12.91330656                0.00010000                0.39984137                0.22457211               -0.68246012                0.42320387                1.27677426                0.55920909
               8.36823332                0.89571954               12.87495094                1.00000000                0.39431233                0.30316458               -0.96207206                0.16723067                0.64318324                0.47810867
               9.37180810                0.86120134               12.82680264                1.00000000                0.39185773                0.38284234               -1.25734334               -0.00151534                0.09395368                0.07552518
              10.37607047                0.82663138               12.77754691                1.00000000                0.42623677                0.45736399               -1.55622160               -0.03084898                0.03361089               -0.50482152
               0.42191704                2.17492274               13.17898642                1.00000000               -0.31564373               -0.36562294                1.20316225               -0.02820320                0.02960201                1.08670311
               1.41876061                2.12944787               13.12283413                1.00000000               -0.27211826               -0.26837394                0.89489909               -0.00537424                0.12500485                0.02163229
               2.41647468                2.08366403               13.06854118                1.00000000               -0.17746026               -0.18087630                0.60200239                0.03434048                0.70516119               -1.08990606
               3.41521140                2.03803352               13.02397454                0.00010000               -1.15156404               -0.16232826                0.29801042                0.92036095                3.68264897               -1.50495652
               4.39344340                2.00814943               13.02929196                0.00010000               -1.24766546                0.25031555                0.28003896                1.78247209                3.82859603               -1.03727382
               5.39025809                1.98085665               12.99297574                0.00010000               -0.09445232                0.04275873               -0.07652870                1.54177511                1.34984143               -0.47182651
               6.39155435                1.95282450               12.94802767                0.00010000                0.47909173               -0.11388347               -0.36817325                1.47412618                2.50181053                0.07856305
               7.39983993                1.92940047               12.93481836                0.00010000                0.57760220               -0.05521977               -0.61045801                1.04905673                2.79195239                0.44485117
               8.40310640                1.89850599               12.89602884                0.00010000                0.31033517                0.28942364               -0.83191381                0.26296854                1.04456418                0.89826201
               9.40604663                1.86486405               12.84756811                1.00000000                0.34259735                0.36537172               -1.12482425                0.04433421                0.38297742                0.38927738
              10.40995834                1.83093350               12.79558334                1.00000000                0.39117124                0.40703280               -1.44047363               -0.01618448                0.20374941               -0.51869611
               0.46665623                3.17140020               13.16530387                1.00000000               -0.27402482               -0.34097109                1.09159764               -0.02582282                0.02921606                1.09650609
               1.46391598                3.12692802               13.10354028                1.00000000               -0.22552088               -0.23360869                0.76250733               -0.00631748                0.03149757               -0.03021589
               2.46214581                3.08201724               13.04176246                0.00010000               -0.10698269               -0.13166287                0.43559001               -0.01275952                0.90271362               -1.25541954
               3.46177633                3.03649246               12.99737782                0.00010000               -0.42864859               -0.03083517                0.13645167                0.94500989                3.74374492               -1.69452678
               4.45357284                3.01035918               12.99257156                0.00010000               -0.82885172                0.17494531                0.01651007                2.39129823                5.24603186               -2.25658911
               5.44519929                2.98002217               12.97989014                0.00010000               -0.61988192                0.05545799               -0.12539733                2.09256843                4.50557495               -1.12725767
               6.44117520                2.95170890               12.96238581                0.00010000               -0.29888927                0.01497761               -0.31174313                1.91385379                4.14938906                0.38187060
               7.43922151                2.92591413               12.94376721                0.00010000               -0.15730499               -0.12807897               -0.49131447                1.40382526                3.93857207                0.28283230
               8.43802910                2.90150801               12.92299845                0.00010000                0.05228860                0.29068126               -0.67726541                0.59980502                2.33661148                1.64374041
               9.44026728                2.86850877               12.87345760                1.00000000                0.27893951                0.33267377               -0.96169341                0.06060430                0.44648408                0.59555108
              10.44360789                2.83477203               12.81491789                1.00000000                0.33406126                0.37318257               -1.31401589               -0.02608202               -0.00535143               -0.39956948
               0.51034496                4.16810332               13.15130353                1.00000000               -0.23277338               -0.31663584                0.97446337               -0.02690621                0.02777957                1.05423830
               1.50801723                4.12477569               13.08385174                1.00000000               -0.18449540               -0.19275331                0.62383277               -0.00631076                0.02530117               -0.05570151
               2.50665505                4.08103077               13.01628367                0.00010000               -0.11237833               -0.07092848                0.27212105                0.02110035                1.27490785               -1.11149045
               3.50576966                4.03741682               12.97379870                0.00010000               -0.44576996                0.32505956               -0.17621611                0.70265767                4.86792545               -0.54335567
               4.49773965                4.01164833               12.97782312                0.00010000               -0.75049579                0.16105075               -0.12878052                1.47081229                6.69175925               -0.83074699
               5.49075974                3.98196581               12.97408838                0.00010000               -0.69000936                0.21084383               -0.17696382                1.36397200                6.10174273               -0.53369846
               6.48393946                3.95312406               12.96837493                0.00010000               -0.63212133                0.19112957               -0.26485239                1.32763350                5.88535219                0.05687469
               7.47811732                3.92683889               12.96234503                0.00010000               -0.57158044                0.15222353               -0.36674124                1.31563167                5.91199236                0.80513772
               8.47250786                3.90431961               12.95899156                0.00010000               -0.20613089                0.22468628               -0.46557542                0.62617590                3.10147956                1.83320592
               9.47399470                3.87151753               12.89840278                1.00000000                0.22011647                0.26714064               -0.79835545                0.03630895                0.11933550                0.54443077
              10.47691019                3.83839715               12.83544237                1.00000000                0.29154867                0.34730288               -1.17635017               -0.02312419                0.00063159               -0.34011481
               0.55277335                5.16506749               13.13660279                1.00000000               -0.19110391               -0.28496470                0.84791223               -0.03046865                0.08624186                0.97950033
               1.55086231                5.12307295               13.06400289                0.00010000               -0.14233300               -0.14514278                0.48093189               -0.01236039                0.14241215               -0.15156633
               2.54992669                5.08059867               12.99246328                0.00010000               -0.28251981               -0.01262914                0.12585648                0.25303732                2.70650578               -1.17500517
               3.54521192                5.04299365               12.97113722                0.00010000               -0.57433006                0.48213841               -0.34450928                0.64219843                6.18913560                0.12045746
               4.53844009                5.01358019               12.96980343                0.00010000               -0.71044534                0.24243792               -0.20969929                1.07716271                7.28463518               -0.36972877
               5.53100301                4.98423904               12.97267210                0.00010000               -0.77926462                0.25733913               -0.19311427                1.02398653                7.41475409               -0.20719079
               6.52285480                4.95553149               12.97641471                0.00010000               -0.83322139                0.26344429               -0.20869859                1.00887112                7.41566545                0.22605656
               7.51433858                4.92895860               12.98173683                0.00010000               -0.84904101                0.21740164               -0.23511692                1.05890957                7.51415537                0.83192458
               8.50587398                4.90600174               12.98978099                0.00010000               -0.37113297                0.12246526               -0.25777368                0.52656644                3.82119335                1.49124914
               9.50691592                4.87385159               12.92332002                0.00010000                0.17560934                0.20358091               -0.63804486                0.02134530                0.05335774                0.52041792
              10.50938616                4.84171809               12.85601924                1.00000000                0.24702424                0.31353203               -1.03188287               -0.02302107                0.01362589               -0.35087032
               0.59372466                6.16240402               13.12093904                1.00000000               -0.14858178               -0.24220393                0.71315679               -0.03323711                0.06845868                0.88886856
               1.59223884                6.12187284               13.04235971                0.00010000               -0.09647769               -0.09403183                0.31903927               -0.01845979                0.17185140               -0.30327367
               2.59179510                6.08077819               12.96579210                0.00010000               -0.33033683                0.04852137               -0.06277014                0.37314048                3.86006898               -1.44417019
               3.58563210                6.04705959               12.96099515                0.00010000               -0.68787966                0.35297881               -0.23387657                0.80399115                7.74735550               -0.54921313
               4.57803751                6.01649709               12.96415865                0.00010000               -0.81719615                0.32946930               -0.22954015                0.92307330                8.32052780               -0.32067581
               5.56928818                5.98711260               12.97317755                0.00010000               -0.93200898                0.33395024               -0.17917792                0.86146740                8.64666997               -0.08144395
               6.55939733                5.95839294               12.98552452                0.00010000               -1.02314608                0.31526467               -0.13973957                0.78407945                8.81209447                0.30341931
               7.54882526                5.93118692               13.00066021                0.00010000               -1.06255641                0.22107830               -0.10287594                0.79305948                8.97414797                0.80170702
               8.53814620                5.90676892               13.01894471                0.00010000               -0.50600015                0.03992400               -0.06201247                0.38274693                4.54106824                1.37463956
               9.53870525                5.87558915               12.94779963                0.00010000                0.12852777                0.14823740               -0.47008891                0.01017853                0.05249706                0.47179629
              10.54071676                5.84466779               12.87630505                1.00000000                0.20115028                0.27438306               -0.89115392               -0.02172967                0.03855879               -0.40895286
               0.63317098                7.16022341               13.10425388                0.00010000               -0.10520271               -0.19189424                0.57177763               -0.03184886                0.03427972                0.81581530
               1.63211895                7.12119232               13.01945123                0.00010000               -0.04841143               -0.04380045                0.15541042               -0.01772225                0.13810002               -0.39143177
               2.63220275                7.08156909               12.93667987                0.00010000               -0.32730589                0.10548142               -0.25571789                0.41152408                4.74693397               -1.63765549
               3.62557283                7.05005322               12.94410691                0.00010000               -0.76771016                0.31099876               -0.27615440                0.85577217                9.38505761               -0.95287059
               4.61684855                7.02016958               12.95680167                0.00010000               -0.96181636                0.40930398               -0.22540174                0.85462830                9.71701521               -0.43485739
               5.60633651                6.99091805               12.97384461                0.00010000               -1.11932419                0.43825095               -0.15024776                0.72222435                9.96423464               -0.06812745
               6.59446206                6.96183678               12.99466212                0.00010000               -1.22563568                0.39038174               -0.06499855                0.56154842               10.17309617                0.30462853
               7.58182379                6.93338017               13.01912415                0.00010000               -1.26676870                0.23294870                0.02685225                0.47797964               10.39188742                0.75631555
               8.56912669                6.90680022               13.04738265                0.00010000               -0.63015858               -0.02916997                0.12734881                0.20015621                5.25210566                1.31032891
               9.56922062                6.87681633               12.97168985                0.00010000                0.08337969                0.09761748               -0.31205014                0.00344557                0.03830114                0.41316210
              10.57079428                6.84720575               12.89562783                0.00010000                0.15736615                0.23366358               -0.75502244               -0.02081571                0.02404059               -0.48004723
               0.67114986                8.15856614               13.08696906                0.00010000               -0.06111570               -0.14068293                0.42893883               -0.02976203                0.01737476                0.78067431
               1.67053871                8.12099683               12.99604046                0.00010000                0.00074054                0.00469910               -0.00811076               -0.01278725                0.07654071               -0.42973512
               2.67116468                8.08288781               12.90626545                0.00010000               -0.31958238                0.15565461               -0.44949848                0.43803149                5.57322054               -1.65466892
               3.66414706                8.05327956               12.92536612                0.00010000               -0.84497131                0.36885670               -0.35959189                0.85119328               11.04178957               -0.93386782
               4.65426525                8.02468317               12.94829254                0.00010000               -1.10407986                0.51066726               -0.24077754                0.74653655               11.18573927               -0.42459197
               5.64206546                7.99587762               12.97392380                0.00010000               -1.30495352                0.54398755               -0.12214352                0.55911363               11.30788151               -0.06674421
               6.62816618                7.96620058               13.00311212                0.00010000               -1.43220253                0.50549570                0.00600360                0.32378080               11.51738962                0.25233103
               7.61342141                7.93584589               13.03668823                0.00010000               -1.47265094                0.29714960                0.14885215                0.08847483               11.81169417                0.63776201
               8.59871316                7.90618552               13.07522622                0.00010000               -0.75263896               -0.09019734                0.30938313               -0.03226213                5.97144452                1.20736374
               9.59836863                7.87754150               12.99492068                0.00010000                0.04042242                0.04673421               -0.15711901               -0.00132298                0.02079602                0.37966413
              10.59952161                7.84934106               12.91436261                0.00010000                0.11529754                0.19392439               -0.62234168               -0.02063972                0.01381133               -0.51798030
               0.70771436                9.15740975               13.06945036                0.00010000               -0.01728273               -0.09345453                0.28714297               -0.02738648                0.00568529                0.64995536
               1.70754153                9.12128630               12.97238197                0.00010000                0.04831445                0.05349270               -0.17065695               -0.00632052                0.08949286               -0.38746610
               2.70868065                9.08468219               12.87697814                0.00010000               -0.33700929                0.19982799               -0.63257717                0.48725630                6.50462242               -1.18017140
               3.70080134                9.05743036               12.90834724                0.00010000               -0.97497103                0.54838633               -0.43386536                0.66987159               12.66120999               -0.58291605
               4.68918123                9.03038292               12.94019919                0.00010000               -1.23999848                0.59955087               -0.26640904                0.49896134               12.52880498               -0.25249932
               5.67600137                9.00179780               12.97351090                0.00010000               -1.41059121                0.61056503               -0.10559403                0.33469341               12.55751712               -0.03591842
               6.66096940                8.97194670               13.01019108                0.00010000               -1.61965140                0.59146884                0.06407183                0.11792203               12.78591054                0.15296625
               7.64360835                8.93932316               13.05213631                0.00010000               -1.70917784                0.50491148                0.25435932               -0.20950345               13.22376608                0.37695955
               8.62678584                8.90499627               13.10155948                0.00010000               -0.87848631               -0.13600782                0.47662580               -0.33700995                6.78763556                0.82119720
               9.62603862                8.87775102               13.01805305                0.00010000               -0.00017440               -0.00280934               -0.00461972               -0.00736347                0.05777602                0.32905604
              10.62678236                8.85108424               12.93276768                0.00010000                0.07437365                0.15479593               -0.49192869               -0.02098899               -0.02414144               -0.43915179
               0.74284904               10.15669705               13.04945078                0.00010000                0.02908212               -0.07127043                0.14376857                0.05043188                0.36203772                0.53002645
               1.74313986               10.12206668               12.94985745                0.00010000                0.09583508                0.07803836               -0.32515549                0.06919959                0.66127649               -0.33447411
               2.74476574               10.08688437               12.85626019                0.00010000               -0.56480533                0.22021876               -0.78016956                0.71753996                7.60688706               -0.76343789
               3.73184375               10.06424729               12.89574943                0.00010000               -1.24443538                0.68169308               -0.50391348                0.59373181               13.84956479               -0.25823039
               4.71987703               10.03667419               12.93365003                0.00010000               -1.23240972                0.62912641               -0.30380128                0.26166225               13.58853079               -0.08785522
               5.70719556               10.00808892               12.97269991                0.00010000               -1.34388871                0.62911158               -0.10526057                0.18720689               13.61332284                0.02897918
               6.69299926                9.97802995               13.01520566                0.00010000               -1.55068964                0.60832582                0.10313388                0.09574627               13.88306800                0.13053754
               7.67618177                9.94594412               13.06350418                0.00010000               -1.97270779                0.66209636                0.33448308               -0.47088731               14.46995650                0.25995179
               8.65354510                9.90346536               13.12160365                0.00010000               -1.20241849               -0.15309070                0.60626557               -0.74701470                7.75862699                0.51511312
               9.65213340                9.87748531               13.04016621                0.00010000               -0.05548581               -0.02657075                0.13737895                0.05805863                0.49083274                0.28444871
              10.65243539                9.85243698               12.95288606                0.00010000                0.03019906                0.13527437               -0.35646968                0.06047035                0.20675609               -0.34363069
               0.37643086                0.20826013               14.22576831                1.00000000               -0.37405498               -0.41106565                1.42947082               -0.07350342               -0.60544929                0.64584885
               1.37269031                0.15534931               14.17170457                1.00000000               -0.30877018               -0.32565246                1.14214777               -0.05752124               -0.75372033                0.03188321
               2.37025546                0.10222523               14.11459294                1.00000000               -0.16552616               -0.24218587                0.83422084               -0.04162439               -0.68836028               -0.18847902
               3.36937979                0.05018556               14.06178504                1.00000000                0.31555352               -0.18610619                0.54556990                0.45856910                0.29377761               -0.47072192
               4.37656653                0.00977409               14.02427778                0.00010000                0.48009177               -0.09205665                0.24219480               -0.03155269                0.90212429                0.07055443
               5.37898162               -0.02238966               13.98356289                0.00010000                0.16023388                0.01350810               -0.07387601                0.00774453                0.54047638                0.04230671
               6.37977120               -0.05334217               13.93901534                0.00010000                0.04137007                0.10687794               -0.39745971                0.00947817                0.37073787               -0.02813598
               7.37980902               -0.08600922               13.89497748                0.00010000                0.04210034                0.20807057               -0.73165376                0.05520659                0.14139587                0.03573120
               8.38061321               -0.12301675               13.84581915                1.00000000                0.18891777                0.32310580               -1.05307526                0.04190784               -0.27289220                0.36569265
               9.38358738               -0.16277551               13.79353140                1.00000000                0.36749196                0.39399928               -1.36317619               -0.05048212               -0.43090801                0.01814947
              10.38796305               -0.20274391               13.74134133                1.00000000                0.43756710                0.47788093               -1.65995541               -0.07733676               -0.43298646               -0.45540572
               0.42860665                1.20414948               14.20605983                1.00000000               -0.34740937               -0.39115425                1.29837834               -0.03190513               -0.07353750                0.88060827
               1.42513255                1.15209279               14.15158417                1.00000000               -0.30927773               -0.30322470                1.01179582               -0.01318616               -0.02637124                0.04889631
               2.42242109                1.09980337               14.09799040                1.00000000               -0.24707533               -0.21909668                0.71823702                0.02364619                0.20117616               -0.52926761
               3.42019104                1.04832450               14.04804466                0.00010000               -0.49412394               -0.17769484                0.42587613                0.64401678                1.54011091               -0.83791338
               4.41253861                1.00885353               14.02129452                0.00010000               -0.47869213                0.08248860                0.19788898                0.09619676                2.19021227                0.75652959
               5.41061720                0.97774542               13.98533975                0.00010000               -0.04314228                0.08863370               -0.08627195                0.30235742                1.49589105                0.29837522
               6.41167577                0.94772660               13.94508482                0.00010000                0.22905884                0.00485427               -0.38249745                0.29803964                1.35359689               -0.36816097
               7.41519838                0.91607148               13.90654383                0.00010000                0.38698332                0.21601529               -0.67065139                0.40517063                1.29257016                0.56442731
               8.41941543                0.88021431               13.86539776                1.00000000                0.38738796                0.29936039               -0.94888170                0.16484757                0.65471029                0.49959330
               9.42294614                0.84116448               13.81430880                1.00000000                0.38713277                0.37811292               -1.24163389               -0.00134173                0.09592853                0.07725283
              10.42715809                0.80203490               13.76207759                1.00000000                0.42119495                0.45118487               -1.53770995               -0.03008149                0.03374108               -0.54018133
               0.47990613                2.20043705               14.19093299                1.00000000               -0.31334358               -0.35743923                1.18716530               -0.02739738                0.03006793                1.13332933
               1.47677270                2.14928482               14.13173214                1.00000000               -0.27047295               -0.26465878                0.88501809               -0.00376804                0.13243333                0.02817276
               2.47449667                2.09784329               14.07453409                1.00000000               -0.17813662               -0.18203441                0.59620163                0.04149271                0.71450219               -1.11871947
               3.47320996                2.04663166               14.02695315                0.00010000               -1.27135653               -0.16214909                0.29693961                0.94291306                3.81710160               -1.55964875
               4.44906954                2.01142387               14.03184327                0.00010000               -1.35271349                0.24422027                0.24015307                1.83455280                4.00084334               -1.07211812
               5.44615569                1.97938301               13.99218118                0.00010000               -0.08318050                0.02556023               -0.08113928                1.59170290                1.38785379               -0.47381790
               6.44740593                1.94675491               13.94436605                0.00010000                0.46345213               -0.12444755               -0.36493323                1.48798725                2.58421830                0.09268166
               7.45542474                1.91831108               13.92873783                0.00010000                0.57056144               -0.06967066               -0.60566053                1.05467403                2.89292116                0.48064085
               8.45881716                1.88297046               13.88774698                0.00010000                0.31576086                0.28744809               -0.82491190                0.26890682                1.11560662                0.94293874
               9.46173995                1.84478675               13.83637482                1.00000000                0.34017181                0.36179483               -1.11422937                0.04525776                0.40711059                0.40947866
              10.46562060                1.80627978               13.78124734                1.00000000                0.38806438                0.40200498               -1.42703896               -0.01536155                0.21615241               -0.55339940
               0.53036315                3.19700069               14.17613276                1.00000000               -0.27122075               -0.33249403                1.07529548               -0.02380965                0.03108218                1.13897128
               1.52765095                3.14679961               14.11112064                1.00000000               -0.22295253               -0.23076039                0.75384942               -0.00374957                0.03423850               -0.02930732
               2.52590410                3.09616268               14.04611843                0.00010000               -0.10911061               -0.13524983                0.43517346               -0.00130966                0.91871368               -1.30369914
               3.52546873                3.04508152               13.99875015                0.00010000               -0.47128914               -0.05252984                0.13724595                0.99058603                3.86082874               -1.83513896
               4.51647832                3.01373793               13.99270257                0.00010000               -0.91742588                0.17468949                0.01151544                2.52229283                5.44997831               -2.40435710
               5.50712022                2.97825662               13.97860680                0.00010000               -0.69854404                0.04446419               -0.12980817                2.18456447                4.69486292               -1.16046875
               6.50250744                2.94523765               13.95928820                0.00010000               -0.35219500               -0.01019718               -0.30799908                1.97734374                4.32212232                0.41307051
               7.50007632                2.91467807               13.93888805                0.00010000               -0.20947686               -0.13580199               -0.48528916                1.45530528                4.10924036                0.34769581
               8.49831790                2.88596327               13.91625276                0.00010000                0.02328243                0.28860983               -0.67298673                0.61412453                2.45426874                1.72838074
               9.50054196                2.84840038               13.86387511                1.00000000                0.27734437                0.32987911               -0.95539735                0.06112154                0.48203787                0.63048883
              10.50386479                2.81007500               13.80182086                1.00000000                0.33228248                0.37012122               -1.30585356               -0.02524448               -0.00353762               -0.42192536
               0.57983209                4.19378717               14.16095716                1.00000000               -0.22963780               -0.30832033                0.95745730               -0.02503670                0.02953620                1.08828958
               1.57753572                4.14466961               14.09005306                1.00000000               -0.18217584               -0.19069189                0.61636921               -0.00417561                0.02624260               -0.06017227
               2.57618858                4.09513830               14.01902175                0.00010000               -0.10446427               -0.07461200                0.27453059                0.01480407                1.23029053               -1.15002045
               3.57544643                4.04558107               13.97216436                0.00010000               -0.49241429                0.29485905               -0.15089263                0.73733459                5.01316651               -0.70534079
               4.56634029                4.01491766               13.97650637                0.00010000               -0.85495845                0.15937062               -0.13388022                1.53557894                7.04584200               -0.90254288
               5.55834726                3.98027229               13.97232219                0.00010000               -0.79044663                0.22000309               -0.17629774                1.41654215                6.40178241               -0.55600313
               6.55053136                3.94655097               13.96575073                0.00010000               -0.72710166                0.19212215               -0.26049162                1.36364124                6.16215559                0.08588553
               7.54380523                3.91559504               13.95870497                0.00010000               -0.65770098                0.15598960               -0.36207168                1.34514797                6.18424364                0.87320531
               8.53737734                3.88874265               13.95433808                0.00010000               -0.24772869                0.22232862               -0.46576140                0.63844873                3.26125889                1.94027952
               9.53885066                3.85138433               13.89042626                1.00000000                0.21945693                0.26550661               -0.79732328                0.03662950                0.14178219                0.57664124
              10.54176648                3.81368221               13.82368776                1.00000000                0.29158233                0.34720299               -1.17478957               -0.02222255                0.00041465               -0.35292801
               0.62809753                5.19083429               14.14498692                1.00000000               -0.18812247               -0.27658743                0.83018147               -0.02871862                0.09234411                1.00445914
               1.62621630                5.14298578               14.06878213                0.00010000               -0.14043994               -0.14355586                0.47439661               -0.01022931                0.15418145               -0.16736504
               2.62528873                5.09467044               13.99375570                0.00010000               -0.28901192               -0.01661201                0.13052443                0.24261886                2.64501218               -1.22508260
               3.62043607                5.05097870               13.96733836                0.00010000               -0.63950302                0.49392959               -0.40949233                0.63961121                6.41135075                0.15393919
               4.61249867                5.01692535               13.96766496                0.00010000               -0.83091594                0.25506341               -0.21867346                1.12886178                7.76817708               -0.37850261
               5.60381775                4.98265668               13.97074674                0.00010000               -0.90205775                0.27433513               -0.19270919                1.04847467                7.80877991               -0.19930360
               6.59445751                4.94908010               13.97435244                0.00010000               -0.95150782                0.28070647               -0.20462732                1.02406499                7.78798391                0.26335468
               7.58478759                4.91779786               13.97940140                0.00010000               -0.95799641                0.22921801               -0.23281519                1.07424797                7.88388614                0.90092573
               8.57529759                4.89040984               13.98717702                0.00010000               -0.42262969                0.12192467               -0.26322611                0.53182435                4.01783783                1.58811779
               9.57633500                4.85371051               13.91690227                0.00010000                0.17634995                0.20438707               -0.64517150                0.02126232                0.06689712                0.55490247
              10.57882459                4.81701906               13.84566433                1.00000000                0.24895888                0.31659234               -1.03844659               -0.02195270                0.02056448               -0.36149868
               0.67495474                6.18825542               14.12797574                1.00000000               -0.14597651               -0.23410266                0.69565315               -0.03125768                0.06845038                0.90647039
               1.67349498                6.14179850               14.04553166                0.00010000               -0.09533532               -0.09331172                0.31496980               -0.01553019                0.17759357               -0.32882331
               2.67304803                6.09480606               13.96522100                0.00010000               -0.37556130                0.04321283               -0.05375975                0.38958802                3.96235517               -1.51580685
               3.66598375                6.05545966               13.95847010                0.00010000               -0.79042472                0.38836482               -0.27936244                0.81413211                8.06536536               -0.42435446
               4.65723954                6.02001892               13.96179488                0.00010000               -0.94108730                0.35354238               -0.24509032                0.95633893                8.76993967               -0.28167225
               5.64716200                5.98575900               13.97138848                0.00010000               -1.06840293                0.36324076               -0.18000854                0.87850164                9.10965232               -0.04940977
               6.63587148                5.95216510               13.98414528                0.00010000               -1.16007791                0.34359524               -0.13720803                0.78599449                9.26633298                0.34888843
               7.62396045                5.92017940               13.99963312                0.00010000               -1.18851534                0.23978057               -0.10340758                0.79122250                9.42933531                0.86766774
               8.61210118                5.89118114               14.01827497                0.00010000               -0.56468804                0.04078630               -0.07217500                0.37895705                4.77776745                1.46137773
               9.61266669                5.85547207               13.94304014                0.00010000                0.13045825                0.15135826               -0.48160835                0.00994409                0.06077500                0.50592667
              10.61471034                5.82001406               13.86732587                1.00000000                0.20436550                0.28002414               -0.90411020               -0.02109193                0.03998325               -0.42241012
               0.72038622                7.18615223               14.10988146                0.00010000               -0.10311596               -0.18493591                0.55530790               -0.02985781                0.03311022                0.82921531
               1.71935506                7.14111954               14.02100697                0.00010000               -0.04834473               -0.04412570                0.15520946               -0.01434657                0.13921894               -0.41746026
               2.71941933                7.09553470               13.93421481                0.00010000               -0.39246113                0.09833709               -0.23972857                0.44952897                4.93566019               -1.71096815
               3.71150584                7.05874599               13.94129589                0.00010000               -0.90466096                0.33936249               -0.29252331                0.91345929                9.81676228               -0.92492160
               4.70132611                7.02399619               13.95451971                0.00010000               -1.11321169                0.44862847               -0.23410063                0.90261498               10.21268546               -0.38848686
               5.68924161                6.98992150               13.97234477                0.00010000               -1.27845553                0.48397957               -0.15129546                0.74120044               10.48092480               -0.02713268
               6.67575700                6.95595200               13.99402209                0.00010000               -1.38228073                0.43277131               -0.06415473                0.55348286               10.69909964                0.35076993
               7.66159599                6.92259347               14.01937941                0.00010000               -1.40864708                0.25982360                0.02339822                0.45580339               10.92607746                0.81595881
               8.64758406                6.89122557               14.04858749                0.00010000               -0.69475123               -0.02751356                0.11345516                0.18394477                5.52456833                1.38985298
               9.64770097                6.85673768               13.96849670                0.00010000                0.08673634                0.10175900               -0.32705925                0.00301467                0.04154343                0.44077332
              10.64931878                6.82261954               13.88799375                0.00010000                0.16178159                0.24120427               -0.77214338               -0.02018177                0.02540827               -0.49670590
               0.76442297                8.18455670               14.09117687                0.00010000               -0.05973854               -0.13529928                0.41416379               -0.02805380                0.01598986                0.79341774
               1.76382558                8.14091598               13.99598468                0.00010000               -0.00054014                0.00338232               -0.00395976               -0.00998952                0.07301998               -0.45493902
               2.76441216                8.09677280               13.90190641                0.00010000               -0.40170703                0.14688890               -0.42561517                0.49659967                5.82302666               -1.72225274
               3.75579144                8.06224691               13.92177927                0.00010000               -1.01479146                0.40462906               -0.36155649                0.94270727               11.57987950               -0.92411129
               4.74411633                8.02899149               13.94588538                0.00010000               -1.28806179                0.57151568               -0.24256275                0.80688406               11.75309149               -0.39302275
               5.73003020                7.99543859               13.97270836                0.00010000               -1.49235843                0.60931951               -0.12215693                0.57921579               11.88649436               -0.03178527
               6.71426917                7.96082052               14.00317370                0.00010000               -1.61136270                0.56679971                0.00534482                0.30648469               12.11130319                0.28939547
               7.69780295                7.92537588               14.03814991                0.00010000               -1.63166502                0.33716346                0.14275743                0.04050310               12.42303548                0.68410154
               8.68163586                7.89063087               14.07823456                0.00010000               -0.82349724               -0.08737000                0.29203582               -0.06610504                6.28171864                1.27588975
               9.68133301                7.85750725               13.99325748                0.00010000                0.04535601                0.05175336               -0.17596439               -0.00272920                0.02057729                0.40472778
              10.68254299                7.82483814               13.90803245                0.00010000                0.12099797                0.20271567               -0.64429143               -0.02001623                0.01406299               -0.53768982
               0.80710659                9.18344625               14.07225061                0.00010000               -0.01674106               -0.08934314                0.27436915               -0.02612987                0.00313094                0.66193140
               1.80693918                9.14118719               13.97072665                0.00010000                0.04569048                0.05096234               -0.16178226               -0.00475900                0.08518744               -0.40783375
               2.80802040                9.09847247               13.87083268                0.00010000               -0.43989422                0.18992975               -0.60076281                0.57472046                6.81667553               -1.22428745
               3.79814129                9.06683857               13.90403854                0.00010000               -1.18741431                0.62060808               -0.42852069                0.76414524               13.29490947               -0.56858211
               4.78427211                9.03542651               13.93754498                0.00010000               -1.45721988                0.67898849               -0.26472830                0.54874847               13.16259740               -0.23463966
               5.76899689                9.00210789               13.97246066                0.00010000               -1.61613518                0.68984817               -0.10500094                0.34788300               13.20119619               -0.01625291
               6.75194941                8.96728800               14.01082600                0.00010000               -1.82005949                0.66782702                0.06215924                0.09919965               13.44820532                0.17322248
               7.73259570                8.92933674               14.05464021                0.00010000               -1.89094141                0.57308496                0.24576307               -0.26721807               13.91237923                0.40105749
               8.71413058                8.88947817               14.10622724                0.00010000               -0.95782935               -0.13009003                0.45624864               -0.39368241                7.14276094                0.86328132
               9.71343912                8.85777275               14.01789903                0.00010000                0.00630539                0.00351097               -0.02709729               -0.01003931                0.05999225                0.34895904
              10.71425669                8.82667385               13.92771061                0.00010000                0.08175688                0.16444361               -0.51972887               -0.02066893               -0.02545319               -0.45811169
               0.84841849               10.18276984               14.05083137                0.00010000                0.02856875               -0.06764087                0.13364570                0.04772894                0.36579523                0.54056679
               1.84870417               10.14193523               13.94667891                0.00010000                0.09183506                0.07480397               -0.31227888                0.06657751                0.67196961               -0.35014550
               2.85025519               10.10057139               13.84865841                0.00010000               -0.72919301                0.20989187               -0.74475592                0.85967116                7.97747005               -0.78851014
               3.83412031               10.07465907               13.89074832                0.00010000               -1.52165993                0.78204950               -0.49522979                0.69789567               14.56495273               -0.24910730
               4.81982199               10.04257126               13.93062794                0.00010000               -1.44969689                0.71447566               -0.30021720                0.28381201               14.28720279               -0.08039210
               5.80512637               10.00923555               13.97165607                0.00010000               -1.53988412                0.71276624               -0.10389236                0.19323816               14.32632011                0.03800091
               6.78902431                9.97417706               14.01622858                0.00010000               -1.74289778                0.68890674                0.10055587                0.08759112               14.61665255                0.14053261
               7.77026842                9.93683757               14.06679966                0.00010000               -2.18490463                0.75008323                0.32362397               -0.54012793               15.23267191                0.27258874
               8.74532621                9.88802907               14.12754363                0.00010000               -1.31659434               -0.14490922                0.58079768               -0.84344149                8.16593999                0.53792162
               9.74393653                9.85757747               14.04142705                0.00010000               -0.04994094               -0.01952723                0.11192549                0.05463860                0.51828629                0.30080486
              10.74432739                9.82812701               13.94915242                0.00010000                0.03908618                0.14531611               -0.39042845                0.06202486                0.21964588               -0.35987516
               0.42573332                0.23521712               15.23998163                1.00000000               -0.37009238               -0.40569799                1.41378607               -0.07319330               -0.63251429                0.67173878
               1.42203240                0.17646739               15.18306844                1.00000000               -0.30555147               -0.32215340                1.13082041               -0.05789787               -0.79076915                0.03695955
               2.41962229                0.11751044               15.12291188                1.00000000               -0.16346407               -0.24021792                0.82938057               -0.04144682               -0.72642531               -0.19124085
               3.41876312                0.05966765               15.06723704                1.00000000                0.31810377               -0.18550026                0.54452247                0.47120462                0.25643157               -0.49916287
               4.42598437                0.01375555               15.02671270                0.00010000                0.47742987               -0.08375801                0.24470334               -0.03846482                0.84969863                0.08473294
               5.42831172               -0.02364428               14.98285237                0.00010000                0.15441432                0.01604902               -0.06885458                0.00815880                0.47987176                0.04976413
               6.42907266               -0.05979061               14.93509596                0.00010000                0.04106068                0.10632488               -0.38733520                0.00993069                0.30313633               -0.03271596
               7.42913293               -0.09750905               14.88774227                0.00010000                0.04300875                0.20557707               -0.71618850                0.05223662                0.07632318                0.03878837
               8.42993283               -0.13940067               14.83538328                1.00000000                0.18577546                0.31842409               -1.03457267                0.03919356               -0.32413191                0.37738055
               9.43284844               -0.18398461               14.78000528                1.00000000                0.36114889                0.38875857               -1.34232995               -0.04984665               -0.46866429                0.01710935
              10.43715581               -0.22879442               14.72486174                1.00000000                0.43073703                0.47161597               -1.63609077               -0.07578942               -0.46361332               -0.48527558
               0.48375112                1.23116014               15.21896911                1.00000000               -0.34443570               -0.38503631                1.28411727               -0.03208877               -0.07867940                0.91556971
               1.48030676                1.17324586               15.16164964                1.00000000               -0.30717104               -0.29962674                1.00152016               -0.01380515               -0.03494694                0.05555040
               2.47760770                1.11510826               15.10514617                1.00000000               -0.24770768               -0.21744139                0.71274359                0.02440984                0.19027448               -0.53508998
               3.47535261                1.05781264               15.05230313                0.00010000               -0.51760066               -0.17662981                0.42551549                0.66454210                1.56176303               -0.87136303
               4.46725569                1.01291797               15.02326739                0.00010000               -0.50931137                0.07717301                0.19695359                0.04757162                2.22520387                0.80570503
               5.46516638                0.97651621               14.98448585                0.00010000               -0.05756698                0.08787642               -0.08475153                0.27676741                1.50283323                0.31378292
               6.46610435                0.94127264               14.94129290                0.00010000                0.21469715                0.01326877               -0.37652742                0.28199622                1.36066405               -0.37123585
               7.46946033                0.90454672               14.89989353                0.00010000                0.37291010                0.20890542               -0.66003932                0.38477073                1.30745025                0.56948296
               8.47356255                0.86378357               14.85597331                1.00000000                0.37932615                0.29552151               -0.93645663                0.16024795                0.66505271                0.52106715
               9.47704685                0.81990297               14.80196996                1.00000000                0.38225860                0.37359675               -1.22649114               -0.00108900                0.09750528                0.07944327
              10.48120772                0.77592174               14.74679271                1.00000000                0.41608725                0.44583318               -1.51950361               -0.02909562                0.03370295               -0.57537886
               0.54092012                2.22751640               15.20272973                1.00000000               -0.31119352               -0.35023384                1.17295400               -0.02660378                0.03083194                1.17674221
               1.53780818                2.17047486               15.14053449                1.00000000               -0.26882044               -0.26124529                0.87567142               -0.00232322                0.13921348                0.03424088
               2.53554371                2.11316161               15.08046522                1.00000000               -0.17819645               -0.18263322                0.58968418                0.04715297                0.72258448               -1.14533539
               3.53424425                2.05613505               15.02991333                0.00010000               -1.36557341               -0.16170866                0.29425666                0.95967710                3.93433981               -1.61276698
               4.50823224                2.01529901               15.03409502                0.00010000               -1.43759298                0.23454847                0.21626961                1.87191359                4.15943666               -1.10441607
               5.50549239                1.97811325               14.99135296                0.00010000               -0.07750858                0.00777877               -0.08391262                1.62601525                1.43382567               -0.47461129
               6.50668207                1.94047477               14.94072900                0.00010000                0.44125095               -0.13435085               -0.36311655                1.48939287                2.66337091                0.11053926
               7.51431741                1.90666906               14.92270514                0.00010000                0.55497358               -0.08229043               -0.60128777                1.05082082                2.99315376                0.51934922
               8.51778154                1.86650976               14.87953060                0.00010000                0.31855405                0.28504780               -0.81884206                0.26915674                1.18653813                0.98902853
               9.52068849                1.82348732               14.82528352                1.00000000                0.33774106                0.35820696               -1.10454769                0.04527879                0.43174689                0.43097129
              10.52453636                1.78012224               14.76704256                1.00000000                0.38478683                0.39856776               -1.41437103               -0.01461172                0.22873571               -0.58772381
               0.59730212                3.22415547               15.18680978                1.00000000               -0.26870363               -0.32507237                1.06098147               -0.02226287                0.03347581                1.17787189
               1.59461509                3.16802095               15.11861727                1.00000000               -0.22057767               -0.22820513                0.74593519               -0.00152820                0.03797289               -0.02877105
               2.59289057                3.11145560               15.05046593                0.00010000               -0.11031653               -0.13842628                0.43396521                0.00816834                0.93242056               -1.34757529
               3.59240875                3.05457847               15.00012274                0.00010000               -0.50874024               -0.07066271                0.13670031                1.02287289                3.97034927               -1.96120835
               4.58271576                3.01760894               14.99280187                0.00010000               -0.99489125                0.16680387                0.00959264                2.61798669                5.64610233               -2.53327772
               5.57251093                2.97667178               14.97729397                0.00010000               -0.76896860                0.02962801               -0.13169099                2.25176607                4.88055303               -1.18653459
               6.56733639                2.93858562               14.95622583                0.00010000               -0.40345917               -0.03486239               -0.30471948                2.01734309                4.49334465                0.45016844
               7.56444175                2.90290091               14.93406142                0.00010000               -0.26044852               -0.14397071               -0.48087639                1.48981643                4.27568816                0.41815353
               8.56212742                2.86948453               14.90953871                0.00010000               -0.00509016                0.28455950               -0.67088183                0.61982005                2.57033398                1.81594692
               9.56433994                2.82706711               14.85434965                1.00000000                0.27591104                0.32679381               -0.95019142                0.06003672                0.51811153                0.66736137
              10.56764564                2.78389309               14.78880082                1.00000000                0.33056985                0.36864382               -1.29839070               -0.02444635               -0.00161039               -0.44436411
               0.65274388                4.22101495               15.17045268                1.00000000               -0.22663963               -0.30086908                0.94288791               -0.02403461                0.03195239                1.11808792
               1.65047749                4.16591076               15.09617912                1.00000000               -0.17971637               -0.18869540                0.60873071               -0.00298954                0.02827577               -0.06533225
               2.64914956                4.11039309               15.02177428                0.00010000               -0.09645607               -0.07789182                0.27635039                0.00955862                1.19362173               -1.18503133
               3.64854837                4.05472180               14.97078085                0.00010000               -0.53254480                0.25941109               -0.12655509                0.76814571                5.14582529               -0.89637570
               4.63849866                4.01863509               14.97514552                0.00010000               -0.94986692                0.15563452               -0.13689428                1.58317482                7.37875566               -0.97167546
               5.62955103                3.97870581               14.97056243                0.00010000               -0.88494306                0.22574480               -0.17527561                1.45613154                6.69850508               -0.57122628
               6.62079980                3.93977752               14.96316509                0.00010000               -0.81680973                0.19092010               -0.25712201                1.38536315                6.43481535                0.12026970
               7.61321483                3.90378964               14.95510359                0.00010000               -0.73940293                0.15740250               -0.35917803                1.35867089                6.45090185                0.94538129
               8.60601174                3.87220095               14.94967633                0.00010000               -0.28670867                0.21713415               -0.46727275                0.64180017                3.41892919                2.04996351
               9.60748066                3.83002320               14.88245632                1.00000000                0.21918620                0.26343219               -0.79655413                0.03603886                0.16473256                0.60904818
              10.61039547                3.78749512               14.81194658                1.00000000                0.29148045                0.34784568               -1.17298844               -0.02142340               -0.00000400               -0.36702646
               0.70702982                5.21813809               15.15320642                1.00000000               -0.18526575               -0.26880316                0.81530361               -0.02720703                0.09813842                1.02525947
               1.70517716                5.16424705               15.07349082                0.00010000               -0.13795576               -0.14196137                0.46639924               -0.00861826                0.16548780               -0.18318497
               2.70427070                5.10989776               14.99507377                0.00010000               -0.28237452               -0.01950721                0.13010313                0.22369286                2.54693167               -1.27041193
               3.69952967                5.05976669               14.96294737                0.00010000               -0.69377253                0.49465885               -0.45745518                0.63205164                6.61385994                0.15160710
               4.69039525                5.02072163               14.96542997                0.00010000               -0.95192703                0.26869052               -0.22770463                1.17196205                8.26927671               -0.39048566
               5.68049113                4.98118668               14.96881791                0.00010000               -1.02177171                0.29102849               -0.19318645                1.06310932                8.20051628               -0.18820820
               6.66995982                4.94240403               14.97232216                0.00010000               -1.06496985                0.29617716               -0.20227720                1.02709175                8.15543857                0.30459346
               7.65919173                4.90604896               14.97708053                0.00010000               -1.06149723                0.23863141               -0.23234778                1.07453173                8.24638377                0.97316470
               8.64872987                4.87382721               14.98451646                0.00010000               -0.47125889                0.11925253               -0.26903799                0.52847918                4.21034658                1.68688769
               9.64976655                4.83233575               14.91041659                0.00010000                0.17717285                0.20450270               -0.65151419                0.02059916                0.08036376                0.58939278
              10.65227333                4.79085001               14.83525031                1.00000000                0.25067754                0.31975236               -1.04339646               -0.02110009                0.02856388               -0.37395180
               0.75998182                6.21563889               15.13485211                1.00000000               -0.14363734               -0.22657488                0.68080837               -0.02911819                0.06824545                0.92063768
               1.75854545                6.16307153               15.04865910                0.00010000               -0.09390275               -0.09284767                0.31048607               -0.01215606                0.18304045               -0.35314870
               2.75810377                6.11000294               14.96471691                0.00010000               -0.40899595                0.03832804               -0.04799310                0.39498894                4.02820772               -1.58138262
               3.75036553                6.06461497               14.95540790                0.00010000               -0.87929258                0.42394663               -0.33909017                0.80397304                8.36269906               -0.28069340
               4.74051792                6.02400890               14.95925684                0.00010000               -1.06173561                0.37938547               -0.26286036                0.97847627                9.23515120               -0.24222560
               5.72913082                5.98452638               14.96957738                0.00010000               -1.20192823                0.39344205               -0.18307633                0.88268310                9.57370583               -0.01554960
               6.71647935                5.94570106               14.98278036                0.00010000               -1.29242682                0.37098701               -0.13683630                0.77427498                9.71555592                0.39693391
               7.70328228                5.90856227               14.99859206                0.00010000               -1.30924097                0.25667995               -0.10582543                0.77365773                9.87633539                0.93635215
               8.69029453                5.87458600               15.01750121                0.00010000               -0.62062172                0.04052337               -0.08295407                0.36609366                5.01013690                1.55042490
               9.69086985                5.83411325               14.93816746                0.00010000                0.13252116                0.15393541               -0.49288546                0.00914194                0.06870000                0.54160413
              10.69294496                5.79389017               14.85822285                1.00000000                0.20751081                0.28575209               -0.91593481               -0.02055798                0.04120884               -0.43666594
               0.81158217                7.21360659               15.11536004                0.00010000               -0.10121851               -0.17867720                0.54162900               -0.02803870                0.03219832                0.83968846
               1.81056998                7.16239009               15.02255542                0.00010000               -0.04775659               -0.04465822                0.15400719               -0.01090771                0.14078335               -0.44170562
               2.81062704                7.11066432               14.93188530                0.00010000               -0.44834043                0.09109735               -0.22810988                0.47911935                5.09925226               -1.77718123
               3.80160317                7.06824563               14.93825644                0.00010000               -1.02868312                0.37198522               -0.32153093                0.95225833               10.22486853               -0.87357630
               4.79005337                7.02830934               14.95211966                0.00010000               -1.25752751                0.48942743               -0.24846506                0.93449806               10.70889725               -0.33472396
               5.77645262                6.98905552               14.97081870                0.00010000               -1.43219774                0.52998201               -0.15522958                0.74453210               10.99578559                0.01612820
               6.76140942                6.94982377               14.99337902                0.00010000               -1.53363396                0.47417565               -0.06563898                0.52991940               11.21954785                0.39884339
               7.74577995                6.91118256               15.01959212                0.00010000               -1.54543265                0.28524258                0.01809088                0.41764443               11.45186714                0.87813351
               8.73050077                6.87463768               15.04965176                0.00010000               -0.75673584               -0.02612167                0.09866117                0.15886653                5.79316372                1.47263307
               9.73064523                6.83541446               14.96514866                0.00010000                0.09037858                0.10602349               -0.34314006                0.00199061                0.04501523                0.47038539
              10.73230834                6.79656505               14.88018496                0.00010000                0.16631093                0.24901201               -0.78978281               -0.01954341                0.02661443               -0.51358441
               0.86185404                8.21206534               15.09525234                0.00010000               -0.05844762               -0.13063544                0.40201473               -0.02656161                0.01490112                0.80367469
               1.86126956                8.16217837               14.99596126                0.00010000               -0.00117086                0.00226484               -0.00151684               -0.00736148                0.07034252               -0.47803386
               2.86183062                8.11182489               14.89775315                0.00010000               -0.47519420                0.13900604               -0.40767880                0.54757688                6.05195421               -1.78260293
               3.85176568                8.07205468               14.91813499                0.00010000               -1.17163194                0.44220166               -0.37154821                1.01783046               12.09242671               -0.90165745
               4.83839798                8.03379745               14.94344129                0.00010000               -1.46293232                0.63191167               -0.24850742                0.85145094               12.31219985               -0.35537632
               5.82250703                7.99512602               14.97148066                0.00010000               -1.67236424                0.67347558               -0.12477818                0.58393923               12.45877642                0.00520247
               6.80495070                7.95518458               15.00321902                0.00010000               -1.78428882                0.62662470                0.00254384                0.27428263               12.69837445                0.32788692
               7.78682126                7.91426712               15.03954337                0.00010000               -1.78553686                0.37559989                0.13481828               -0.02231268               13.02584277                0.73292787
               8.76923996                7.87406357               15.08106694                0.00010000               -0.89194838               -0.08424226                0.27344456               -0.10759632                6.58878950                1.34836903
               9.76898229                7.83623372               14.99140139                0.00010000                0.05064756                0.05730829               -0.19614793               -0.00416508                0.02120881                0.43222845
              10.77025291                7.79887041               14.90147678                0.00010000                0.12706235                0.21184938               -0.66732773               -0.01924203                0.01448547               -0.55789450
               0.91082489                9.21099388               15.07493774                0.00010000               -0.01616846               -0.08592398                0.26402091               -0.02505832                0.00103697                0.67202308
               1.91066321                9.16243539               14.96914632                0.00010000                0.04386844                0.04904399               -0.15546314               -0.00333950                0.08206656               -0.42626342
               2.91170226                9.11344444               14.86496288                0.00010000               -0.53379902                0.18189110               -0.57657053                0.65346896                7.10873014               -1.26325566
               3.89998723                9.07708966               14.89977683                0.00010000               -1.38456032                0.68954544               -0.42588114                0.84553631               13.90010427               -0.54792042
               4.88401105                9.04094757               14.93490463                0.00010000               -1.66214743                0.75514920               -0.26473608                0.58753645               13.78279940               -0.21436391
               5.86674428                9.00252503               14.97141088                0.00010000               -1.81285456                0.76660500               -0.10609846                0.35114870               13.83528561                0.00413624
               6.84775396                8.96235626               15.01143426                0.00010000               -2.01447907                0.74254325                0.05834364                0.07037774               14.10196453                0.19404501
               7.82645470                8.91869456               15.05705157                0.00010000               -2.06858605                0.64049373                0.23530145               -0.33522604               14.59231049                0.42724016
               8.80638224                8.87295283               15.11068446                0.00010000               -1.03498041               -0.12362798                0.43377472               -0.45686891                7.49565551                0.90905395
               9.80575509                8.83656063               15.01751110                0.00010000                0.01339411                0.01058234               -0.05167965               -0.01213775                0.06391135                0.37087131
              10.80665012                8.80080204               14.92237311                0.00010000                0.08950355                0.17427252               -0.54832945               -0.01962691               -0.02629793               -0.47749668
               0.95846985               10.21034686               15.05212370                0.00010000                0.02823588               -0.06470159                0.12561666                0.04573421                0.36930181                0.54978963
               1.95875221               10.16315925               14.94361187                0.00010000                0.08879398                0.07238553               -0.30259686                0.06469279                0.68234681               -0.36430493
               2.96024573               10.11546271               14.84136507                0.00010000               -0.87894682                0.20182700               -0.71753242                0.98866421                8.32687636               -0.81078888
               3.94117328               10.08584559               14.88584484                0.00010000               -1.77661962                0.87559277               -0.48643959                0.79049071               15.25094473               -0.23678216
               4.92471334               10.04890043               14.92764569                0.00010000               -1.65259781                0.79528576               -0.29728888                0.30085501               14.96981823               -0.07227549
               5.90812132               10.01045812               14.97062206                0.00010000               -1.72623070                0.79330845               -0.10406282                0.19445462               15.02728518                0.04670132
               6.89018873                9.97003544               15.01721677                0.00010000               -1.93005789                0.76791808                0.09574185                0.07442041               15.33876428                0.15004724
               7.86952016                9.92707700               15.06997666                0.00010000               -2.39761062                0.83824397                0.31029780               -0.61567511               15.98332222                0.28547183
               8.84223651                9.87159101               15.13321961                0.00010000               -1.43149154               -0.13618242                0.55265737               -0.94615441                8.57208941                0.56417672
               9.84089033                9.83644537               15.04240472                0.00010000               -0.04294788               -0.01152607                0.08196405                0.05176652                0.54846924                0.31850382
              10.84137756                9.80235586               14.94507749                0.00010000                0.04872255                0.15538198               -0.42543817                0.06379210                0.23285923               -0.37678790
               0.47760695                0.26371996               16.25404403                1.00000000               -0.36622754               -0.40071857                1.39896316               -0.07288203               -0.65717619                0.69577376
               1.47394468                0.19892611               16.19432098                1.00000000               -0.30242999               -0.31883584                1.11981228               -0.05821779               -0.82413947                0.04135982
               2.47155835                0.13393185               16.13118055                1.00000000               -0.16185372               -0.23836106                0.82439033               -0.04132475               -0.76072578               -0.19450459
               3.47070760                0.07007013               16.07267549                1.00000000                0.31934113               -0.18491812                0.54349888                0.48112445                0.22159566               -0.52430721
               4.47794517                0.01835938               16.02917185                0.00010000                0.47440980               -0.07740655                0.24675193               -0.04509342                0.79749921                0.09909656
               5.48019580               -0.02466134               15.98218580                0.00010000                0.14994266                0.01818240               -0.06539701                0.00776803                0.41949989                0.05730730
               6.48094403               -0.06639038               15.93126864                0.00010000                0.04261841                0.10592217               -0.37899800                0.01000127                0.23757062               -0.03724352
               7.48104817               -0.10953598               15.88065371                0.00010000                0.04617674                0.20342460               -0.70222897                0.04894042                0.01245450                0.04241214
               8.48186756               -0.15664919               15.82512770                1.00000000                0.18437348                0.31375205               -1.01700583                0.03591384               -0.37607332                0.38891012
               9.48473564               -0.20636268               15.76668480                1.00000000                0.35551519                0.38377960               -1.32205579               -0.04898874               -0.50732630                0.01597723
              10.48897787               -0.25631137               15.70861951                1.00000000                0.42422309                0.46578681               -1.61251404               -0.07399053               -0.49482858               -0.51559620
               0.54167198                1.25971277               16.23174218                1.00000000               -0.34154300               -0.37943716                1.27091253               -0.03218804               -0.08330309                0.94819925
               1.53825655                1.19573775               16.17161458                1.00000000               -0.30494453               -0.29620490                0.99167428               -0.01438670               -0.04252858                0.06140308
               2.53557309                1.13154824               16.11224527                1.00000000               -0.24757363               -0.21575115                0.70713811                0.02471850                0.18103058               -0.54195723
               3.53330508                1.06822095               16.05655497                0.00010000               -0.53565605               -0.17567061                0.42545474                0.67982149                1.58246370               -0.90380140
               4.52485997                1.01758531               16.02523359                0.00010000               -0.53283639                0.07208438                0.19681549                0.00865087                2.25775147                0.84835938
               5.52264835                0.97552049               15.98364471                0.00010000               -0.06893061                0.08719970               -0.08373918                0.25429800                1.50917560                0.32933178
               6.52348136                0.93466885               15.93755428                0.00010000                0.20093121                0.02115719               -0.37172927                0.26774582                1.36795067               -0.37438648
               7.52666698                0.89249827               15.89334304                0.00010000                0.35793472                0.20330761               -0.65067269                0.36287645                1.32146619                0.57437607
               8.53064006                0.84648833               15.84666863                1.00000000                0.37049297                0.29174058               -0.92499330                0.15394134                0.67417941                0.54228546
               9.53407684                0.79747511               15.78977898                1.00000000                0.37732959                0.36945884               -1.21213658               -0.00072680                0.09858024                0.08162447
              10.53818665                0.74834650               15.73168752                1.00000000                0.41098092                0.44142872               -1.50185610               -0.02789325                0.03344281               -0.61104322
               0.60491324                2.25613122               16.21439207                1.00000000               -0.30917631               -0.34387947                1.16014229               -0.02563549                0.03155838                1.21718957
               1.60182148                2.19300201               16.14924557                1.00000000               -0.26718596               -0.25790924                0.86681321               -0.00083429                0.14493135                0.03977544
               2.59956952                2.12961682               16.08632777                1.00000000               -0.17772609               -0.18230638                0.58250650                0.05143313                0.72905366               -1.17036140
               3.59826696                2.06655672               16.03283829                0.00010000               -1.43754358               -0.16155561                0.28983882                0.97094665                4.04116669               -1.66451242
               4.57081865                2.01980106               16.03616866                0.00010000               -1.50343675                0.22182835                0.20218017                1.89475491                4.30862072               -1.13432130
               5.56819822                1.97708266               15.99050293                0.00010000               -0.07487445               -0.01020139               -0.08634722                1.64453331                1.48306369               -0.47325931
               6.56932116                1.93403277               15.93710371                0.00010000                0.41439948               -0.14319568               -0.36242435                1.47865189                2.73989593                0.13155243
               7.57648621                1.89453018               15.91671208                0.00010000                0.53241923               -0.09277888               -0.59803965                1.03815342                3.09201395                0.56009395
               8.57996955                1.84918562               15.87137014                0.00010000                0.31883593                0.28240755               -0.81384274                0.26463095                1.25691512                1.03571147
               9.58286293                1.80102649               15.81428387                1.00000000                0.33538407                0.35498515               -1.09610811                0.04484182                0.45662983                0.45319358
              10.58667723                1.75251720               15.75295991                1.00000000                0.38142978                0.39685977               -1.40288083               -0.01374906                0.24140825               -0.62215949
               0.66741769                3.25283518               16.19735239                1.00000000               -0.26634296               -0.31894639                1.04838939               -0.02031197                0.03648471                1.21378970
               1.66475426                3.19057956               16.12603934                1.00000000               -0.21853204               -0.22562946                0.73870733                0.00125358                0.04234108               -0.02935744
               2.66304705                3.12790211               16.05479773                1.00000000               -0.11072426               -0.13934968                0.43219132                0.01500185                0.94398051               -1.38760951
               3.66253978                3.06498983               16.00148416                0.00010000               -0.54089598               -0.08638983                0.13597978                1.04222552                4.07571871               -2.07423381
               4.65222913                3.02202188               15.99289443                0.00010000               -1.06162296                0.15274934                0.01000516                2.68208991                5.83789357               -2.64976756
               5.64130732                2.97531646               15.97597298                0.00010000               -0.83111245                0.01205858               -0.13139778                2.29413107                5.06111471               -1.20584306
               6.63560688                2.93180493               15.95319381                0.00010000               -0.45150606               -0.05863710               -0.30224738                2.03457848                4.66100172                0.49305508
               7.63227720                2.89064269               15.92927052                0.00010000               -0.30852616               -0.15233034               -0.47826043                1.50786833                4.43682782                0.49339401
               8.62943636                2.85213648               15.90283513                0.00010000               -0.03175525                0.27892752               -0.67100618                0.61828888                2.68433454                1.90580310
               9.63164209                2.80457481               15.84487128                1.00000000                0.27469420                0.32359302               -0.94641374                0.05796664                0.55496974                0.70632244
              10.63493024                2.75628369               15.77585304                1.00000000                0.32881515                0.36874925               -1.29162357               -0.02368037                0.00066565               -0.46611417
               0.72901825                4.24975229               16.17981491                1.00000000               -0.22386192               -0.29475709                0.93008936               -0.02259657                0.03407906                1.14481590
               1.72677963                4.18848942               16.10222767                1.00000000               -0.17794782               -0.18687332                0.60277004               -0.00090012                0.03205098               -0.07326391
               2.72545929                4.12682983               16.02454875                0.00010000               -0.08939635               -0.07912670                0.28084996                0.00316326                1.16604516               -1.22219067
               3.72499170                4.06482892               15.96963326                0.00010000               -0.56627321                0.21969731               -0.10423971                0.79217545                5.27275729               -1.10998648
               4.71413382                4.02285605               15.97376848                0.00010000               -1.03469549                0.14912145               -0.13578701                1.61397203                7.69213969               -1.03800562
               5.70429779                3.97732383               15.96881668                0.00010000               -0.97236621                0.22805552               -0.17328685                1.48162664                6.98943712               -0.58056134
               6.69468650                3.93286003               15.96060829                0.00010000               -0.89928790                0.18758814               -0.25496506                1.39282666                6.70169060                0.15939929
               7.68631203                3.89148357               15.95152141                0.00010000               -0.81416494                0.15649984               -0.35857923                1.35739575                6.71108362                1.02159743
               8.67840320                3.85476417               15.94499263                0.00010000               -0.32184905                0.20931129               -0.47081720                0.63734390                3.57475066                2.16281147
               9.67987505                3.80749835               15.87449518                1.00000000                0.21913309                0.26062047               -0.79512559                0.03471782                0.18883722                0.64268552
              10.68278586                3.75989219               15.80022800                1.00000000                0.29108131                0.34900322               -1.16943095               -0.02070691               -0.00079898               -0.38091963
               0.78949150                5.24694004               16.16129299                1.00000000               -0.18327812               -0.26188656                0.80270419               -0.02542398                0.10163472                1.04238493
               1.78765872                5.18684210               16.07811011                0.00010000               -0.13603411               -0.14092461                0.45872373               -0.00545542                0.17510332               -0.19989630
               2.78677081                5.12631958               15.99635776                0.00010000               -0.26508256               -0.02314821                0.12716005                0.19728914                2.42731053               -1.31645732
               3.78235706                5.06938378               15.95818926                0.00010000               -0.73785771                0.48538987               -0.48151370                0.61954135                6.79783698                0.10942365
               4.77201366                5.02500431               15.96311087                0.00010000               -1.07105955                0.28143354               -0.23390426                1.20665280                8.77552133               -0.40619071
               5.76093587                4.97987757               15.96688301                0.00010000               -1.13549930                0.30616931               -0.19378248                1.06835997                8.58824126               -0.17472229
               6.74930367                4.93555670               15.97030690                0.00010000               -1.17074538                0.30934451               -0.20170685                1.01882670                8.51701010                0.34945529
               7.73752097                4.89377269               15.97475445                0.00010000               -1.15676115                0.24556438               -0.23423133                1.06101407                8.60166440                1.04899962
               8.72616845                4.85632271               15.98179626                0.00010000               -0.51562690                0.11450907               -0.27579791                0.51699234                4.39957155                1.78821741
               9.72720843                4.80978722               15.90387198                0.00010000                0.17799893                0.20368680               -0.65619171                0.01925280                0.09427688                0.62394045
              10.72972843                4.76326376               15.82479640                1.00000000                0.25200021                0.32269479               -1.04540087               -0.02045233                0.03702092               -0.38803891
               0.84870566                6.24451456               16.14159191                1.00000000               -0.14146723               -0.21971363                0.66805723               -0.02696632                0.06862277                0.93134778
               1.84729099                6.18567093               16.05174138                0.00010000               -0.09211350               -0.09294129                0.30580404               -0.00804716                0.18924531               -0.37627914
               2.84686339                6.12636687               15.96426114                0.00010000               -0.42965954                0.03176292               -0.04402351                0.38991599                4.05446147               -1.64208802
               3.83869779                6.07453672               15.95168830                0.00010000               -0.95451481                0.45818007               -0.40582974                0.77648241                8.63949184               -0.13387840
               4.82777309                6.02848472               15.95653767                0.00010000               -1.17925969                0.40564811               -0.28000193                0.99193158                9.72080984               -0.20459209
               5.81511260                5.98344722               15.96772696                0.00010000               -1.33025876                0.42316069               -0.18751250                0.87621366               10.03826824                0.01951891
               6.80116792                5.93904692               15.98140856                0.00010000               -1.41731490                0.39667590               -0.13858308                0.75092547               10.15966347                0.44775267
               7.78676630                5.89639486               15.99751661                0.00010000               -1.42197017                0.27160711               -0.11046216                0.74235359               10.31537471                1.00838422
               8.77272851                5.85705435               16.01661588                0.00010000               -0.67236241                0.03948992               -0.09493636                0.34497837                5.23818456                1.64239008
               9.77331905                5.81157209               15.93318243                0.00010000                0.13476179                0.15621176               -0.50439824                0.00756862                0.07615045                0.57807993
              10.77542375                5.76634608               15.84900718                1.00000000                0.21046944                0.29150783               -0.92702498               -0.02009827                0.04216087               -0.45264145
               0.90663943                7.24254577               16.12071404                0.00010000               -0.09939674               -0.17310346                0.52988110               -0.02637572                0.03156659                0.84758546
               1.90564546                7.18498327               16.02408711                0.00010000               -0.04680428               -0.04532644                0.15200576               -0.00751489                0.14299104               -0.46490057
               2.90570335                7.12695483               15.92965261                0.00010000               -0.49383027                0.08381484               -0.21980950                0.49891217                5.23522527               -1.83884353
               3.89576886                7.07854738               15.93486527                0.00010000               -1.13807759                0.40783288               -0.36161200                0.97082361               10.61074990               -0.79655364
               4.88294179                7.03311727               15.94955041                0.00010000               -1.39354532                0.53071373               -0.26689360                0.95174866               11.21148611               -0.27476228
               5.86789795                6.98834078               15.96924018                0.00010000               -1.57836252                0.57516245               -0.16145183                0.73441720               11.51074329                0.06174406
               6.85137454                6.94349021               15.99270931                0.00010000               -1.67686747                0.51380524               -0.06946621                0.49350333               11.73494679                0.44941127
               7.83436060                6.89920483               16.01974122                0.00010000               -1.67418783                0.30900627                0.01050023                0.36639377               11.96948128                0.94364647
               8.81789079                6.85711250               16.05056071                0.00010000               -0.81462675               -0.02443990                0.08206018                0.12658778                6.05752476                1.55939102
               9.81806807                6.81291146               15.96163389                0.00010000                0.09438427                0.11086477               -0.36079502                0.00048467                0.04834042                0.50221379
              10.81977847                6.76909391               15.87219809                0.00010000                0.17104046                0.25730103               -0.80816787               -0.01884642                0.02771020               -0.53079030
               0.96330314                8.24105249               16.09921716                0.00010000               -0.05715174               -0.12652097                0.39156389               -0.02527211                0.01409755                0.81180010
               1.96273162                8.18476440               15.99595434                0.00010000               -0.00128108                0.00140181               -0.00053446               -0.00497093                0.06849461               -0.49959331
               2.96327752                8.12804316               15.89375284                0.00010000               -0.53898965                0.13203029               -0.39437407                0.58950609                6.26021845               -1.83767281
               3.95195183                8.08269337               15.91434830                0.00010000               -1.31314283                0.48114681               -0.38971891                1.07443015               12.58250366               -0.86209940
               4.93701466                8.03909900               15.94091523                0.00010000               -1.62619152                0.69087793               -0.25873067                0.88046718               12.86742756               -0.30987138
               5.91942800                7.99495046               15.97021280                0.00010000               -1.84203633                0.73542143               -0.13012657                0.57495214               13.02659540                0.04508932
               6.90017394                7.94932302               16.00322458                0.00010000               -1.94780566                0.68404639               -0.00269783                0.22989902               13.27922640                0.36860326
               7.88047189                7.90257498               16.04084627                0.00010000               -1.93101483                0.41217162                0.12442650               -0.09631750               13.62017735                0.78500679
               8.86155364                7.85656555               16.08370346                0.00010000               -0.95622750               -0.08029651                0.25250244               -0.15461149                6.89217863                1.42524792
               9.86134734                7.81378938               15.98933452                0.00010000                0.05641349                0.06376927               -0.21825859               -0.00564113                0.02238360                0.46253390
              10.86268191                7.77149211               15.89468590                0.00010000                0.13345722                0.22146474               -0.69139582               -0.01831575                0.01500930               -0.57777285
               1.01871017                9.24001535               16.07753103                0.00010000               -0.01547987               -0.08293827                0.25512917               -0.02415321               -0.00068408                0.68061301
               2.01855537                9.18501131               15.96761739                0.00010000                0.04271614                0.04768114               -0.15131293               -0.00208988                0.07997139               -0.44327210
               3.01956449                9.12959544               15.85930127                0.00010000               -0.61768707                0.17540379               -0.55831967                0.72206215                7.38409354               -1.29846143
               4.00620163                9.08817032               15.89552092                0.00010000               -1.56352221                0.75470167               -0.42767296                0.91230716               14.48169495               -0.51749233
               4.98829405                9.04693483               15.93225026                0.00010000               -1.85143296                0.82723170               -0.26786380                0.61526805               14.39182793               -0.18994436
               5.96917297                9.00304921               15.97033869                0.00010000               -1.99730204                0.83983758               -0.10973250                0.34546521               14.46076986                0.02619096
               6.94834801                8.95717114               16.01199287                0.00010000               -2.19906247                0.81449815                0.05201279                0.03350529               14.74746475                0.21610103
               7.92519172                8.90744826               16.05934624                0.00010000               -2.23819260                0.70609246                0.22218971               -0.41022123               15.26307556                0.45601375
               8.90358415                8.85550657               16.11490273                0.00010000               -1.10815134               -0.11616250                0.40831089               -0.52375584                7.84520897                0.95851625
               9.90302869                8.81418684               16.01686543                0.00010000                0.02112795                0.01854662               -0.07865063               -0.01413338                0.06887380                0.39495658
              10.90400671                8.77352321               15.91674402                0.00010000                0.09780205                0.18451908               -0.57812015               -0.01850744               -0.02678311               -0.49701448
               1.07282816               10.23939372               16.05334370                0.00010000                0.02815736               -0.06216278                0.11870818                0.04422941                0.37271799                0.55803206
               2.07310974               10.18571802               15.94062698                0.00010000                0.08657937                0.07067140               -0.29563752                0.06331262                0.69268023               -0.37735505
               3.07455975               10.13155124               15.83430776                0.00010000               -1.01255760                0.19557999               -0.69673835                1.10299534                8.66032651               -0.83111537
               4.05285859               10.09778741               15.88101953                0.00010000               -2.00593107                0.96170891               -0.48025715                0.87031528               15.91293893               -0.21914114
               5.03444113               10.05564363               15.92468216                0.00010000               -1.83787970                0.87088021               -0.29702939                0.31269872               15.63745066               -0.06253949
               6.01610099               10.01174722               15.96957482                0.00010000               -1.89980690                0.86980032               -0.10688537                0.19126999               15.71647154                0.05565762
               6.99644499                9.96561298               16.01814342                0.00010000               -2.10844809                0.84418432                0.08805468                0.05717933               16.04931475                0.15950744
               7.97393203                9.91669683               16.07300561                0.00010000               -2.60525254                0.92485680                0.29389129               -0.69450298               16.72124582                0.29899603
               8.94433994                9.85424230               16.13859678                0.00010000               -1.54419977               -0.12642701                0.52111570               -1.05124701                8.97525537                0.59354132
               9.94304803                9.81416032               16.04306633                0.00010000               -0.03504552               -0.00265282                0.04894594                0.04894333                0.58042301                0.33772061
              10.94363903                9.77518249               15.94064366                0.00010000                0.05909966                0.16592778               -0.46212663                0.06544886                0.24647932               -0.39421167
               0.53203590                0.29373630               17.26796090                1.00000000               -0.36228041               -0.39602153                1.38452359               -0.07245367               -0.68015717                0.71853805
               1.52841309                0.22270740               17.20546469                1.00000000               -0.29913148               -0.31580614                1.10903702               -0.05826966               -0.85460846                0.04499931
               2.52605327                0.15149090               17.13939969                1.00000000               -0.16046801               -0.23690045                0.81914536               -0.04077672               -0.79169562               -0.19853247
               3.52520373                0.08142256               17.07810702                1.00000000                0.31853905               -0.18487331                0.54252778                0.48713803                0.18881451               -0.54533528
               4.53242405                0.02361399               17.03164774                0.00010000                0.47005955               -0.07256507                0.24696151               -0.05223456                0.74404263                0.11323953
               5.53460492               -0.02541597               16.98154443                0.00010000                0.14660546                0.02016849               -0.06384280                0.00639071                0.35924275                0.06441630
               6.53535616               -0.07310676               16.92751600                0.00010000                0.04590160                0.10565929               -0.37206499                0.00971254                0.17456120               -0.04178134
               7.53552296               -0.12203947               16.87369769                0.00010000                0.05120583                0.20153478               -0.68942817                0.04535578               -0.04978207                0.04660549
               8.53638027               -0.17470433               16.81504317                1.00000000                0.18435720                0.30911633               -1.00020508                0.03229436               -0.42839106                0.40017479
               9.53921010               -0.22985343               16.75356417                1.00000000                0.35047682                0.37898254               -1.30220753               -0.04795499               -0.54677845                0.01456302
              10.54338981               -0.28524236               16.69261146                1.00000000                0.41797109                0.46028268               -1.58913841               -0.07192317               -0.52662631               -0.54657117
               0.60234026                1.28977609               17.24438736                1.00000000               -0.33871642               -0.37431612                1.25847140               -0.03225471               -0.08754425                0.97895763
               1.59895310                1.21954934               17.18148313                1.00000000               -0.30261701               -0.29308967                0.98241513               -0.01480876               -0.04935405                0.06634687
               2.59628792                1.14912189               17.11928893                1.00000000               -0.24697661               -0.21444859                0.70215749                0.02516380                0.17366565               -0.55060131
               3.59401357                1.07957382               17.06081222                1.00000000               -0.54834778               -0.17534734                0.42872675                0.68947045                1.60220684               -0.93608813
               4.58532097                1.02288834               17.02720370                0.00010000               -0.54921793                0.06688773                0.19752068               -0.02360729                2.28743844                0.88677388
               5.58302921                0.97478571               16.98281106                0.00010000               -0.07779664                0.08678847               -0.08325088                0.23375895                1.51346865                0.34380870
               6.58376503                0.92794983               16.93385832                0.00010000                0.18730443                0.02865237               -0.36793613                0.25524208                1.37464995               -0.37803759
               7.58677530                0.87997587               16.88688008                0.00010000                0.34225819                0.19914631               -0.64254246                0.34026550                1.33437973                0.57889485
               8.59061020                0.82838684               16.83747344                1.00000000                0.36121344                0.28809098               -0.91455959                0.14641468                0.68198012                0.56303519
               9.59399957                0.77393639               16.77772723                1.00000000                0.37246522                0.36561625               -1.19863434               -0.00025745                0.09906188                0.08331781
              10.59805950                0.71936047               16.71675559                1.00000000                0.40599371                0.43779415               -1.48486631               -0.02646132                0.03292932               -0.64776125
               0.67184430                2.28624998               17.22593258                1.00000000               -0.30731884               -0.33838326                1.14871329               -0.02455470                0.03233304                1.25492987
               1.66877111                2.21684561               17.15787076                1.00000000               -0.26561201               -0.25488182                0.85877134                0.00077072                0.14909546                0.04437152
               2.66653206                2.14720193               17.09211535                1.00000000               -0.17722084               -0.18197351                0.57458840                0.05537193                0.73304430               -1.19476158
               3.66522669                2.07791561               17.03571011                0.00010000               -1.48960235               -0.16374996                0.28481151                0.97813432                4.14254598               -1.71649549
               4.63674001                2.02495175               17.03813862                0.00010000               -1.55040408                0.20627131                0.19291219                1.90340198                4.45129638               -1.16209429
               5.63421861                1.97631980               16.98962601                0.00010000               -0.07345871               -0.02722712               -0.09036416                1.64595881                1.53148230               -0.46966930
               6.63527084                1.92746629               16.93348052                0.00010000                0.38363240               -0.15038405               -0.36248405                1.45587490                2.81280409                0.15479061
               7.64189126                1.88194345               16.91074435                0.00010000                0.50386061               -0.10082066               -0.59636413                1.01764459                3.18849573                0.60205031
               8.64534805                1.83105749               16.86325375                0.00010000                0.31700283                0.27956345               -0.81020796                0.25592989                1.32637346                1.08228754
               9.64823132                1.77745889               16.80336136                1.00000000                0.33321887                0.35229286               -1.08916807                0.04389450                0.48125082                0.47522693
              10.65201243                1.72351353               16.73898495                1.00000000                0.37811103                0.39711296               -1.39271035               -0.01274024                0.25393401               -0.65736163
               0.74065792                3.28300842               17.20777757                1.00000000               -0.26413491               -0.31396553                1.03737248               -0.01788917                0.03947000                1.24636883
               1.73801657                3.21445170               17.13339142                1.00000000               -0.21662784               -0.22354490                0.73213489                0.00437801                0.04678438               -0.03038124
               2.73632536                3.14548242               17.05910975                1.00000000               -0.10950668               -0.14063428                0.43079401                0.01899670                0.95432717               -1.42267109
               3.73582643                3.07629882               17.00284233                0.00010000               -0.56702703               -0.10493196                0.13634854                1.05442171                4.18455262               -2.18006642
               4.72498482                3.02701377               16.99300197                0.00010000               -1.11962940                0.13533919                0.01491373                2.71801848                6.02118827               -2.75128499
               5.71343384                2.97424117               16.97466602                0.00010000               -0.88629704               -0.00676276               -0.13049975                2.31048669                5.23321774               -1.21877687
               6.70725888                2.92494215               16.95018088                0.00010000               -0.49484316               -0.08069373               -0.30145237                2.02881682                4.82279566                0.54096246
               7.70353698                2.87795946               16.92449622                0.00010000               -0.35227602               -0.16028909               -0.47769702                1.50984305                4.59151721                0.57229399
               8.70021336                2.83397811               16.89611859                0.00010000               -0.05577798                0.27192793               -0.67344246                0.61038612                2.79546989                1.99706632
               9.70242142                2.78098225               16.83542137                1.00000000                0.27410356                0.32086568               -0.94526009                0.05576720                0.59242345                0.74709134
              10.70569543                2.72730273               16.76296835                1.00000000                0.32740061                0.37099220               -1.28707535               -0.02288108                0.00379322               -0.48639224
               0.80859996                4.27997067               17.18905446                1.00000000               -0.22152857               -0.28998152                0.91854694               -0.02107843                0.03862161                1.16843402
               1.80638467                4.21237471               17.10823452                1.00000000               -0.17675416               -0.18581469                0.59908614                0.00082288                0.03970003               -0.08377855
               2.80506487                4.14438924               17.02739128                0.00010000               -0.08004425               -0.08130979                0.28720800               -0.00726657                1.14609843               -1.26330329
               3.80478378                4.07581697               16.96869605                0.00010000               -0.59534186                0.18006527               -0.08808329                0.80880787                5.38555882               -1.32218671
               4.79315804                4.02765853               16.97242978                0.00010000               -1.11419106                0.14074284               -0.12850769                1.62973376                7.98271636               -1.09827576
               5.78249996                3.97618454               16.96709669                0.00010000               -1.05145753                0.22703913               -0.17144760                1.49099804                7.27050367               -0.58600120
               6.77212888                3.92585241               16.95806579                0.00010000               -0.97238984                0.18253550               -0.25464006                1.38614179                6.96085374                0.20254755
               7.76305217                3.87873767               16.94793201                0.00010000               -0.87979499                0.15371431               -0.36061329                1.34211598                6.96330487                1.10138573
               8.75453298                3.83649605               16.94025998                0.00010000               -0.35150645                0.19950990               -0.47816634                0.62644724                3.72762856                2.27904518
               9.75602204                3.78387621               16.86655380                1.00000000                0.21904304                0.25725299               -0.79349700                0.03339227                0.21461961                0.67778065
              10.75891385                3.73093337               16.78855796                1.00000000                0.28918078                0.35036600               -1.16218266               -0.02080926               -0.00083931               -0.39263086
               0.87542827                5.27720879               17.16926050                1.00000000               -0.18138162               -0.25629377                0.79122285               -0.02456955                0.10487106                1.05670058
               1.87361445                5.21073541               17.08266530                0.00010000               -0.13452513               -0.14028807                0.45303165               -0.00380539                0.18419620               -0.21970381
               2.87273777                5.14385623               16.99761697                0.00010000               -0.24405759               -0.02614530                0.12614074                0.16729665                2.29990014               -1.36859314
               3.86873330                5.07990013               16.95331710                0.00010000               -0.77629225                0.47222130               -0.47465754                0.60337234                6.95840919                0.03786772
               4.85721192                5.02982862               16.96075188                0.00010000               -1.18366880                0.29094917               -0.23632364                1.23096201                9.27299754               -0.42614883
               5.84505992                4.97878195               16.96494226                0.00010000               -1.23916681                0.31875240               -0.19487929                1.06447844                8.96937363               -0.16015552
               6.83242858                4.92859286               16.96828803                0.00010000               -1.26621317                0.32006457               -0.20313347                1.00029379                8.87142125                0.39766464
               7.81973566                4.88103375               16.97239590                0.00010000               -1.24124086                0.25027547               -0.23881444                1.03528637                8.94899392                1.12891229
               8.80760377                4.83796830               16.97900051                0.00010000               -0.55418562                0.10866487               -0.28589312                0.49764921                4.58566381                1.89358009
               9.80865195                4.78612731               16.89729276                0.00010000                0.17805724                0.20183660               -0.65721198                0.01606366                0.10881249                0.65775257
              10.81116491                4.73431005               16.81434229                1.00000000                0.25129635                0.32511358               -1.04267870               -0.02048417                0.04633004               -0.40335548
               0.94105533                6.27484479               17.14821325                1.00000000               -0.13942049               -0.21378737                0.65655615               -0.02563024                0.06922823                0.93919801
               1.93966113                6.20956895               17.05477518                0.00010000               -0.09046229               -0.09281431                0.30104827               -0.00508388                0.19623894               -0.39964963
               2.93924608                6.14386633               16.96383644                0.00010000               -0.43911454                0.02697626               -0.04160089                0.37540345                4.04195311               -1.70039801
               3.93087883                6.08526140               16.94729131                0.00010000               -1.01753169                0.48772092               -0.46797098                0.73991247                8.89612389                0.00227584
               4.91889545                6.03347751               16.95365681                0.00010000               -1.29267694                0.43039528               -0.29427198                0.99972299               10.22766638               -0.17118326
               5.90502530                5.98255959               16.96582713                0.00010000               -1.45062422                0.45113041               -0.19278935                0.86124272               10.50179286                0.05522918
               6.88988297                5.93225370               16.98000870                0.00010000               -1.53214225                0.42015563               -0.14240837                0.71811570               10.59800754                0.50153197
               7.87438245                5.88374318               16.99638282                0.00010000               -1.52452797                0.28460426               -0.11764336                0.69990777               10.74610651                1.08451992
               8.85939241                5.83866935               17.01560249                0.00010000               -0.71904428                0.03848121               -0.10865334                0.31622897                5.46168325                1.73819958
               9.86000157                5.78791294               16.92807950                0.00010000                0.13731371                0.15896704               -0.51773916                0.00444994                0.08287041                0.61518842
              10.86213868                5.73743564               16.83968235                1.00000000                0.21371158                0.29802351               -0.93962428               -0.01926808                0.04276993               -0.47095268
               1.00546736                7.27293304               17.12595766                0.00010000               -0.09761234               -0.16802173                0.51908545               -0.02507713                0.03127286                0.85325242
               2.00449123                7.20887912               17.02559553                0.00010000               -0.04569853               -0.04563616                0.14941828               -0.00473170                0.14586359               -0.48733998
               3.00455339                7.14439575               16.92748911                0.00010000               -0.52854313                0.07782203               -0.21381404                0.50851866                5.34113275               -1.89746853
               3.99392037                7.08965455               16.93102420                0.00010000               -1.23226000                0.44478196               -0.40903484                0.97076484               10.97519934               -0.69550869
               4.97990819                7.03843653               16.94678178                0.00010000               -1.52058905                0.57113267               -0.28694662                0.95683012               11.72480576               -0.21070200
               5.96350859                6.98780456               16.96758967                0.00010000               -1.71504388                0.61848474               -0.16921736                0.71318733               12.02639124                0.10953624
               6.94560731                6.93699597               16.99198970                0.00010000               -1.80952098                0.55096871               -0.07552293                0.44700290               12.24496534                0.50282227
               7.92731817                6.88672583               17.01980212                0.00010000               -1.79243593                0.33095332                0.00040552                0.30527142               12.47853522                1.01297367
               8.90975859                6.83873793               17.05129296                0.00010000               -0.86717580               -0.02214193                0.06314753                0.08918489                6.31700941                1.65052758
               9.90997465                6.78930665               16.95793276                0.00010000                0.09877753                0.11699609               -0.38035405               -0.00107280                0.05119140                0.53694219
              10.91173414                6.74027052               16.86402160                0.00010000                0.17594863                0.26666902               -0.82786276               -0.01803029                0.02884155               -0.54761268
               1.06866163                8.27148436               17.10308362                0.00010000               -0.05578488               -0.12267206                0.38190546               -0.02425686                0.01352140                0.81822868
               2.06810378                8.20865622               16.99595057                0.00010000               -0.00102993                0.00090964               -0.00075297               -0.00302114                0.06735633               -0.52003627
               3.06864103                8.14542278               16.88986566                0.00010000               -0.59252139                0.12622680               -0.38449574                0.62140110                6.44705788               -1.88890439
               4.05625335                8.09415703               16.91034061                0.00010000               -1.43794970                0.52070179               -0.41462134                1.11145766               13.05158874               -0.80244717
               5.03988204                8.04490017               16.93826667                0.00010000               -1.77618778                0.74726121               -0.27230274                0.89469528               13.42211541               -0.25612439
               6.02072960                7.99492929               16.96887813                0.00010000               -1.99901426                0.79411353               -0.13782788                0.55406914               13.59091945                0.08805428
               6.99990175                7.94327308               17.00316506                0.00010000               -2.09918373                0.73817305               -0.01041300                0.17606848               13.85366650                0.41188824
               7.97874592                7.89036225               17.04203190                0.00010000               -2.06532333                0.44648296                0.11130863               -0.17791914               14.20538548                0.84062147
               8.95859529                7.83822651               17.08611699                0.00010000               -1.01492035               -0.07540448                0.22881788               -0.20503771                7.19122353                1.50645925
               9.95844752                7.79025286               16.98703622                0.00010000                0.06275242                0.07106500               -0.24236313               -0.00704344                0.02391271                0.49617593
              10.95985034                7.74276902               16.88764886                0.00010000                0.14028180                0.23167349               -0.71656888               -0.01722630                0.01567949               -0.59636149
               1.13063849                9.27047960               17.08004033                0.00010000               -0.01460959               -0.08011011                0.24682229               -0.02342719               -0.00210728                0.68805336
               2.13049239                9.20889731               16.96612006                0.00010000                0.04210535                0.04683713               -0.14897402               -0.00106696                0.07871379               -0.45919800
               3.13148060                9.14692029               16.85379649                0.00010000               -0.69101310                0.17023218               -0.54452560                0.77949715                7.64429388               -1.33089505
               4.11667213                9.10006858               16.89122337                0.00010000               -1.72253776                0.81542553               -0.43381465                0.96328801               15.04254620               -0.47481710
               5.09702984                9.05338175               16.92954735                0.00010000               -2.02275346                0.89428335               -0.27420439                0.63216396               14.99163036               -0.16055618
               6.07621706                9.00368683               16.96921623                0.00010000               -2.16670626                0.90848692               -0.11606593                0.33187870               15.07825102                0.05027680
               7.05369572                8.95175943               17.01247452                0.00010000               -2.37053543                0.88257091                0.04294661               -0.00944348               15.38437909                0.23965812
               8.02880635                8.89565549               17.06149536                0.00010000               -2.39642465                0.76879588                0.20617050               -0.48918983               15.92366030                0.48746169
               9.00576722                8.83722984               17.11885067                0.00010000               -1.17575404               -0.10763838                0.37968193               -0.59209611                8.19046135                1.01143903
              10.00529127                8.79072795               17.01593809                0.00010000                0.02950318                0.02725665               -0.10792275               -0.01607285                0.07469631                0.42119465
              11.00635729                8.74490399               16.91081070                0.00010000                0.10660139                0.19516643               -0.60904098               -0.01728869               -0.02700505               -0.51605414
               1.19135766               10.26988216               17.05449786                0.00010000                0.02840943               -0.05974457                0.11204274                0.04299823                0.37614122                0.56556232
               2.19164176               10.20959297               16.93769912                0.00010000                0.08510225                0.06956515               -0.29100792                0.06219939                0.70307936               -0.38956091
               3.19305971               10.14882742               16.82743030                0.00010000               -1.12920537                0.19071301               -0.68083607                1.20154002                8.98072069               -0.85005326
               4.16905765               10.11046555               16.87623969                0.00010000               -2.20763194                1.03969626               -0.47729116                0.93647252               16.55426242               -0.19460571
               5.14890707               10.06278583               16.92170510                0.00010000               -2.00340784                0.94040802               -0.29993969                0.31939661               16.29118820               -0.05066565
               6.12898949               10.01309902               16.96848435                0.00010000               -2.05814222                0.94121914               -0.11266980                0.18417605               16.39414902                0.06512892
               7.10774422                9.96092450               17.01897787                0.00010000               -2.27488845                0.91650609                0.07734555                0.03680782               16.74790563                0.16911062
               8.08349172                9.90573816               17.07585448                0.00010000               -2.80316590                1.00826728                0.27441111               -0.77400067               17.44546428                0.31325562
               9.05168091                9.83607374               17.14364192                0.00010000               -1.65199072               -0.11560957                0.48628462               -1.15564034                9.37387356                0.62562346
              10.05045191                9.79079799               17.04338364                0.00010000               -0.02642119                0.00700419                0.01329081                0.04599402                0.61375479                0.35834586
              11.05115248                9.74667235               16.93583496                0.00010000                0.07005732                0.17683614               -0.50010069                0.06695544                0.26040508               -0.41193827
               0.58899622                0.32523780               18.28173450                1.00000000               -0.35825084               -0.39175498                1.37040045               -0.07152472               -0.70264940                0.74115285
               1.58541371                0.24778921               18.21650172                1.00000000               -0.29570559               -0.31305964                1.09863140               -0.05733450               -0.88410586                0.04794579
               2.58308211                0.17018272               18.14756346                1.00000000               -0.15889346               -0.23621687                0.81274102               -0.03828976               -0.82168513               -0.20406579
               3.58223584                0.09375301               18.08352605                1.00000000                0.31532555               -0.18569185                0.53762655                0.48633662                0.15458450               -0.56226063
               4.58938862                0.02951225               18.03411108                0.00010000                0.46382740               -0.06823417                0.24374964               -0.06083625                0.68793383                0.12587694
               5.59151239               -0.02590628               17.98090894                0.00010000                0.14466838                0.02213563               -0.06371018                0.00392772                0.30057511                0.07083406
               6.59228199               -0.07991063               17.92382734                0.00010000                0.05064841                0.10542130               -0.36580186                0.00921756                0.11486931               -0.04619764
               7.59252536               -0.13496864               17.86686514                0.00010000                0.05756398                0.19981466               -0.67729689                0.04162813               -0.11014821                0.05138125
               8.59343327               -0.19350625               17.80512360                1.00000000                0.18532066                0.30446985               -0.98384184                0.02847783               -0.48077174                0.41119975
               9.59623177               -0.25439756               17.74064065                1.00000000                0.34587428                0.37418311               -1.28250109               -0.04682530               -0.58678212                0.01288994
              10.60035075               -0.31553106               17.67683674                1.00000000                0.41189801                0.45488445               -1.56578004               -0.06957401               -0.55882593               -0.57803410
               0.66572956                1.32132025               18.25691161                1.00000000               -0.33616530               -0.36990983                1.24645151               -0.03179710               -0.09139504                1.00901082
               1.66236790                1.24465862               18.19126288                1.00000000               -0.30061228               -0.29040326                0.97419576               -0.01463930               -0.05487862                0.07022260
               2.65971731                1.16782056               18.12628842                1.00000000               -0.24667282               -0.21409783                0.69917329                0.02732135                0.17037604               -0.56243935
               3.65743445                1.09189610               18.06512950                1.00000000               -0.55537035               -0.17781580                0.43762125                0.69340548                1.61872278               -0.96844013
               4.64860990                1.02882991               18.02918400                0.00010000               -0.55856690                0.06243279                0.19780733               -0.05204813                2.30912239                0.91762847
               5.64626311                0.97431508               17.98197970                0.00010000               -0.08522803                0.08702976               -0.08367531                0.21436280                1.51343221                0.35501416
               6.64690534                0.92114358               17.93019555                0.00010000                0.17381691                0.03583241               -0.36522581                0.24456737                1.37976977               -0.38198121
               7.64973945                0.86702951               17.88049219                0.00010000                0.32635800                0.19618421               -0.63570301                0.31762039                1.34600447                0.58299177
               8.65343250                0.80953845               17.82837744                1.00000000                0.35182387                0.28462348               -0.90511264                0.13807552                0.68847649                0.58326977
               9.65677593                0.74934427               17.76580629                1.00000000                0.36780052                0.36172228               -1.18593228                0.00021556                0.09894235                0.08447768
              10.66078851                0.68901779               17.70199019                1.00000000                0.40125888                0.43441371               -1.46853938               -0.02474968                0.03212407               -0.68531802
               0.74168354                2.31783960               18.23736634                1.00000000               -0.30629202               -0.33397863                1.13803421               -0.02335334                0.03361620                1.29054503
               1.73862062                2.24198115               18.16642099                1.00000000               -0.26462402               -0.25252226                0.85272127                0.00255151                0.15233590                0.04740957
               2.73639106                2.16590077               18.09781954                1.00000000               -0.17630082               -0.18239011                0.56656901                0.05904587                0.73470318               -1.21906513
               3.73509460                2.09019670               18.03853452                0.00010000               -1.52311909               -0.17467663                0.28394346                0.98821483                4.22835731               -1.75768199
               4.70592868                2.03076090               18.04002691                0.00010000               -1.58043137                0.19375571                0.18182927                1.89284617                4.58408195               -1.18872952
               5.70348597                1.97583432               17.98869564                0.00010000               -0.07348854               -0.04224163               -0.09756627                1.62873816                1.57534180               -0.46602009
               6.70445891                1.92080601               17.92985403                0.00010000                0.34984606               -0.15523370               -0.36325413                1.42239904                2.88004087                0.17963870
               7.71048290                1.86895504               17.90478479                0.00010000                0.47105520               -0.10642964               -0.59642963                0.99052956                3.28134850                0.64485114
               8.71388001                1.81218622               17.85516598                0.00010000                0.31369266                0.27665592               -0.80819022                0.24349696                1.39461071                1.12852023
               9.71675675                1.75283689               17.79250050                1.00000000                0.33143629                0.34899606               -1.08372233                0.04179355                0.50529872                0.49627286
              10.72050874                1.69315722               17.72510571                1.00000000                0.37519864                0.39825215               -1.38366291               -0.01178498                0.26627651               -0.69405632
               0.81697939                3.31464067               18.21809984                1.00000000               -0.26216268               -0.31007824                1.02732778               -0.01589947                0.04285518                1.27551190
               1.81435777                3.23960817               18.14068204                1.00000000               -0.21483570               -0.22205880                0.72655878                0.00741349                0.05213580               -0.03212445
               2.81268268                3.16417275               18.06341361                1.00000000               -0.10095795               -0.14221082                0.42980154                0.01615308                0.96360216               -1.45275047
               3.81233861                3.08840256               18.00421113                0.00010000               -0.59267347               -0.11431380                0.13663304                1.05510216                4.25345779               -2.23176131
               4.80082921                3.03270502               17.99319270                0.00010000               -1.17729228                0.11898620                0.01820118                2.72632596                6.18552131               -2.84427019
               5.78879276                2.97347024               17.97336298                0.00010000               -0.92983071               -0.02533783               -0.13283128                2.29598801                5.39388972               -1.22590098
               6.78223260                2.91803891               17.94716476                0.00010000               -0.53114654               -0.10010917               -0.30310903                2.00200107                4.97882854                0.59261608
               7.77816983                2.86490091               17.91971658                0.00010000               -0.39059991               -0.16717220               -0.47933785                1.49668531                4.73958742                0.65418288
               8.77442060                2.81507157               17.88936628                0.00010000               -0.07645146                0.26384674               -0.67827977                0.59386256                2.90271529                2.08862134
               9.77664080                2.75632420               17.82596608                1.00000000                0.27457809                0.31728458               -0.94695719                0.05119866                0.62898358                0.78977186
              10.77991216                2.69698283               17.75011154                1.00000000                0.32713574                0.37542051               -1.28548993               -0.02153550                0.00669611               -0.50279862
               0.89143055                4.31163804               18.19818585                1.00000000               -0.21937444               -0.28627050                0.90802238               -0.01980916                0.04541045                1.18857244
               1.88923681                4.23753997               18.11420939                1.00000000               -0.17554122               -0.18504057                0.59563493                0.00234637                0.05055574               -0.09600106
               2.88791973                4.16305655               18.03029291                0.00010000               -0.07862159               -0.08350988                0.29212084               -0.00976066                1.12858932               -1.30474404
               3.88766438                4.08791042               17.96787159                0.00010000               -0.62661074                0.15716576               -0.06527023                0.80679018                5.47562602               -1.48247277
               4.87538751                4.03314063               17.97119833                0.00010000               -1.17962637                0.12746413               -0.12072924                1.62181853                8.25584329               -1.16213299
               5.86407185                3.97532756               17.96538773                0.00010000               -1.11596285                0.22368893               -0.17216825                1.48288201                7.53962603               -0.58918462
               6.85306826                3.91880383               17.95551549                0.00010000               -1.03439562                0.17640861               -0.25664932                1.36649549                7.21296193                0.24963117
               7.84338394                3.86561160               17.94430914                0.00010000               -0.93671395                0.14996056               -0.36518356                1.31389299                7.20642156                1.18451697
               8.83433398                3.81746316               17.93542930                0.00010000               -0.37572377                0.18901166               -0.48890071                0.60676259                3.87664948                2.39767288
               9.83586946                3.75918258               17.85862524                1.00000000                0.22133894                0.25461931               -0.79974609                0.03022801                0.24447759                0.71869958
              10.83876076                3.70066563               17.77698434                1.00000000                0.28912952                0.35447181               -1.16037634               -0.01950516                0.00533692               -0.39887384
               0.96477934                5.30891526               18.17711745                1.00000000               -0.17931580               -0.25183355                0.78028180               -0.02400018                0.10810773                1.06821844
               1.96298618                5.23590736               18.08717074                0.00010000               -0.13311596               -0.13961362                0.44824001               -0.00284693                0.19306684               -0.24192866
               2.96211702                5.16250256               17.99888058                0.00010000               -0.22979220               -0.02848957                0.12725662                0.14525561                2.18172564               -1.42301515
               3.95839033                5.09154588               17.94869611                0.00010000               -0.81342868                0.44823523               -0.43108651                0.59436373                7.10032798               -0.04843030
               4.94584844                5.03525430               17.95838440                0.00010000               -1.28015678                0.29452622               -0.23779592                1.24006160                9.75082302               -0.45385233
               5.93278720                4.97794402               17.96298543                0.00010000               -1.32849894                0.32884184               -0.19695963                1.05187428                9.34385318               -0.14484038
               6.91927846                4.92156708               17.96624423                0.00010000               -1.34994168                0.32860266               -0.20664829                0.97301109                9.21876450                0.44940723
               7.90578837                4.86790012               17.96997816                0.00010000               -1.31467980                0.25337165               -0.24597415                0.99977177                9.28699778                1.21308197
               8.89298487                4.81885180               17.97607839                0.00010000               -0.58727362                0.10313665               -0.29990775                0.47239895                4.77004275                2.00517352
               9.89404289                4.76141658               17.89072774                0.00010000                0.17855477                0.20266369               -0.66123480                0.01238028                0.12762949                0.69199853
              10.89655596                4.70407227               17.80394283                1.00000000                0.25130712                0.32910461               -1.04630913               -0.01879700                0.05874594               -0.42260207
               1.03696636                6.30660136               18.15472303                1.00000000               -0.13737782               -0.20874053                0.64538992               -0.02487608                0.06972691                0.94491613
               2.03559258                6.23474770               18.05776235                0.00010000               -0.08900168               -0.09231390                0.29652942               -0.00347511                0.20319361               -0.42344012
               3.03518632                6.16248676               17.96342912                0.00010000               -0.43963378                0.02368400               -0.03964482                0.35538684                3.99693021               -1.75729117
               4.02679990                6.09687513               17.94232888                0.00010000               -1.06978612                0.50210147               -0.51466819                0.70671160                9.13702224                0.10867499
               5.01379060                6.03903115               17.95065223                0.00010000               -1.40016713                0.45195280               -0.30406811                1.00266356               10.75205554               -0.14330130
               5.99879656                5.98190440               17.96387117                0.00010000               -1.56091124                0.47682441               -0.19849061                0.83876975               10.96272101                0.09196853
               6.98257238                5.92537588               17.97856039                0.00010000               -1.63509570                0.44116099               -0.14810143                0.67787845               11.02998640                0.55852312
               7.96609465                5.87067903               17.99516375                0.00010000               -1.61534385                0.29575462               -0.12740772                0.64948433               11.16845256                1.16507590
               8.95026550                5.81952589               18.01444282                0.00010000               -0.75990214                0.03783767               -0.12481655                0.28361440                5.68015211                1.83951737
               9.95089660                5.76323585               17.92282765                0.00010000                0.14039748                0.16384998               -0.53403090                0.00210935                0.08851521                0.65177814
              10.95307345                5.70724772               17.83021469                1.00000000                0.21768448                0.30514375               -0.95505670               -0.01773094                0.04310645               -0.49273003
               1.10798914                7.30474045               18.13109575                0.00010000               -0.09578628               -0.16334851                0.50846979               -0.02427217                0.03115349                0.85742046
               2.10703128                7.23406108               18.02707548                0.00010000               -0.04459079               -0.04542794                0.14638194               -0.00300474                0.14908654               -0.50919426
               3.10709733                7.16297624               17.92537633                0.00010000               -0.55255534                0.07354714               -0.20931306                0.50845698                5.41579035               -1.95346298
               4.09598017                7.10158791               17.92668457                0.00010000               -1.31124412                0.47850696               -0.45808000                0.95499076               11.31853519               -0.57767658
               5.08087245                7.04429336               17.94381148                0.00010000               -1.63811560                0.60898943               -0.30598399                0.95107294               12.25066803               -0.14504915
               6.06321786                6.98748051               17.96585583                0.00010000               -1.84055243                0.65902967               -0.17764227                0.68241891               12.54184565                0.15931346
               7.04406140                6.93039030               17.99119885                0.00010000               -1.92949077                0.58500407               -0.08354125                0.39279086               12.74878447                0.55920334
               8.02462805                6.87381522               18.01974933                0.00010000               -1.89805308                0.35075685               -0.01223330                0.23756427               12.97850226                1.08614600
               9.00610034                6.81960856               18.05182366                0.00010000               -0.91323975               -0.01944332                0.04177752                0.04933314                6.57147801                1.74548885
              10.00636325                6.76469358               17.95402681                0.00010000                0.10386407                0.12358601               -0.40152903               -0.00181533                0.05372704                0.57555297
              11.00817762                6.71017514               17.85564084                0.00010000                0.18143651                0.27640281               -0.84897902               -0.01700634                0.03030447               -0.56204353
               1.17783966                8.30333439               18.10685527                0.00010000               -0.05429535               -0.11891397                0.37230495               -0.02355495                0.01310337                0.82357596
               2.17729670                8.23383914               17.99593928                0.00010000               -0.00055088                0.00088563               -0.00194069               -0.00172432                0.06665835               -0.53956152
               3.17782864                8.16395770               17.88606292                0.00010000               -0.63570540                0.12183332               -0.37703228                0.64279295                6.61164297               -1.93714182
               4.16458260                8.10644527               17.90605587                0.00010000               -1.54545910                0.55934933               -0.44336203                1.12873760               13.50033816               -0.72167796
               5.14691946                8.05121094               17.93546918                0.00010000               -1.91172968                0.79959594               -0.28745518                0.89505371               13.97805071               -0.19509218
               6.12634800                7.99508499               17.96745624                0.00010000               -2.14129847                0.84840060               -0.14712819                0.52289924               14.15162365                0.13372236
               7.10409349                7.93707597               18.00301632                0.00010000               -2.23601638                0.78806002               -0.02039428                0.11521191               14.42086470                0.45765010
               8.08162767                7.87769417               18.04307244                0.00010000               -2.18598448                0.47798503                0.09542752               -0.26391090               14.78060703                0.89952320
               9.06037380                7.81913702               18.08827981                0.00010000               -1.06669803               -0.06990689                0.20237167               -0.25681374                7.48549037                1.59123202
              10.06029371                7.76570757               17.98448726                0.00010000                0.06982029                0.07848684               -0.26826300               -0.00809550                0.02582163                0.53295154
              11.06177020                7.71277578               17.88035452                0.00010000                0.14764907                0.24204460               -0.74265869               -0.01599173                0.01646971               -0.61295687
               1.24650855                9.30236217               18.08246747                0.00010000               -0.01350646               -0.07722466                0.23840731               -0.02289776               -0.00330875                0.69475749
               2.24637349                9.23407880               17.96463791                0.00010000                0.04192561                0.04647684               -0.14814082               -0.00035455                0.07804794               -0.47424060
               3.24734706                9.16541290               17.84841076                0.00010000               -0.75358992                0.16624210               -0.53395822                0.82505278                7.88997876               -1.36113810
               4.23130169                9.11277489               17.88684463                0.00010000               -1.86066335                0.87086887               -0.44302099                0.99794076               15.58415412               -0.41840848
               5.21013380                9.06028528               17.92676617                0.00010000               -2.17454327                0.95519378               -0.28292269                0.63872042               15.58325591               -0.12613900
               6.18781082                9.00444852               17.96801737                0.00010000               -2.31886706                0.97142786               -0.12469851                0.31147113               15.68767588                0.07624782
               7.16375645                8.94615150               18.01285181                0.00010000               -2.52610257                0.94562654                0.03126586               -0.05670598               16.01195147                0.26461548
               8.13728877                8.88337492               18.06346965                0.00010000               -2.54028995                0.82747647                0.18727529               -0.56957455               16.57283405                0.52134924
               9.11295066                8.81821042               18.12249637                0.00010000               -1.23630902               -0.09823736                0.34782398               -0.65985683                8.53052976                1.06702220
              10.11256259                8.76626332               18.01470698                0.00010000                0.03853627                0.03642810               -0.13931889               -0.01790022                0.08124837                0.44926773
              11.11372138                8.71501603               17.90456320                0.00010000                0.11587908                0.20597184               -0.64075929               -0.01601435               -0.02697112               -0.53427648
               1.31394846               10.30178990               18.05558455                0.00010000                0.02904252               -0.05722734                0.10492796                0.04186860                0.37963202                0.57263191
               2.31423888               10.23476868               17.93480682                0.00010000                0.08425685                0.06898826               -0.28837625                0.06117206                0.71356655               -0.40107672
               3.31563360               10.16728254               17.82069104                0.00010000               -1.22849253                0.18696427               -0.66858228                1.28335161                9.28962987               -0.86786491
               4.28966903               10.12386264               17.87147371                0.00010000               -2.38066797                1.10877488               -0.47704042                0.98834828               17.17678607               -0.16213849
               5.26802024               10.07031482               17.91868337                0.00010000               -2.14789147                1.00295386               -0.30554733                0.32118931               16.93166277               -0.03653162
               6.24671120               10.01451355               17.96732142                0.00010000               -2.19936319                1.00650236               -0.12111845                0.17372228               17.06028489                0.07510627
               7.22403297                9.95598850               18.01969033                0.00010000               -2.42669712                0.98369988                0.06382278                0.01415952               17.43398870                0.17884351
               8.19817726                9.89424370               18.07849383                0.00010000               -2.98723564                1.08687814                0.25214585               -0.85196182               18.15482863                0.32819923
               9.16428826                9.81717228               18.14832247                0.00010000               -1.75235839               -0.10381419                0.44822737               -1.25661761                9.76650889                0.65975316
              10.16313009                9.76643614               18.04333214                0.00010000               -0.01718862                0.01728179               -0.02460824                0.04289723                0.64804615                0.38006899
              11.16394449                9.71689521               17.93064164                0.00010000                0.08143936                0.18791789               -0.53870554                0.06821829                0.27455928               -0.42971628
               0.64844847                0.35820515               19.29536891                1.00000000               -0.35464463               -0.38806824                1.35707888               -0.06998006               -0.72570557                0.76399536
               1.64490202                0.27414400               19.22743732                1.00000000               -0.29266153               -0.31094800                1.08938394               -0.05460631               -0.91562988                0.05085140
               2.64259524                0.18995965               19.15565451                1.00000000               -0.15771109               -0.23426237                0.80535823               -0.03531981               -0.85818766               -0.21125651
               3.64174780                0.10697044               19.08885955                1.00000000                0.31022965               -0.17738860                0.52994263                0.47576539                0.11377128               -0.57588111
               4.64879983                0.03598568               19.03652273                0.00010000                0.45761826               -0.06605942                0.23914201               -0.07022333                0.63575762                0.13542817
               5.65090017               -0.02614080               18.98027022                0.00010000                0.14487545                0.02400956               -0.06354263                0.00097213                0.24630201                0.07695478
               6.65169734               -0.08676715               18.92019996                0.00010000                0.05617818                0.10506603               -0.35945467                0.00880234                0.05890516               -0.05038442
               7.65202373               -0.14826594               18.86015175                0.00010000                0.06459977                0.19820045               -0.66543984                0.03793416               -0.16861993                0.05670509
               8.65298934               -0.21298801               18.79536633                1.00000000                0.18687908                0.29978564               -0.96770386                0.02457988               -0.53291600                0.42215939
               9.65576131               -0.27992693               18.72791414                1.00000000                0.34158824                0.36930135               -1.26284687               -0.04566143               -0.62701993                0.01121853
              10.65982110               -0.34710993               18.66129586                1.00000000                0.40597893                0.44950789               -1.54250444               -0.06699222               -0.59113601               -0.60942244
               0.73180982                1.35432447               19.26931639                1.00000000               -0.33311063               -0.36662499                1.23464961               -0.03105220               -0.09452367                1.03873204
               1.72847871                1.27103452               19.20096704                1.00000000               -0.29904975               -0.28846801                0.96667747               -0.01224180               -0.05856873                0.07470719
               2.72582882                1.18761702               19.13327239                1.00000000               -0.24931351               -0.21321056                0.69969922                0.03396955                0.17443297               -0.58174866
               3.72349244                1.10519655               19.06956465                1.00000000               -0.55878019               -0.16450489                0.44535555                0.67733653                1.63668698               -1.01589212
               4.71465322                1.03532508               19.03115985                0.00010000               -0.56030697                0.05913913                0.19422360               -0.08182831                2.31900657                0.93724510
               5.71228630                0.97409929               18.98113756                0.00010000               -0.09026417                0.08784568               -0.08586869                0.19782905                1.50899574                0.36220315
               6.71284794                0.91428351               18.92655380                0.00010000                0.16136005                0.04285032               -0.36385338                0.23509668                1.38349837               -0.38536424
               7.71551350                0.85371606               18.87416602                0.00010000                0.31088457                0.19410129               -0.63016585                0.29544422                1.35659078                0.58687902
               8.71906563                0.79000984               18.81937119                1.00000000                0.34260781                0.28135343               -0.89656025                0.12926211                0.69398839                0.60318706
               9.72236566                0.72376609               18.75400859                1.00000000                0.36342808                0.35757444               -1.17401547                0.00057782                0.09833652                0.08555679
              10.72633419                0.65738514               18.68738480                1.00000000                0.39685291                0.43104942               -1.45298219               -0.02277181                0.03105460               -0.72279429
               0.81440732                2.35087265               19.24869326                1.00000000               -0.30426871               -0.33126601                1.12693882               -0.02276062                0.03748933                1.32491687
               1.81136463                2.26837464               19.17492518                1.00000000               -0.26473593               -0.25068536                0.84718002                0.00447933                0.15592896                0.04944428
               2.80911260                2.18569544               19.10344673                1.00000000               -0.18890783               -0.18314919                0.56715002                0.07725931                0.74264898               -1.24972589
               3.80758647                2.10368034               19.04138898                0.00010000               -1.54260374               -0.14350149                0.30831846                0.95485397                4.32916799               -1.83973976
               4.77826052                2.03716846               19.04177521                0.00010000               -1.58440767                0.18159298                0.16084396                1.84129731                4.70579124               -1.21900813
               5.77589832                1.97561611               18.98767469                0.00010000               -0.07390084               -0.05341123               -0.10688532                1.59873384                1.61622493               -0.46420970
               6.77678251                1.91408986               18.92621543                0.00010000                0.31539797               -0.15752456               -0.36556388                1.38169402                2.94179570                0.20634016
               7.78220628                1.85561608               18.89881576                0.00010000                0.43710225               -0.10986451               -0.59825474                0.95814544                3.36989984                0.68892041
               8.78552455                1.79263906               18.84708994                0.00010000                0.30956443                0.27386854               -0.80778338                0.22805116                1.46155313                1.17440318
               9.78839757                1.72722456               18.78168691                1.00000000                0.33014999                0.34434336               -1.07966352                0.03810867                0.52883384                0.51716612
              10.79212755                1.66151105               18.71131169                1.00000000                0.37299835                0.39914887               -1.37580472               -0.01113862                0.27825133               -0.73105786
               0.89635062                3.34769915               19.22832413                1.00000000               -0.26051114               -0.30740688                1.01686094               -0.01514490                0.04722733                1.30234924
               1.89374551                3.26602081               19.14792260                1.00000000               -0.21411565               -0.22043295                0.72185620                0.00894939                0.05887621               -0.03594160
               2.89206831                3.18395404               19.06770578                1.00000000               -0.13145065               -0.14340211                0.42810278                0.05837842                0.97179439               -1.48044790
               3.89111650                3.10232652               19.00557499                0.00010000               -0.62624580               -0.09989004                0.14158101                1.04036593                4.32579677               -2.29693545
               4.87954339                3.03895694               18.99336600                0.00010000               -1.18884580                0.10278578                0.00948395                2.66013949                6.35222534               -2.93211284
               5.86733958                2.97303107               18.97200939                0.00010000               -0.95307741               -0.04188538               -0.13923281                2.26265399                5.55344716               -1.22738786
               6.86048185                2.91113302               18.94411870                0.00010000               -0.56061857               -0.11621460               -0.30683867                1.95859518                5.13225260                0.64746207
               7.85612721                2.85151877               18.91490946                0.00010000               -0.42318379               -0.17248228               -0.48313171                1.47073503                4.88184099                0.73951736
               8.85201817                2.79548722               18.88255299                0.00010000               -0.09356876                0.25491679               -0.68529852                0.56797552                3.00596119                2.18103114
               9.85425584                2.73065296               18.81648223                1.00000000                0.27601324                0.31319847               -0.95118561                0.04199433                0.66463452                0.83124273
              10.85753843                2.66536812               18.73725855                1.00000000                0.32825987                0.38067752               -1.28632457               -0.01974243                0.00859800               -0.51931651
               0.97746109                4.34472451               19.20721491                1.00000000               -0.21723608               -0.28315820                0.89741869               -0.01919269                0.05367708                1.20578042
               1.97528873                4.26396598               19.12014722                1.00000000               -0.17433134               -0.18384666                0.59152952                0.00350147                0.06362696               -0.10981987
               2.97397446                4.18282739               19.03323370                0.00010000               -0.09489171               -0.08471615                0.29526889                0.02475825                1.12509277               -1.34607232
               3.97339089                4.10168254               18.96739065                0.00010000               -0.66078460                0.10738588               -0.02789356                0.82581614                5.57159522               -1.63935699
               4.96075877                4.03922417               18.97001519                0.00010000               -1.22077835                0.11703658               -0.11952065                1.57457659                8.51610088               -1.23164250
               5.94897532                3.97477840               18.96365333                0.00010000               -1.16460290                0.21853161               -0.17492879                1.46394816                7.80424764               -0.58692002
               6.93746671                3.91176556               18.95293281                0.00010000               -1.08542700                0.17015416               -0.26076908                1.33586659                7.46056509                0.30125681
               7.92726678                3.85216644               18.94062834                0.00010000               -0.98584152                0.14610050               -0.37199333                1.27430351                7.44212547                1.27120903
               8.91774988                3.79773739               18.93048197                0.00010000               -0.39551177                0.17855215               -0.50207373                0.57794823                4.01965622                2.51940911
               9.91935655                3.73348853               18.85055888                1.00000000                0.22762457                0.25559569               -0.81909627                0.02357423                0.27427223                0.76584986
              10.92230237                3.66912460               18.76535044                1.00000000                0.29458216                0.36297693               -1.17417883               -0.01783125                0.01600069               -0.40575768
               1.05748383                5.34203598               19.18486614                1.00000000               -0.17711703               -0.24798481                0.76912228               -0.02370272                0.11128451                1.07732089
               2.05571266                5.26234388               19.09163010                0.00010000               -0.13184559               -0.13852846                0.44367887               -0.00230412                0.20204718               -0.26570587
               3.05484692                5.18225972               19.00016210                0.00010000               -0.22383090               -0.03013167                0.12944888                0.13870306                2.09082197               -1.47896609
               4.05123604                5.10447424               18.94469537                0.00010000               -0.84539282                0.38819465               -0.37560823                0.60216173                7.25655853               -0.18917654
               5.03793906                5.04129767               18.95599596                0.00010000               -1.35794420                0.29801160               -0.23710968                1.22814805               10.19875515               -0.48664287
               6.02407716                4.97740170               18.96100307                0.00010000               -1.40639581                0.33750774               -0.19947092                1.03173305                9.71380420               -0.12646735
               7.00981114                4.91453610               18.96415506                0.00010000               -1.42178521                0.33519891               -0.21186179                0.93812452                9.55965069                0.50539683
               7.99564145                4.85444078               18.96747642                0.00010000               -1.37780529                0.25535430               -0.25557930                0.95622245                9.61659372                1.30138975
               8.98225504                4.79905826               18.97300235                0.00010000               -0.61506719                0.09885178               -0.31668649                0.44528788                4.95181023                2.12157447
               9.98334011                4.73576487               18.88406806                0.00010000                0.18273134                0.20804482               -0.67849085                0.01064254                0.14733652                0.73397628
              10.98590966                4.67262766               18.79341611                1.00000000                0.25695570                0.33792114               -1.06747872               -0.01750320                0.06809053               -0.44117889
               1.13637124                6.33976481               19.16112105                1.00000000               -0.13523275               -0.20433847                0.63404977               -0.02458319                0.07008253                0.94909946
               2.13501891                6.26119541               19.06070577                0.00010000               -0.08765375               -0.09127890                0.29208548               -0.00301646                0.20993391               -0.44743189
               3.13461816                6.18222476               18.96304354                0.00010000               -0.43113697                0.02164883               -0.03748957                0.33321017                3.92875004               -1.81307717
               4.12639617                6.10944643               18.93699795                0.00010000               -1.11119471                0.49498888               -0.54334676                0.67897653                9.36167249                0.16113152
               5.11239427                6.04518441               18.94757544                0.00010000               -1.50123061                0.47104631               -0.30972528                0.99466770               11.28465803               -0.12003565
               6.09637156                5.98152856               18.96185732                0.00010000               -1.66020734                0.50020305               -0.20381141                0.80830541               11.41831184                0.13041629
               7.07919012                5.91846954               18.97704667                0.00010000               -1.72512403                0.45940070               -0.15530758                0.63116570               11.45487231                0.61898868
               8.06186908                5.85727352               18.99383466                0.00010000               -1.69292857                0.30496369               -0.13963119                0.59334203               11.58226474                1.24959364
               9.04533155                5.79971443               19.01310616                0.00010000               -0.79345396                0.03762255               -0.14462388                0.25157692                5.89433211                1.94511650
              10.04600000                5.73764943               18.91739888                0.00010000                0.14475872                0.16966158               -0.55313858                0.00302549                0.09479790                0.69009863
              11.04822672                5.67588303               18.82058121                1.00000000                0.22267259                0.31310784               -0.97286021               -0.01651454                0.04485923               -0.51181341
               1.21413097                7.33794921               19.13612705                0.00010000               -0.09385866               -0.15903300                0.49759377               -0.02386903                0.03102001                0.86081125
               2.21319238                7.26051830               19.02852317                0.00010000               -0.04354351               -0.04464240                0.14297785               -0.00230638                0.15219370               -0.53051764
               3.21326010                7.18269269               18.92330285                0.00010000               -0.56682296                0.07103763               -0.20569130                0.49974275                5.46045487               -2.00731608
               4.20185592                7.11437402               18.92186260                0.00010000               -1.37549064                0.50584925               -0.50284678                0.92417985               11.64191632               -0.45387881
               5.18575029                7.05071860               18.94066210                0.00010000               -1.74488978                0.64296112               -0.32183340                0.93400830               12.78715743               -0.08104926
               6.16695813                6.98740576               18.96403682                0.00010000               -1.95303966                0.69568140               -0.18595888                0.64244472               13.05465105                0.21071758
               7.14668949                6.92372412               18.99031887                0.00010000               -2.03473613                0.61517917               -0.09319993                0.33235086               13.24496368                0.61830703
               8.12626341                6.86054005               19.01955745                0.00010000               -1.98894118                0.36794377               -0.02747322                0.16560431               13.46882854                1.16251537
               9.10691067                6.79981071               19.05212851                0.00010000               -0.95156937               -0.01679915                0.01777326                0.00883901                6.82146975                1.84289121
              10.10723202                6.73915810               18.94990218                0.00010000                0.11007534                0.12911473               -0.42428471               -0.00158236                0.05653956                0.61692794
              11.10911218                6.67888982               18.84704202                0.00010000                0.18801588                0.28522475               -0.87120511               -0.01590464                0.03177157               -0.57406914
               1.29075568                8.33658415               19.11052972                0.00010000               -0.05263762               -0.11518717                0.36232385               -0.02313524                0.01275029                0.82846220
               2.29022930                8.26030256               18.99591176                0.00010000                0.00008121                0.00133335               -0.00394329               -0.00104782                0.06606954               -0.55826162
               3.29075730                8.18364551               18.88232502                0.00010000               -0.66877203                0.11883582               -0.37124222                0.65371011                6.75403270               -1.98285956
               4.27685386                8.11956342               18.90147337                0.00010000               -1.63573065                0.59542815               -0.47186414                1.12709938               13.92897293               -0.62117180
               5.25804269                8.05804363               18.93251757                0.00010000               -2.03194622                0.84630918               -0.30210566                0.88253482               14.53515924               -0.12863883
               6.23621494                7.99544219               18.96593556                0.00010000               -2.26699218                0.89704234               -0.15715797                0.48281576               14.70728606                0.18123493
               7.21270284                7.93077313               19.00275718                0.00010000               -2.35601836                0.83268061               -0.03235908                0.04915964               14.97936348                0.50541900
               8.18909457                7.86463240               19.04394045                0.00010000               -2.29062808                0.50605152                0.07678315               -0.35198058               15.34477477                0.96100347
               9.16689028                7.79937845               19.09016442                0.00010000               -1.11026633               -0.06415410                0.17301206               -0.30854299                7.77467013                1.67787778
              10.16688924                7.74023172               18.98167096                0.00010000                0.07774568                0.08551577               -0.29586084               -0.00867673                0.02822815                0.57163203
              11.16844520                7.68158752               18.87279569                0.00010000                0.15559548                0.25207603               -0.76930644               -0.01475805                0.01735162               -0.62753118
               1.36623145                9.33564547               19.08480847                0.00010000               -0.01213774               -0.07417630                0.22943414               -0.02254490               -0.00435553                0.70112163
               2.36611007                9.26054497               18.96315725                0.00010000                0.04210014                0.04655228               -0.14857663                0.00006222                0.07771891               -0.48850697
               3.36707345                9.18506941               18.84311732                0.00010000               -0.80551368                0.16320211               -0.52569440                0.85828626                8.12170599               -1.38954391
               4.34999980                9.12628258               18.88236295                0.00010000               -1.97756179                0.92006005               -0.45321773                1.01612764               16.10732690               -0.34800783
               5.32752221                9.06764478               18.92388890                0.00010000               -2.30574242                1.00885900               -0.29265830                0.63569765               16.16667029               -0.08736491
               6.30388495                9.00534661               18.96672226                0.00010000               -2.45198693                1.02754362               -0.13494220                0.28531188               16.28822058                0.10359930
               7.27848248                8.94037773               19.01309984                0.00010000               -2.66332365                1.00255945                0.01724869               -0.10683923               16.62896765                0.29060874
               8.25061847                8.87066109               19.06524087                0.00010000               -2.66709949                0.88106859                0.16561270               -0.64942536               17.20905308                0.55717853
               9.22514049                8.79852763               19.12580715                0.00010000               -1.28845337               -0.08809201                0.31259769               -0.72550882                8.86436336                1.12399125
              10.22484941                8.74086842               19.01315171                0.00010000                0.04824667                0.04586589               -0.17272742               -0.01959369                0.08843253                0.47836920
              11.22610542                8.68393134               18.89799552                0.00010000                0.12560119                0.21668094               -0.67288259               -0.01473419               -0.02669424               -0.55166302
               1.44050578               10.33510063               19.05659642                0.00010000                0.03008255               -0.05448405                0.09692810                0.04073131                0.38321122                0.57945459
               2.44080660               10.26123361               18.93193160                0.00010000                0.08398178                0.06886408               -0.28745587                0.06009980                0.72403960               -0.41198741
               3.44218541               10.18690955               18.81405865                0.00010000               -1.31027827                0.18401453               -0.65900853                1.34774691                9.58796781               -0.88470599
               4.41460104               10.13796462               18.86669889                0.00010000               -2.52464012                1.16820377               -0.47848105                1.02568701               17.78163489               -0.12144457
               5.39169261               10.07822081               18.91559415                0.00010000               -2.27064053                1.05760258               -0.31286674                0.31846190               17.55893848               -0.02035620
               6.36918823               10.01599306               18.96606198                0.00010000               -2.32205144                1.06464506               -0.13164819                0.16050337               17.71437159                0.08537991
               7.34525158                9.95082431               19.02025432                0.00010000               -2.56160337                1.04465868                0.04780692               -0.01005365               18.10677815                0.18856950
               8.31795616                9.88225377               19.08089740                0.00010000               -3.15394041                1.15926853                0.22737787               -0.92661681               18.84793013                0.34368220
               9.28217277                9.79761661               19.15260647                0.00010000               -1.84312520               -0.09110223                0.40691881               -1.35200748               10.15152214                0.69501950
              10.28109366                9.74114904               19.04289147                0.00010000               -0.00740535                0.02806255               -0.06444434                0.03965179                0.68288505                0.40236478
              11.28202467                9.68592114               18.92506085                0.00010000                0.09310111                0.19898030               -0.57735896                0.06913488                0.28887657               -0.44737446
               0.71034528                0.39262274               20.30887608                1.00000000               -0.35297753               -0.38522047                1.34568336               -0.06834630               -0.74826416                0.78582322
               1.70681551                0.30174679               20.23828940                1.00000000               -0.29245811               -0.30818926                1.08172848               -0.05254390               -0.94871308                0.05296892
               2.70449612                0.21072183               20.16367062                1.00000000               -0.15862306               -0.23284620                0.80055257               -0.03485530               -0.89863839               -0.21204117
               3.70364305                0.12082520               20.09412490                1.00000000                0.30984889               -0.17763693                0.53059694                0.47500655                0.06973006               -0.58604058
               4.71069310                0.04294659               20.03889392                0.00010000                0.45590762               -0.06242515                0.23584295               -0.07394916                0.58673675                0.14210887
               5.71276120               -0.02610185               19.97963809                0.00010000                0.14427307                0.02565245               -0.06180232                0.00015794                0.19522334                0.08323643
               6.71357856               -0.09362599               19.91663824                0.00010000                0.06126977                0.10468202               -0.35255884                0.00876779                0.00565142               -0.05444073
               7.71398660               -0.16186307               19.85355635                0.00010000                0.07169979                0.19661488               -0.65366166                0.03438872               -0.22559238                0.06248915
               8.71501256               -0.23307278               19.78576952                1.00000000                0.18876244                0.29513575               -0.95187041                0.02076446               -0.58464711                0.43326575
               9.71776184               -0.30636207               19.71538371                1.00000000                0.33760230                0.36447130               -1.24352248               -0.04451132               -0.66720350                0.00980751
              10.72176460               -0.37989740               19.64598665                1.00000000                0.40027588                0.44434694               -1.51976781               -0.06427589               -0.62328037               -0.64020365
               0.80053777                1.38877053               20.28160460                1.00000000               -0.32972468               -0.36462695                1.22349062               -0.02935407               -0.09833278                1.06697581
               1.79724052                1.29866490               20.21059643                1.00000000               -0.29647027               -0.28661523                0.95971908               -0.01034717               -0.06075921                0.07888012
               2.79460837                1.20839337               20.14028241                1.00000000               -0.24798945               -0.21244849                0.69731538                0.03340254                0.17938368               -0.59625482
               3.79228074                1.11904883               20.07403661                1.00000000               -0.55956180               -0.17168182                0.43471198                0.68176998                1.65133581               -1.05043356
               4.78341713                1.04232233               20.03306848                0.00010000               -0.56158328                0.06140024                0.18502705               -0.09142281                2.32216326                0.94594984
               5.78104907                0.97415468               19.98026232                0.00010000               -0.09351404                0.08900664               -0.09029164                0.18537691                1.50395554                0.36830820
               6.78154685                0.90742083               19.92291849                0.00010000                0.15024026                0.04969557               -0.36359415                0.22617956                1.38699272               -0.38768541
               7.78405387                0.84010308               19.86788887                0.00010000                0.29614273                0.19265393               -0.62575141                0.27387702                1.36672887                0.59076777
               8.78746970                0.76987858               19.81044623                1.00000000                0.33375828                0.27826295               -0.88881732                0.12034615                0.69894938                0.62304683
               9.79072904                0.69728264               19.74232598                1.00000000                0.35937338                0.35343194               -1.16300246                0.00086651                0.09738297                0.08706023
              10.79465717                0.62454607               19.67293055                1.00000000                0.39281304                0.42798562               -1.43852298               -0.02067662                0.02976750               -0.75937638
               0.88996948                2.38533020               20.25990512                1.00000000               -0.29837467               -0.33022619                1.11537142               -0.02210990                0.04049684                1.35803636
               1.88698573                2.29601448               20.18336459                1.00000000               -0.25946178               -0.24987974                0.83968438                0.00278855                0.16295001                0.05249239
               2.88478024                2.20647286               20.10916254                1.00000000               -0.18181253               -0.18082715                0.57738913                0.06174393                0.77148290               -1.28388272
               3.88334948                2.11739156               20.04470089                0.00010000               -1.55107250               -0.12933208                0.33660899                0.93076629                4.42546112               -1.94319839
               4.85375879                2.04417459               20.04324378                0.00010000               -1.59896170                0.17502217                0.13288032                1.81544574                4.79725190               -1.25094037
               5.85137025                1.97567829               19.98655794                0.00010000               -0.08025226               -0.06054144               -0.11725606                1.56266288                1.66235375               -0.46094807
               6.85215375                1.90736792               19.92254276                0.00010000                0.28180680               -0.15750254               -0.36823325                1.33712296                3.00110235                0.23632412
               7.85700638                1.84199001               19.89281970                0.00010000                0.40430858               -0.11121999               -0.60250194                0.92215234                3.45578859                0.73506174
               8.86023992                1.77249248               19.83901032                1.00000000                0.30526491                0.27107938               -0.80865571                0.21069524                1.52746092                1.22026314
               9.86311168                1.70070657               19.77090723                1.00000000                0.32921460                0.33972189               -1.07697127                0.03343668                0.55203177                0.53849617
              10.86682421                1.62866232               19.69758961                1.00000000                0.37125300                0.40058387               -1.36945079               -0.01070972                0.28968879               -0.76739424
               0.97872700                3.38216601               20.23843706                1.00000000               -0.25733694               -0.30592842                1.00523581               -0.01637131                0.05227181                1.32842057
               1.97615363                3.29366730               20.15511916                1.00000000               -0.21304175               -0.21892045                0.71688061                0.00578225                0.06459514               -0.03900386
               2.97446617                3.20477682               20.07197567                1.00000000               -0.14796521               -0.13970349                0.42727704                0.05964001                0.98379804               -1.51175324
               3.97319433                3.11646218               20.00704275                0.00010000               -0.65134254               -0.06943246                0.15623167                1.00056286                4.47366678               -2.46703717
               4.96143932                3.04582278               19.99338238                0.00010000               -1.20426648                0.08516113                0.00451797                2.60848628                6.53578033               -3.00182433
               5.94910900                2.97294385               19.97057833                0.00010000               -0.97308683               -0.05414027               -0.14546294                2.21584709                5.71921034               -1.22231089
               6.94197758                2.90427077               19.94102798                0.00010000               -0.58683212               -0.12876548               -0.31162690                1.90428167                5.28363337                0.70672034
               7.93737236                2.83787868               19.91005395                0.00010000               -0.45052652               -0.17605941               -0.48854479                1.43501460                5.01866773                0.82919095
               8.93296705                2.77530017               19.87566031                0.00010000               -0.10722096                0.24547510               -0.69382018                0.53775191                3.10529021                2.27427692
               9.93522794                2.70407708               19.80694237                1.00000000                0.27822157                0.31035884               -0.95827021                0.03161705                0.69983088                0.86935601
              10.93853148                2.63255775               19.72438504                1.00000000                0.33035435                0.38652985               -1.28994677               -0.01826057                0.01013745               -0.54016323
               1.06663947                4.37921163               20.21613423                1.00000000               -0.21489078               -0.28052337                0.88609962               -0.02004996                0.06233363                1.22178796
               2.06449056                4.29163607               20.12603998                1.00000000               -0.17306549               -0.18163036                0.58638776                0.00223445                0.07753185               -0.12416109
               3.06317816                4.20367879               20.03619829                0.00010000               -0.10878881               -0.08317170                0.29650263                0.03844263                1.13813810               -1.38508607
               4.06231479                4.11600291               19.96731372                0.00010000               -0.68656525                0.08464324               -0.01484085                0.83461675                5.70621490               -1.87141556
               5.04944685                4.04587781               19.96880791                0.00010000               -1.25377970                0.10692096               -0.11586493                1.53345465                8.76467504               -1.28488613
               6.03723919                3.97459548               19.96188915                0.00010000               -1.20711537                0.21334189               -0.17699765                1.43549885                8.06814359               -0.57674440
               7.02530455                3.90479261               19.95030011                0.00010000               -1.12809541                0.16451856               -0.26595741                1.29469482                7.70319393                0.35795859
               8.01467728                3.83846882               19.93686927                0.00010000               -1.02539942                0.14214560               -0.38086349                1.22549836                7.67070814                1.36165747
               9.00479656                3.77740198               19.92538783                0.00010000               -0.40954221                0.16794691               -0.51946192                0.54536492                4.15492479                2.64457791
              10.00648644                3.70691375               19.84224331                1.00000000                0.23505511                0.25895153               -0.84244786                0.01694284                0.30057853                0.81340107
              11.00949766                3.63639291               19.75350077                1.00000000                0.30112221                0.37300819               -1.19391752               -0.01757338                0.02646642               -0.41746795
               1.15347712                5.37655554               20.19249989                1.00000000               -0.17459523               -0.24445949                0.75743790               -0.02413011                0.11461970                1.08509724
               2.15173116                5.29003469               20.09604432                0.00010000               -0.13044649               -0.13650428                0.43869077               -0.00319724                0.21122000               -0.28982715
               3.15086819                5.20311339               20.00146955                0.00010000               -0.20217609               -0.02971630                0.13154244                0.12056737                2.01993585               -1.53440307
               4.14768764                5.11815505               19.94118394                0.00010000               -0.86761727                0.34638050               -0.34558332                0.60172360                7.41015198               -0.39019554
               5.13351584                5.04796120               19.95364220                0.00010000               -1.43917295                0.30432423               -0.23184785                1.21165878               10.61511574               -0.51886827
               6.11890418                4.97721069               19.95899601                0.00010000               -1.47588535                0.34417460               -0.20138862                1.00261630               10.07556042               -0.10317270
               7.10399813                4.90756115               19.96200699                0.00010000               -1.48156164                0.33996194               -0.21821204                0.89494180                9.89299554                0.56592914
               8.08927295                4.84072159               19.96486657                0.00010000               -1.42843533                0.25605218               -0.26763263                0.90505675                9.93782679                1.39335716
               9.07542943                4.77865911               19.96974466                0.00010000               -0.63485422                0.09500397               -0.33785572                0.41629430                5.12792866                2.24131843
              10.07657587                4.70925611               19.87715793                0.00010000                0.18961267                0.21449820               -0.70406713                0.00949389                0.16294319                0.78431439
              11.07922168                4.64001791               19.78259325                1.00000000                0.26458151                0.34963121               -1.09416419               -0.01840438                0.07093138               -0.45338071
               1.23919856                6.37432244               20.16740403                1.00000000               -0.13297957               -0.20037640                0.62237263               -0.02463529                0.07010910                0.95257098
               2.23786877                6.28890599               20.06360406                0.00010000               -0.08647062               -0.08949751                0.28744198               -0.00348917                0.21619293               -0.47127765
               3.23746915                6.20308446               19.96267933                0.00010000               -0.41836584                0.02175228               -0.03551123                0.30616675                3.84536861               -1.86770957
               4.22950145                6.12293052               19.93146194                0.00010000               -1.14223790                0.49399289               -0.55992883                0.63257197                9.57269270                0.16611379
               5.21462439                6.05196430               19.94445773                0.00010000               -1.59049416                0.48845248               -0.31276922                0.97369933               11.81537976               -0.10382914
               6.19769157                5.98147897               19.95979494                0.00010000               -1.74659592                0.52029652               -0.20824812                0.76887393               11.86506123                0.17065916
               7.17969247                5.91159185               19.97545424                0.00010000               -1.80055544                0.47423940               -0.16380500                0.57763994               11.87075581                0.68277908
               8.16168046                5.84358987               19.99237112                0.00010000               -1.75522738                0.31190699               -0.15450560                0.53161232               11.98631342                1.33725517
               9.14458793                5.77930206               20.01155034                0.00010000               -0.81814757                0.03745062               -0.16853593                0.21847102                6.10447893                2.05298998
              10.14531751                5.71120371               19.91176488                0.00010000                0.15090204                0.17519755               -0.57579722                0.00440692                0.10228774                0.73348851
              11.14760597                5.64338554               19.81075749                1.00000000                0.22884604                0.32306824               -0.99357576               -0.01623329                0.04764719               -0.52337789
               1.32381731                7.37254801               20.14104762                0.00010000               -0.09179562               -0.15501101                0.48634265               -0.02372647                0.03078171                0.86396262
               2.32289936                7.28824474               20.02993503                0.00010000               -0.04251612               -0.04330783                0.13916244               -0.00227774                0.15493010               -0.55121316
               3.32296699                7.20354844               19.92126250                0.00010000               -0.57200546                0.07007890               -0.20267911                0.48343469                5.47875334               -2.05918811
               4.31145925                7.12803491               19.91662763                0.00010000               -1.42628077                0.52954821               -0.53809517                0.88249300               11.94592568               -0.33111615
               5.29444138                7.05773025               19.93737481                0.00010000               -1.84025674                0.67235370               -0.33327757                0.90588836               13.33004180               -0.01973439
               6.27465411                6.98761662               19.96213665                0.00010000               -2.05006691                0.72726402               -0.19374568                0.59391182               13.56117319                0.26293324
               7.25344004                6.91704593               19.98933485                0.00010000               -2.12295661                0.64057688               -0.10434615                0.26632534               13.73135368                0.67959555
               8.23219498                6.84695973               20.01919987                0.00010000               -2.06275161                0.38204798               -0.04547840                0.08988257               13.94831937                1.24115242
               9.21218501                6.77940812               20.05217913                0.00010000               -0.98072258               -0.01430631               -0.00951491               -0.03254501                7.06685151                1.94153944
              10.21258053                6.71276006               19.94554112                0.00010000                0.11741779                0.13434877               -0.44919794               -0.00096707                0.05996215                0.65971379
              11.21453336                6.64647928               19.83821674                0.00010000                0.19528315                0.29430600               -0.89412647               -0.01498835                0.03304866               -0.58420421
               1.40733058                8.37122222               20.11410175                0.00010000               -0.05077841               -0.11150552                0.35180096               -0.02290981                0.01238988                0.83330442
               2.40682279                8.28803983               19.99586042                0.00010000                0.00085533                0.00220362               -0.00668587               -0.00082604                0.06530655               -0.57618852
               3.40734768                8.20448604               19.87863808                0.00010000               -0.69266451                0.11699758               -0.36665371                0.65450698                6.87613278               -2.02637613
               4.39296950                8.13352148               19.89661859                0.00010000               -1.70936153                0.62771581               -0.49544286                1.10713659               14.33810101               -0.50378494
               5.37316045                8.06541137               19.92942707                0.00010000               -2.13576922                0.88655756               -0.31431238                0.85846427               15.09116628               -0.05882121
               6.35025412                7.99602425               19.96431308                0.00010000               -2.37422934                0.93887360               -0.16719836                0.43510969               15.25548226                0.22978043
               7.32567586                7.92440338               20.00236913                0.00010000               -2.45690947                0.87102962               -0.04609871               -0.02081326               15.52708852                0.55458401
               8.30111593                7.85123083               20.04460811                0.00010000               -2.37695829                0.53009047                0.05527871               -0.44099576               15.89628077                1.02431250
               9.27813670                7.77901594               20.09174005                0.00010000               -1.14444611               -0.05799617                0.14032333               -0.35990335                8.05806912                1.76469027
              10.27822700                7.71389069               19.97857004                0.00010000                0.08655347                0.09250633               -0.32537178               -0.00909660                0.03116928                0.61097986
              11.27986777                7.64927166               19.86496839                0.00010000                0.16407631                0.26191690               -0.79626674               -0.01357689                0.01825400               -0.64050133
               1.48972389                9.37031790               20.08705615                0.00010000               -0.01048777               -0.07095607                0.21969335               -0.02232138               -0.00530420                0.70739866
               2.48961901                9.28828882               19.96166637                0.00010000                0.04257934                0.04701949               -0.15012339                0.00025670                0.07749993               -0.50206085
               3.49057548                9.20588839               19.83789687                0.00010000               -0.84711824                0.16098582               -0.51914127                0.87891960                8.34061106               -1.41625799
               4.47267665                9.14058922               19.87778027                0.00010000               -2.07337932                0.96201973               -0.46188755                1.01848707               16.61280248               -0.26494342
               5.44910789                9.07546140               19.92091301                0.00010000               -2.41561776                1.05429035               -0.30187813                0.62401618               16.74076565               -0.04527428
               6.42436429                9.00639409               19.96531853                0.00010000               -2.56453476                1.07587213               -0.14607204                0.25447396               16.87828647                0.13172909
               7.39781720                8.93446653               20.01319678                0.00010000               -2.78008903                1.05237633                0.00118585               -0.15876455               17.23376203                0.31724981
               8.36876251                8.85756154               20.06678190                0.00010000               -2.77450589                0.92867251                0.14129909               -0.72752701               17.83031050                0.59450588
               9.34232708                8.77824819               20.12874832                0.00010000               -1.33098188               -0.07709504                0.27374996               -0.78817101                9.19058434                1.18103368
              10.34214288                8.71461019               20.01125243                0.00010000                0.05863999                0.05566123               -0.20817034               -0.02120822                0.09613343                0.50763291
              11.34349988                8.65171762               19.89110555                0.00010000                0.13570032                0.22727035               -0.70511504               -0.01348227               -0.02615530               -0.56837432
               1.57094232               10.36980310               20.05752312                0.00010000                0.03151181               -0.05148047                0.08786276                0.03955538                0.38686580                0.58615212
               2.57125744               10.28898022               19.92905770                0.00010000                0.08416720                0.06914064               -0.28800881                0.05897559                0.73440500               -0.42233678
               3.57262567               10.20770576               19.80751087                0.00010000               -1.37456042                0.18173706               -0.65142506                1.39410155                9.87650294               -0.90053312
               4.54376623               10.15276188               19.86190409                0.00010000               -2.63948786                1.21726555               -0.48041503                1.04852928               18.36957342               -0.07326832
               5.51983591               10.08649718               19.91242604                0.00010000               -2.37138828                1.10357812               -0.32075407                0.31179247               18.17256081               -0.00260628
               6.49633847               10.01754169               19.96468846                0.00010000               -2.42513955                1.11476064               -0.14365390                0.14510380               18.35536991                0.09569957
               7.47133312                9.94545091               20.02064647                0.00010000               -2.67773737                1.09843841                0.02956264               -0.03527882               18.76519635                0.19815935
               8.44278372                9.86980428               20.08304139                0.00010000               -3.30042429                1.22427338                0.20033990               -0.99672326               19.52297685                0.35965121
               9.40532463                9.77747403               20.15646084                0.00010000               -1.92251508               -0.07741592                0.36211096               -1.44026310               10.52697973                0.73047184
              10.40433342                9.71500391               20.04204326                0.00010000                0.00293172                0.03937207               -0.10617142                0.03620558                0.71788390                0.42469155
              11.40538327                9.65381706               19.91909446                0.00010000                0.10498491                0.20994470               -0.61574713                0.06965414                0.30332401               -0.46486257
               0.77465655                0.42846457               21.32228257                1.00000000               -0.35233221               -0.38296267                1.33680726               -0.06722926               -0.76891087                0.80454283
               1.77113322                0.33058932               21.24907189                1.00000000               -0.29347864               -0.30523912                1.07499741               -0.05321645               -0.97776323                0.05593254
               2.76878697                0.23249525               21.17166556                1.00000000               -0.16070582               -0.22952407                0.79822102               -0.03922175               -0.92857553               -0.21005217
               3.76791911                0.13542620               21.09947149                1.00000000                0.31172037               -0.18143083                0.53557786                0.48057260                0.02893906               -0.60708636
               4.77502138                0.05047874               21.04123959                0.00010000                0.45706010               -0.05845243                0.23314183               -0.07259795                0.52844286                0.15287741
               5.77706031               -0.02572454               20.97903418                0.00010000                0.14353660                0.02701511               -0.05881901                0.00074993                0.14429111                0.08911992
               6.77789211               -0.10041645               20.91314879                0.00010000                0.06601486                0.10417411               -0.34523406                0.00907909               -0.04685315               -0.05819559
               7.77838061               -0.17568121               20.84707852                0.00010000                0.07884604                0.19492811               -0.64211635                0.03098949               -0.28166310                0.06853386
               8.77946903               -0.25367612               20.77632892                1.00000000                0.19097514                0.29061056               -0.93669534                0.01714198               -0.63592036                0.44462661
               9.78220011               -0.33361532               20.70304369                1.00000000                0.33402870                0.35990901               -1.22506421               -0.04339401               -0.70711058                0.00873007
              10.78614961               -0.41380179               20.63090050                1.00000000                0.39494979                0.43964504               -1.49825374               -0.06156661               -0.65505431               -0.67017819
               0.87185950                1.42463495               21.29378620                1.00000000               -0.32737829               -0.36318277                1.21390471               -0.02771377               -0.10232733                1.09222024
               1.86858572                1.32753693               21.22016143                1.00000000               -0.29415947               -0.28437831                0.95343313               -0.01009765               -0.06613541                0.08197149
               2.86597631                1.23020001               21.14721870                1.00000000               -0.24263157               -0.20853632                0.68714595                0.02469783                0.16904695               -0.59497719
               3.86373309                1.13361190               21.07825889                1.00000000               -0.55527704               -0.18079852                0.41050904                0.68947737                1.65299755               -1.05311688
               4.85487077                1.04989421               21.03486039                0.00010000               -0.56088434                0.06785057                0.17295650               -0.08695777                2.33128535                0.95315979
               5.85251540                0.97454561               20.97933172                0.00010000               -0.09547672                0.09028454               -0.09587993                0.17585960                1.50087655                0.37518797
               6.85296124                0.90062529               20.91928192                0.00010000                0.14024662                0.05616465               -0.36369064                0.21865702                1.39103996               -0.38710601
               7.85532033                0.82626807               20.86165099                0.00010000                0.28231336                0.19167281               -0.62207245                0.25392910                1.37671383                0.59382660
               8.85860751                0.74922998               20.80159484                1.00000000                0.32543348                0.27531829               -0.88182683                0.11164517                0.70367027                0.64299371
               9.86182900                0.66998377               20.73074854                1.00000000                0.35564528                0.34967130               -1.15305752                0.00117361                0.09617116                0.08906883
              10.86572041                0.59059466               20.65861434                1.00000000                0.38914072                0.42552321               -1.42549696               -0.01856290                0.02830446               -0.79487703
               0.96829830                2.42120092               21.27100069                1.00000000               -0.29320922               -0.32982500                1.10448896               -0.02129875                0.03982873                1.38930818
               1.96536621                2.32490176               21.19171887                1.00000000               -0.25461680               -0.24857924                0.83251245                0.00183449                0.17120947                0.05650477
               2.96320596                2.22832452               21.11499451                1.00000000               -0.16758787               -0.17583925                0.58118221                0.03764223                0.79309107               -1.30431084
               3.96201445                2.13181023               21.04812116                0.00010000               -1.54287269               -0.16194761                0.32329678                0.94806275                4.45388004               -1.96031759
               4.93234851                2.05183575               21.04443281                0.00010000               -1.60840134                0.17310570                0.10903292                1.80617838                4.86375043               -1.27077875
               5.92984642                1.97608115               20.98532957                0.00010000               -0.09028582               -0.06459851               -0.12866382                1.52169371                1.71463687               -0.45069474
               6.93054279                1.90070684               20.91885077                0.00010000                0.25040336               -0.15576061               -0.36964396                1.28943708                3.05676998                0.27157833
               7.93485449                1.82815224               20.88676572                0.00010000                0.37217199               -0.11075261               -0.60824214                0.88356564                3.53692105                0.78325468
               8.93798623                1.75183024               20.83091683                1.00000000                0.30022082                0.26826297               -0.81033017                0.19269573                1.59347087                1.26636184
               9.94085891                1.67337810               20.76014749                1.00000000                0.32851679                0.33601157               -1.07558238                0.02885692                0.57486575                0.55958317
              10.94455657                1.59470867               20.68392267                1.00000000                0.36976624                0.40295236               -1.36474840               -0.01017259                0.30074866               -0.80367670
               1.06403185                3.41803845               21.24842884                1.00000000               -0.25330461               -0.30517407                0.99372631               -0.01741274                0.05630309                1.35429378
               2.06149881                3.32256535               21.16226021                1.00000000               -0.21055853               -0.21720781                0.71107708                0.00269333                0.06775843               -0.03891297
               3.05982068                3.22668322               21.07625132                1.00000000               -0.11578431               -0.13463693                0.42839965                0.00325576                0.99938920               -1.54321570
               4.05918312                3.13037294               21.00869963                0.00010000               -0.65486279               -0.08485980                0.16464949                0.97821081                4.56809082               -2.55675839
               5.04672343                3.05335632               20.99345636                0.00010000               -1.25524679                0.07154407                0.01139239                2.60045116                6.69247546               -3.05369516
               6.03407818                2.97325364               20.96910013                0.00010000               -1.00222692               -0.06276580               -0.14892250                2.15766650                5.87269291               -1.20691234
               7.02667889                2.89751008               20.93788616                0.00010000               -0.61049706               -0.13805563               -0.31697999                1.84035228                5.42966659                0.77075810
               8.02186824                2.82405301               20.90513856                0.00010000               -0.47216647               -0.17826383               -0.49517476                1.39119511                5.14981633                0.92367614
               9.01723556                2.75459524               20.86867659                0.00010000               -0.11702635                0.23571747               -0.70344506                0.50695443                3.20022427                2.36677573
              10.01952772                2.67670400               20.79731683                1.00000000                0.28101337                0.30814455               -0.96712949                0.02273668                0.73387512                0.90507560
              11.02285583                2.59865370               20.71145961                1.00000000                0.33281097                0.39291842               -1.29535235               -0.01701865                0.01143742               -0.56349917
               1.15889625                4.41509744               21.22493690                1.00000000               -0.21209480               -0.27851595                0.87455451               -0.02120804                0.06983678                1.23792813
               2.15677530                4.32055760               21.13187498                1.00000000               -0.17163819               -0.17910417                0.58063612                0.00014683                0.09018523               -0.13743092
               3.15546348                4.22563178               21.03916375                0.00010000               -0.09348668               -0.07963033                0.29655369               -0.00796154                1.13994907               -1.42123562
               4.15490557                4.13011304               20.96709383                0.00010000               -0.69933221                0.10745831               -0.02518173                0.78590777                5.82523893               -2.05193563
               5.14147684                4.05326663               20.96769789                0.00010000               -1.30297805                0.09570854               -0.10667410                1.52093387                9.01028231               -1.33291859
               6.12884600                3.97482583               20.96011337                0.00010000               -1.24631871                0.20894081               -0.17761761                1.39122445                8.31845249               -0.56011487
               7.11655046                3.89794573               20.94761366                0.00010000               -1.16263893                0.15952375               -0.27172921                1.24413684                7.93702772                0.41972797
               8.10559323                3.82458696               20.93301107                0.00010000               -1.05380635                0.13765308               -0.39185434                1.16954704                7.88888590                1.45524378
               9.09547434                3.75654459               20.92009273                0.00010000               -0.41690227                0.15634354               -0.54043884                0.51203651                4.28220745                2.77043050
              10.09725518                3.67954099               20.83370992                1.00000000                0.24212246                0.26127963               -0.86328981                0.01225581                0.32567653                0.86026736
              11.10031679                3.60256704               20.74147209                1.00000000                0.30616067                0.38248110               -1.21026740               -0.01730474                0.03786933               -0.42991838
               1.25268736                5.41246813               21.20001490                1.00000000               -0.17199689               -0.24144666                0.74566083               -0.02463102                0.11731331                1.09245978
               2.25096740                5.31898326               21.10040391                0.00010000               -0.12906756               -0.13392266                0.43305979               -0.00426729                0.21995335               -0.31311656
               3.25010601                5.22509062               21.00279295                0.00010000               -0.18504824               -0.02770814                0.13262066                0.08715069                1.95015252               -1.58730570
               4.24726643                5.13252211               20.93778370                0.00010000               -0.88383528                0.36059890               -0.33317129                0.56729702                7.53966783               -0.57118175
               5.23242931                5.05527050               20.95135900                0.00010000               -1.50214282                0.30542942               -0.22666232                1.19011831               11.01385656               -0.55159190
               6.21722357                4.97743245               20.95697530                0.00010000               -1.53144079                0.34876334               -0.20260377                0.96301591               10.42387025               -0.07621560
               7.20180049                4.90070055               20.95979082                0.00010000               -1.52816289                0.34257680               -0.22566664                0.84261064               10.21556270                0.63022592
               8.18666032                4.82680608               20.96212376                0.00010000               -1.46391168                0.25491823               -0.28228372                0.84637914               10.24724937                1.48837556
               9.17252226                4.75772211               20.96624524                0.00010000               -0.64549654                0.08975856               -0.36361787                0.38382763                5.29640339                2.36472370
              10.17375039                4.68192959               20.86998672                0.00010000                0.19676914                0.21975053               -0.72944539                0.00823190                0.17636350                0.83913227
              11.17645764                4.60630333               20.77153282                1.00000000                0.27072552                0.36124718               -1.11618644               -0.01874366                0.07264138               -0.46080502
               1.34537336                6.41026850               21.17356850                1.00000000               -0.13058920               -0.19686922                0.61052921               -0.02471463                0.06987468                0.95580222
               2.34406746                6.31787915               21.06645461                0.00010000               -0.08528531               -0.08727918                0.28246199               -0.00410859                0.22195715               -0.49444313
               3.34366765                6.22507762               20.96233332                0.00010000               -0.39979191                0.02297837               -0.03392957                0.27412106                3.75088565               -1.92084352
               4.33607163                6.13732502               20.92579937                0.00010000               -1.16493952                0.50364670               -0.56516633                0.58466473                9.77104506                0.15531934
               5.32036886                6.05937522               20.94132006                0.00010000               -1.66976791                0.50420379               -0.31313396                0.94444410               12.33987186               -0.09193696
               6.30267627                5.98180110               20.95769235                0.00010000               -1.81699016                0.53569172               -0.21217522                0.72100104               12.30036808                0.21250210
               7.28402906                5.90479726               20.97377057                0.00010000               -1.85885118                0.48502906               -0.17368882                0.51685444               12.27489635                0.74921552
               8.26549924                5.82968533               20.99074455                0.00010000               -1.80008413                0.31600216               -0.17223794                0.46338527               12.37822528                1.42744375
               9.24802737                5.75833976               21.00973544                0.00010000               -0.83303193                0.03648348               -0.19624680                0.18174343                6.30832743                2.16363681
              10.24883861                5.68393601               20.90588293                0.00010000                0.15835353                0.18088105               -0.60163173                0.00477427                0.10913885                0.78206496
              11.25119444                5.60979198               20.80070970                1.00000000                0.23558389                0.33457497               -1.01584822               -0.01618857                0.04988217               -0.52920677
               1.43697178                7.40853074               21.14585391                0.00010000               -0.08956785               -0.15133955                0.47480278               -0.02366735                0.03039813                0.86711426
               2.43607611                7.31723768               21.03130642                0.00010000               -0.04146093               -0.04158465                0.13485763               -0.00244602                0.15722822               -0.57126607
               3.43614257                7.22555018               20.91924927                0.00010000               -0.57069883                0.07030024               -0.20032514                0.46057480                5.47705651               -2.10939039
               4.42466213                7.14259504               20.91110070                0.00010000               -1.46502302                0.55050315               -0.55908400                0.82798261               12.23184824               -0.20870113
               5.40684211                7.06535457               20.93399655                0.00010000               -1.92202903                0.69768956               -0.33957058                0.86769553               13.87318829                0.04039873
               6.38622155                6.98814629               20.96016191                0.00010000               -2.12943776                0.75274084               -0.20077507                0.53764019               14.05782298                0.31587530
               7.36425335                6.91040113               20.98823195                0.00010000               -2.19180144                0.66028083               -0.11702338                0.19501808               14.20543307                0.74261162
               8.34238552                6.83312612               21.01864789                0.00010000               -2.11734498                0.39256441               -0.06640752                0.01003358               14.41476444                1.32148867
               9.32190645                6.75845178               21.05193821                0.00010000               -0.99959338               -0.01183540               -0.04055954               -0.07582734                7.30607649                2.04094370
              10.32239365                6.68554721               20.94091822                0.00010000                0.12577316                0.14020018               -0.47669335               -0.00056375                0.06359561                0.70480564
              11.32442191                6.61299483               20.82915949                0.00010000                0.20282615                0.30483497               -0.91759747               -0.01428261                0.03433101               -0.59116114
               1.52748614                8.40724171               21.11756573                0.00010000               -0.04870339               -0.10793344                0.34074451               -0.02276882                0.01199474                0.83820571
               2.52699910                8.31704745               20.99577804                0.00010000                0.00178224                0.00343953               -0.01015521               -0.00074190                0.06425958               -0.59338247
               3.52752178                8.22648363               20.87499194                0.00010000               -0.70861064                0.11606374               -0.36307230                0.64584141                6.98211015               -2.06801303
               4.51282689                8.14833508               20.89156451                0.00010000               -1.76751288                0.65515868               -0.50938876                1.07114784               14.72908816               -0.37336098
               5.49217152                8.07332901               20.92623132                0.00010000               -2.22221892                0.91928780               -0.32240221                0.82390012               15.64194117                0.01312250
               6.46838251                7.99685592               20.96259159                0.00010000               -2.46109680                0.97297630               -0.17674593                0.38096133               15.79309492                0.27900313
               7.44294959                7.91800288               21.00183520                0.00010000               -2.53666241                0.90221279               -0.06147249               -0.09391509               16.06155224                0.60481492
               8.41764926                7.83753662               21.04504603                0.00010000               -2.44299278                0.54958990                0.03081264               -0.53060997               16.43286948                1.08910935
               9.39408973                7.75810306               21.09297089                0.00010000               -1.16824876               -0.05121363                0.10393464               -0.41107090                8.33428220                1.85084968
              10.39428429                7.68674001               20.97516352                0.00010000                0.09619168                0.10003212               -0.35706825               -0.00965895                0.03446962                0.65070030
              11.39601357                7.61588868               20.85687036                0.00010000                0.17292782                0.27214771               -0.82339197               -0.01242467                0.01915505               -0.65195699
               1.61690492                9.40637207               21.08920234                0.00010000               -0.00855701               -0.06759829                0.20914238               -0.02217084               -0.00619582                0.71364186
               2.61681935                9.31730647               20.96015478                0.00010000                0.04334225                0.04783839               -0.15268741                0.00036173                0.07723528               -0.51495823
               3.61777177                9.22787146               20.83273450                0.00010000               -0.87898252                0.15936329               -0.51397365                0.88695259                8.54887217               -1.44145081
               4.59923970                9.15569822               20.87312520                0.00010000               -2.14862501                0.99582742               -0.46636581                1.00596591               17.10162724               -0.17209242
               5.57479927                9.08374033               20.91785133                0.00010000               -2.50364003                1.09068102               -0.30917399                0.60477665               17.30344011               -0.00099812
               6.54916690                9.00760582               20.96380082                0.00010000               -2.65524614                1.11556424               -0.15745610                0.21988694               17.45568365                0.16024093
               7.52169435                8.92844539               21.01312355                0.00010000               -2.87468803                1.09426208               -0.01665024               -0.21174566               17.82434105                0.34436643
               8.49167314                8.84411792               21.06806685                0.00010000               -2.86063529                0.96955956                0.11453634               -0.80329077               18.43411460                0.63329946
               9.46448164                8.75742751               21.13128215                0.00010000               -1.36291479               -0.06510301                0.23101624               -0.84746445                9.50736454                1.23722828
              10.46441485                8.68754786               21.00898830                0.00010000                0.06972162                0.06606051               -0.24576110               -0.02281521                0.10414390                0.53657379
              11.46587607                8.61843778               20.88389322                0.00010000                0.14612260                0.23786887               -0.73729596               -0.01224922               -0.02535099               -0.58444138
               1.70517393               10.40588975               21.05835367                0.00010000                0.03330239               -0.04823277                0.07772666                0.03834795                0.39054276                0.59273282
               2.70550695               10.31800422               20.92617142                0.00010000                0.08475785                0.06977521               -0.28985637                0.05781708                0.74454626               -0.43215733
               3.70686909               10.22967089               20.80103015                0.00010000               -1.42148070                0.17994329               -0.64541864                1.42210186               10.15624644               -0.91534122
               4.67707734               10.16825163               20.85709058                0.00010000               -2.72548137                1.25534096               -0.48169379                1.05735030               18.94145889               -0.01954781
               5.65235946               10.09514263               20.90917907                0.00010000               -2.45010741                1.14023002               -0.32813563                0.30179762               18.77165366                0.01612527
               6.62807519               10.01916720               20.96318890                0.00010000               -2.50784426                1.15613857               -0.15663807                0.12810336               18.98178466                0.10591800
               7.60220257                9.93988812               21.02084558                0.00010000               -2.77369334                1.14427336                0.00929714               -0.06114695               19.40796240                0.20763247
               8.57260132                9.85692781               21.08490420                0.00010000               -3.42460344                1.28098921                0.17133659               -1.06153813               20.17773064                0.37635469
               9.53371050                9.75680100               21.15984869                0.00010000               -1.98918047               -0.06265145                0.31339763               -1.52044311               10.89056023                0.76531147
              10.53281771                9.68806122               21.04076804                0.00010000                0.01391138                0.05133639               -0.14997930                0.03253990                0.75268144                0.44665017
              11.53398873                9.62064606               20.91274590                0.00010000                0.11710177                0.22082799               -0.65380198                0.06974996                0.31786498               -0.48208784
               0.84138844                0.46570634               22.33561223                1.00000000               -0.35111828               -0.38095159                1.32951119               -0.06676404               -0.78714031                0.82067836
               1.83787725                0.36068636               22.25978935                1.00000000               -0.29317143               -0.30290196                1.06848475               -0.05378533               -1.00228501                0.06074624
               2.83552501                0.25541451               22.17963504                1.00000000               -0.16147270               -0.22496314                0.79360206               -0.04220126               -0.95123238               -0.20993744
               3.83464780                0.15110867               22.10483646                1.00000000                0.30871304               -0.17718499                0.53169587                0.47252178               -0.00833304               -0.63499002
               4.84169927                0.05876254               22.04355675                0.00010000                0.45450132               -0.05702354                0.22977219               -0.07408717                0.46620652                0.16697898
               5.84373783               -0.02491454               21.97846171                0.00010000                0.14489430                0.02775885               -0.05621946               -0.00021117                0.09392277                0.09509019
               6.84459716               -0.10705617               21.90973356                0.00010000                0.07176866                0.10328910               -0.33823587                0.00898317               -0.09880243               -0.06151675
               7.84517320               -0.18963733               21.84071402                0.00010000                0.08659103                0.19297429               -0.63131024                0.02740651               -0.33697063                0.07468823
               8.84632898               -0.27471209               21.76703561                1.00000000                0.19374256                0.28626350               -0.92267211                0.01366727               -0.68653455                0.45621037
               9.84904805               -0.36159715               21.69088243                1.00000000                0.33104624                0.35573815               -1.20800960               -0.04233665               -0.74646687                0.00792075
              10.85294990               -0.44872864               21.61602158                1.00000000                0.39018498                0.43550069               -1.47856619               -0.05897447               -0.68627055               -0.69929545
               0.94574077                1.46189682               22.30588269                1.00000000               -0.32554579               -0.36163091                1.20618476               -0.02688554               -0.10573680                1.11472807
               1.94248532                1.35765734               22.22966509                1.00000000               -0.29244660               -0.28202819                0.94690406               -0.00965492               -0.07490147                0.08669303
               2.93989184                1.25316488               22.15402533                1.00000000               -0.23931574               -0.20302448                0.67711848                0.01971233                0.14886299               -0.58786633
               3.93769900                1.14933682               22.08224679                1.00000000               -0.54609194               -0.16821004                0.39684543                0.66842036                1.64884488               -1.05622440
               4.92897000                1.05819231               22.03652761                0.00010000               -0.55269654                0.07002512                0.16213657               -0.09238237                2.34569063                0.96432163
               5.92664507                0.97536305               21.97834472                0.00010000               -0.09608108                0.09052600               -0.10065089                0.16458095                1.50042031                0.38326415
               6.92704838                0.89397672               21.91564467                0.00010000                0.13150781                0.06257021               -0.36358596                0.20926017                1.39594697               -0.38285501
               7.92927523                0.81229241               21.85544743                0.00010000                0.26985901                0.19024303               -0.61877834                0.23396825                1.38673081                0.59631928
               8.93244556                0.72815055               21.79280970                1.00000000                0.31788678                0.27250292               -0.87556532                0.10332035                0.70831532                0.66296931
               9.93563296                0.64196023               21.71926483                1.00000000                0.35230422                0.34635491               -1.14427873                0.00154596                0.09479644                0.09137193
              10.93949165                0.55562636               21.64442061                1.00000000                0.38586841                0.42360787               -1.41405664               -0.01644076                0.02678164               -0.82941910
               1.04932969                2.45847372               22.28199490                1.00000000               -0.29135867               -0.32905755                1.09548539               -0.02031404                0.03906616                1.41829147
               2.04641610                2.35504580               22.20001484                1.00000000               -0.25449553               -0.24622037                0.82695836                0.00406531                0.17832247                0.06152282
               3.04423978                2.25135402               22.12078618                1.00000000               -0.17136617               -0.17108040                0.57463455                0.04106818                0.79570305               -1.31462729
               4.04298878                2.14774447               22.05116682                0.00010000               -1.52071914               -0.14912381                0.29606445                0.92305703                4.46627044               -1.95452180
               5.01382539                2.06016305               22.04542444                0.00010000               -1.58718739                0.16457423                0.09300453                1.75349143                4.93128525               -1.27563532
               6.01124503                1.97689598               21.98398466                0.00010000               -0.09862005               -0.06706269               -0.13856704                1.47600867                1.77064423               -0.43129116
               7.01185299                1.89419524               21.91514988                0.00010000                0.22168571               -0.15268382               -0.37196126                1.23778275                3.10954167                0.31189708
               8.01567874                1.81416753               21.88065485                0.00010000                0.34372886               -0.10927788               -0.61294486                0.84228813                3.61316380                0.83352122
               9.01872757                1.73073797               21.82280371                1.00000000                0.29622047                0.26546168               -0.81246193                0.17550624                1.65938077                1.31240202
              10.02160315                1.64532994               21.74939559                1.00000000                0.32806221                0.33279635               -1.07511033                0.02475012                0.59723185                0.58012625
              11.02528881                1.55974351               21.67029465                1.00000000                0.36856614                0.40559942               -1.36128212               -0.00949253                0.31150657               -0.83981072
               1.15219034                3.45531567               22.25831158                1.00000000               -0.25040152               -0.30447910                0.98374869               -0.01675540                0.05945573                1.37901415
               2.14968632                3.35273293               22.16934070                1.00000000               -0.20879019               -0.21510225                0.70521228                0.00394583                0.07083011               -0.03811917
               3.14801453                3.24974327               22.08054366                1.00000000               -0.11676034               -0.13207825                0.42886535                0.00699604                1.00979784               -1.57023691
               4.14735112                3.14635434               22.01033574                0.00010000               -0.65631063               -0.09321723                0.16345384                0.95185821                4.61540858               -2.57631131
               5.13488832                3.06148379               21.99361023                0.00010000               -1.26090318                0.05768733                0.01049937                2.52375079                6.82258271               -3.08415177
               6.12213305                2.97402179               21.96759988                0.00010000               -1.01779184               -0.06889816               -0.15207809                2.09433527                6.00910496               -1.18038592
               7.11453248                2.89092305               21.93468839                0.00010000               -0.62773972               -0.14563643               -0.32282985                1.76897377                5.56783442                0.83916823
               8.10957826                2.81010686               21.90015046                0.00010000               -0.48696049               -0.17895166               -0.50315680                1.34169576                5.27473280                1.02184637
               9.10479327                2.73345978               21.86159141                0.00010000               -0.12279188                0.22519886               -0.71371712                0.47617894                3.29092002                2.45765345
              10.10712242                2.64861615               21.78759978                1.00000000                0.28406911                0.30596273               -0.97610664                0.01480163                0.76664222                0.93848172
              11.11047466                2.56373835               21.69847800                1.00000000                0.33522368                0.39889095               -1.30069540               -0.01568483                0.01252462               -0.58788743
               1.25416005                4.45238414               22.23362532                1.00000000               -0.20926343               -0.27712671                0.86366956               -0.02128754                0.07678658                1.25341349
               2.25206742                4.35074375               22.13765271                1.00000000               -0.17008825               -0.17701030                0.57504573               -0.00029116                0.10201932               -0.15000204
               3.25075829                4.24871245               22.04212936                0.00010000               -0.08910002               -0.07727796                0.29641938               -0.01933563                1.13512039               -1.45643942
               4.25028542                4.14588012               21.96681009                0.00010000               -0.70626645                0.08357657               -0.01835729                0.75840820                5.91532624               -2.16447609
               5.23663296                4.06131679               21.96667443                0.00010000               -1.32964695                0.09117012               -0.10187641                1.46754721                9.24290552               -1.37784672
               6.22369248                3.97551802               21.95833680                0.00010000               -1.27427765                0.20427995               -0.17872263                1.33912186                8.55222765               -0.53812651
               7.21114741                3.89128251               21.94486552                0.00010000               -1.18582759                0.15428500               -0.27872424                1.18494610                8.15899008                0.48598284
               8.19997593                3.81058850               21.92903219                0.00010000               -1.07027775                0.13243824               -0.40471071                1.10723508                8.09483742                1.55107407
               9.18974185                3.73524195               21.91457905                0.00010000               -0.41776571                0.14255461               -0.56237258                0.47809824                4.40117230                2.89512475
              10.19162061                3.65144920               21.82497751                1.00000000                0.24944363                0.26247963               -0.88262362                0.00862572                0.34991713                0.90712678
              11.19473072                3.56772133               21.72929542                1.00000000                0.31101104                0.39129260               -1.22415783               -0.01740458                0.05067133               -0.44186054
               1.35504536                5.44977314               22.20741311                1.00000000               -0.16931751               -0.23923305                0.73423352               -0.02485156                0.11938546                1.09932744
               2.35335218                5.34919273               22.10470552                0.00010000               -0.12769543               -0.13145662                0.42730724               -0.00498735                0.22831822               -0.33597668
               3.35249145                5.24819771               22.00412197                0.00010000               -0.17186204               -0.02505914                0.13304763                0.06084829                1.88377021               -1.63916814
               4.34991494                5.14802588               21.93452052                0.00010000               -0.89450379                0.34198907               -0.31164532                0.53798377                7.66791630               -0.72742252
               5.33460137                5.06330719               21.94910896                0.00010000               -1.54825846                0.30856092               -0.22237283                1.14887032               11.39771583               -0.57967079
               6.31894977                4.97810739               21.95494393                0.00010000               -1.57202244                0.35121940               -0.20428119                0.91287444               10.75863032               -0.04652228
               7.30316092                4.89400875               21.95749366                0.00010000               -1.55931252                0.34262589               -0.23462919                0.78195126               10.52468159                0.69758524
               8.28776352                4.81275562               21.95922090                0.00010000               -1.48331923                0.25130599               -0.29935804                0.78031482               10.54230198                1.58582995
               9.27349454                4.73631087               21.96247231                0.00010000               -0.64739868                0.08199386               -0.39153077                0.34921841                5.45593466                2.49078138
              10.27481555                4.65386575               21.86256902                0.00010000                0.20438789                0.22321543               -0.75350494                0.00793726                0.18828900                0.89825827
              11.27758230                4.57156420               21.76026952                1.00000000                0.27667492                0.37267001               -1.13539231               -0.01918619                0.07434805               -0.46376549
               1.45482384                6.44759948               22.17961461                1.00000000               -0.12807406               -0.19400347                0.59879010               -0.02474085                0.06943138                0.95864830
               2.45354310                6.34811462               22.06925330                0.00010000               -0.08408660               -0.08483679                0.27707274               -0.00459140                0.22744838               -0.51701910
               3.45314211                6.24821127               21.96200074                0.00010000               -0.38037445                0.02521447               -0.03304393                0.24138383                3.65328610               -1.97288297
               4.44593561                6.15271991               21.92015861                0.00010000               -1.18066297                0.50349326               -0.55348899                0.53553636                9.95566309                0.13898029
               5.42952885                6.06748801               21.93819505                0.00010000               -1.73435972                0.51598806               -0.30964250                0.90325298               12.85238228               -0.07689482
               6.41124841                5.98254240               21.95555144                0.00010000               -1.86953220                0.54637437               -0.21583090                0.66362094               12.72217660                0.25639648
               7.39213820                5.89813503               21.97198046                0.00010000               -1.89841573                0.49123943               -0.18515934                0.44870052               12.66498034                0.81783543
               8.37328010                5.81561462               21.98892636                0.00010000               -1.82610549                0.31662041               -0.19266770                0.38836420               12.75549499                1.51979581
               9.35561609                5.73688182               22.00762540                0.00010000               -0.83770370                0.03403357               -0.22701727                0.14202751                6.50388849                2.27715033
              10.35652603                5.65591351               21.89973224                0.00010000                0.16669967                0.18549201               -0.62864190                0.00542606                0.11491155                0.83557872
              11.35895009                5.57517473               21.79044052                1.00000000                0.24240607                0.34655959               -1.03733983               -0.01612054                0.05183256               -0.52923983
               1.55352025                7.44589307               22.15054368                0.00010000               -0.08716947               -0.14807872                0.46307789               -0.02360666                0.02990684                0.87010231
               2.55264856                7.34749599               22.03263219                0.00010000               -0.04032073               -0.03953983                0.13001603               -0.00261965                0.15915282               -0.59070551
               3.55271384                7.24870200               21.91725600                0.00010000               -0.56498147                0.07146414               -0.19875139                0.43305271                5.46410556               -2.15832020
               4.54134893                7.15809574               21.90544595                0.00010000               -1.49349528                0.56549301               -0.56208474                0.76506158               12.50337787               -0.08679274
               5.52284393                7.07362696               21.93058340                0.00010000               -1.98868774                0.71655145               -0.33965611                0.81912434               14.40905431                0.10103455
               6.50157517                6.98903488               21.95812115                0.00010000               -2.18906066                0.77115005               -0.20684363                0.47351504               14.54107568                0.37023061
               7.47906272                6.90383354               21.98699439                0.00010000               -2.23955829                0.67365266               -0.13124543                0.11837101               14.66465099                0.80723908
               8.45678401                6.81908803               22.01787172                0.00010000               -2.15132598                0.39897162               -0.09022163               -0.07422299               14.86568624                1.40325179
               9.43603620                6.73699154               22.05136794                0.00010000               -1.00764245               -0.00964179               -0.07506046               -0.12118428                7.53716655                2.14111003
              10.43663116                6.65757559               21.93600725                0.00010000                0.13506173                0.14605507               -0.50629711               -0.00026233                0.06672472                0.75294630
              11.43873744                6.57849540               21.81986479                0.00010000                0.21062756                0.31620303               -0.94116368               -0.01366360                0.03552027               -0.59417546
               1.65114586                8.44463790               22.12091664                0.00010000               -0.04640825               -0.10451331                0.32920921               -0.02266566                0.01155890                0.84301525
               2.65068177                8.34732382               21.99565731                0.00010000                0.00287787                0.00501386               -0.01436096               -0.00071716                0.06289236               -0.60989866
               3.65120341                8.24964055               21.87137663                0.00010000               -0.71849443                0.11595811               -0.36046293                0.62873032                7.07851773               -2.10797537
               4.63631188                8.16402977               21.88643082                0.00010000               -1.81156097                0.67627815               -0.50961987                1.02109558               15.10436206               -0.23446947
               5.61497219                8.08181904               21.92297902                0.00010000               -2.28998746                0.94333650               -0.32514676                0.77963912               16.18187002                0.08641213
               6.59051214                7.99796541               21.96077816                0.00010000               -2.52598595                0.99833579               -0.18541155                0.32098073               16.31663217                0.32890322
               7.56445247                7.91160808               22.00113969                0.00010000               -2.59372507                0.92549725               -0.07832020               -0.16980444               16.58011748                0.65617339
               8.53863763                7.82359405               22.04522436                0.00010000               -2.48738123                0.56406667                0.00346446               -0.62084475               16.95194822                1.15556135
               9.51470485                7.73668899               22.09381875                0.00010000               -1.18103534               -0.04382929                0.06384596               -0.46213632                8.60146585                1.93602423
              10.51501693                7.65883461               21.97142867                0.00010000                0.10661744                0.10807780               -0.39089956               -0.01033318                0.03773606                0.69111970
              11.51683720                7.58149879               21.84850055                0.00010000                0.18202718                0.28289227               -0.85047480               -0.01130172                0.02004384               -0.66135151
               1.74769510                9.44380280               22.09123900                0.00010000               -0.00635350               -0.06414087                0.19781378               -0.02206192               -0.00705457                0.71974097
               2.74763156                9.34759627               21.95861263                0.00010000                0.04437022                0.04899808               -0.15621616                0.00042372                0.07683711               -0.52724217
               3.74858250                9.25102116               21.82761739                0.00010000               -0.90196037                0.15835319               -0.51000379                0.88265273                8.74990603               -1.46512576
               4.72959236                9.17162130               21.86845296                0.00010000               -2.20407132                1.02051911               -0.46430880                0.98035652               17.57560454               -0.07397981
               5.70450108                9.09249369               21.91472953                0.00010000               -2.56933035                1.11725838               -0.31345055                0.57893814               17.85177582                0.04433998
               6.67820575                9.00900160               21.96216941                0.00010000               -2.72315449                1.14592366               -0.16862186                0.18226581               18.01792208                0.18899202
               7.65003799                8.92234348               22.01286378                0.00010000               -2.94597716                1.12757159               -0.03595711               -0.26538177               18.39863491                0.37205940
               8.61928621                8.83036936               22.06907263                0.00010000               -2.92425348                1.00313106                0.08575563               -0.87654689               19.01762017                0.67405900
               9.59155292                8.73611496               22.13336865                0.00010000               -1.38357577               -0.05208978                0.18428010               -0.90325385                9.81242220                1.29199618
              10.59161469                8.65973714               22.00633721                0.00010000                0.08150575                0.07714122               -0.28555775               -0.02444063                0.11216885                0.56505258
              11.59318303                8.58415324               21.87635963                0.00010000                0.15683411                0.24855689               -0.76930750               -0.01100808               -0.02428553               -0.59961259
               1.84311768               10.44335508               22.05907765                0.00010000                0.03542066               -0.04477164                0.06658802                0.03712818                0.39416279                0.59911109
               2.84347189               10.34830379               21.92326057                0.00010000                0.08568770                0.07075152               -0.29288355                0.05665901                0.75438616               -0.44146707
               3.84483143               10.25280762               21.79460249                0.00010000               -1.45126979                0.17864565               -0.64075457                1.43171130               10.42853617               -0.92900981
               4.81444649               10.18444015               21.85227021                0.00010000               -2.78303854                1.28188450               -0.48140482                1.05324293               19.49840512                0.03638203
               5.78917066               10.10416421               21.90586332                0.00010000               -2.50694175                1.16705215               -0.33416398                0.28914522               19.35513080                0.03525910
               6.76430766               10.02088388               21.96155569                0.00010000               -2.56967952                1.18822823               -0.17023095                0.10995590               19.59185419                0.11602640
               7.73777707                9.93415951               22.02083241                0.00010000               -2.84862179                1.18160303               -0.01274434               -0.08745170               20.03383788                0.21720168
               8.70733522                9.84365667               22.08646812                0.00010000               -3.52525401                1.32873092                0.14096244               -1.12071455               20.80954812                0.39443915
               9.66727199                9.73564719               22.16272880                0.00010000               -2.04226947               -0.04677650                0.26044957               -1.59205436               11.23947856                0.79890868
              10.66648983                9.66037743               22.03904367                0.00010000                0.02564249                0.06402898               -0.19612502                0.02865098                0.78691906                0.46800777
              11.66778484                9.58646993               21.90601843                0.00010000                0.12950116                0.23166904               -0.69161509                0.06943087                0.33248006               -0.49880505
               0.91055949                0.50433720               23.34887280                1.00000000               -0.34947827               -0.37903648                1.32260506               -0.06639606               -0.80376434                0.83598216
               1.90706471                0.39205276               23.27044158                1.00000000               -0.29221375               -0.30074625                1.06197512               -0.05302865               -1.02576308                0.06588686
               2.90471522                0.27951593               23.18753760                1.00000000               -0.16169878               -0.22243894                0.78715995               -0.04168566               -0.97568799               -0.20985961
               3.90383073                0.16790573               23.11010541                1.00000000                0.30025218               -0.17486899                0.52332327                0.45573158               -0.04548052               -0.66004067
               4.91072026                0.06787661               23.04583503                0.00010000                0.44656119               -0.05636560                0.22620345               -0.07808582                0.41052887                0.17979671
               5.91276196               -0.02358877               22.97790979                0.00010000                0.14717459                0.02767102               -0.05453518               -0.00280277                0.04730284                0.10158788
               6.91366375               -0.11346901               22.90638407                0.00010000                0.07885924                0.10208853               -0.33240033                0.00809813               -0.14865235               -0.06440703
               7.91433914               -0.20365426               22.83445232                0.00010000                0.09530925                0.19078781               -0.62183487                0.02352551               -0.39086310                0.08077906
               8.91556994               -0.29610008               22.75787548                1.00000000                0.19728320                0.28213490               -0.91026213                0.01027385               -0.73597453                0.46795630
               9.91828481               -0.39022172               22.67888350                1.00000000                0.32879761                0.35197667               -1.19274968               -0.04136239               -0.78484794                0.00730637
              10.92214589               -0.48458576               22.60132918                1.00000000                0.38610833                0.43189677               -1.46107405               -0.05654310               -0.71666317               -0.72743459
               1.02217997                1.50054684               23.31790990                1.00000000               -0.32349124               -0.35996729                1.19931617               -0.02614196               -0.10903397                1.13605202
               2.01894506                1.38904530               23.23909951                1.00000000               -0.29040493               -0.27980800                0.94014894               -0.00893189               -0.08334553                0.09294241
               3.01637187                1.27729154               23.16076107                1.00000000               -0.23686760               -0.20011422                0.67126816                0.01822877                0.13098992               -0.58255848
               4.01420771                1.16615704               23.08619580                1.00000000               -0.53426097               -0.16374421                0.39506211                0.64461414                1.64641053               -1.07040955
               5.00568665                1.06731295               23.03810312                0.00010000               -0.54004833                0.06819041                0.15492985               -0.10164942                2.35835845                0.97630138
               6.00340674                0.97668794               22.97731871                0.00010000               -0.09545882                0.08944731               -0.10379991                0.15054178                1.50244814                0.39286485
               7.00377748                0.88755187               22.91201020                0.00010000                0.12415942                0.06850416               -0.36316056                0.19826806                1.40206615               -0.37687429
               8.00588993                0.79825362               22.84927542                0.00010000                0.25894639                0.18869484               -0.61581252                0.21470939                1.39716192                0.59899985
               9.00895641                0.70672127               22.78408354                1.00000000                0.31120461                0.26983266               -0.87005802                0.09538045                0.71303870                0.68277616
              10.01211402                0.61329805               22.70786296                1.00000000                0.34940448                0.34337036               -1.13667907                0.00198732                0.09338681                0.09389688
              11.01594450                0.51973321               22.63033321                1.00000000                0.38304737                0.42204126               -1.40417670               -0.01434886                0.02533412               -0.86279239
               1.13303973                2.49713786               23.29291040                1.00000000               -0.28983600               -0.32792653                1.08795094               -0.01898769                0.03966480                1.44524207
               2.13014137                2.38645660               23.20825804                1.00000000               -0.25358419               -0.24400997                0.82127862                0.00570302                0.18558097                0.06741584
               3.12796805                2.27551364               23.12648720                1.00000000               -0.17198851               -0.16781174                0.56629672                0.04119880                0.79675751               -1.32390351
               4.12670160                2.16463085               23.05404245                0.00010000               -1.49058351               -0.14767960                0.28418842                0.89718952                4.49736289               -1.97354426
               5.09815638                2.06924042               23.04629290                0.00010000               -1.55838626                0.15551730                0.08293532                1.68968084                5.00323859               -1.27348613
               6.09553387                1.97820017               22.98255822                0.00010000               -0.10464709               -0.06970780               -0.14546166                1.42180181                1.82959377               -0.40506357
               7.09606343                1.88790107               22.91141154                0.00010000                0.19650280               -0.14870382               -0.37600810                1.18134897                3.16355783                0.35518244
               8.09946393                1.80011964               22.87450682                0.00010000                0.31848416               -0.10705040               -0.61620434                0.79827266                3.68839100                0.88560122
               9.10243312                1.70929657               22.81466759                1.00000000                0.29243410                0.26258528               -0.81482676                0.15871407                1.72428710                1.35794209
              10.10531261                1.61664569               22.73864528                1.00000000                0.32777333                0.32968306               -1.07508295                0.02092198                0.61922118                0.60024765
              11.10898858                1.52385507               22.65669703                1.00000000                0.36759716                0.40809873               -1.35842717               -0.00879298                0.32203795               -0.87508113
               1.24316273                3.49398831               23.26810382                1.00000000               -0.24793957               -0.30368373                0.97511405               -0.01544721                0.06313331                1.40135182
               2.24068333                3.38416510               23.17636445                1.00000000               -0.20705640               -0.21319279                0.69947043                0.00586320                0.07581578               -0.03793233
               3.23902160                3.27393530               23.08482863                1.00000000               -0.11293053               -0.12944784                0.42720429                0.00394078                1.02079823               -1.59377014
               4.23842472                3.16320345               23.01196870                0.00010000               -0.65553279               -0.09960546                0.15958740                0.92267092                4.68694706               -2.62884565
               5.22591095                3.07042330               22.99366634                0.00010000               -1.26212985                0.04852730                0.00361638                2.43710963                6.95086880               -3.09806035
               6.21318213                2.97529378               22.96605857                0.00010000               -1.02129748               -0.07404654               -0.15728590                2.01600438                6.14174377               -1.14514858
               7.20548500                2.88457779               22.93142957                0.00010000               -0.63611241               -0.15204808               -0.32936043                1.68951347                5.69920333                0.91167296
               8.20045988                2.79611261               22.89507543                0.00010000               -0.49401792               -0.17908161               -0.51218127                1.28538474                5.39358421                1.12209216
               9.19560464                2.71197298               22.85440225                0.00010000               -0.12429546                0.21348068               -0.72393911                0.44492177                3.37792586                2.54617482
              10.19797397                2.61989171               22.77779469                1.00000000                0.28726184                0.30343019               -0.98452576                0.00733750                0.79820405                0.97008018
              11.20134987                2.52789518               22.68544570                1.00000000                0.33759057                0.40416192               -1.30535497               -0.01436125                0.01344718               -0.61188211
               1.35237720                4.49106418               23.24221029                1.00000000               -0.20655639               -0.27614623                0.85373479               -0.02076729                0.08409178                1.26682317
               2.35031164                4.38219275               23.14337589                1.00000000               -0.16843462               -0.17509810                0.56944615                0.00010355                0.11430850               -0.16277882
               3.34900851                4.27292469               23.04509214                0.00010000               -0.08223081               -0.07497118                0.29543880               -0.03045937                1.13844654               -1.49046184
               4.34866702                4.16263874               22.96672669                0.00010000               -0.71001360                0.07108398               -0.00432184                0.72496611                6.00986890               -2.29042402
               5.33480824                4.07021096               22.96566037                0.00010000               -1.34837772                0.08665827               -0.09977512                1.40648824                9.45863332               -1.40804053
               6.32169947                3.97671924               22.95653892                0.00010000               -1.28866800                0.19967929               -0.18194833                1.27392474                8.77523898               -0.50997909
               7.30903488                3.88486011               22.94203917                0.00010000               -1.19615113                0.14797592               -0.28728262                1.11754618                8.36966327                0.55589702
               8.29777645                3.79653800               22.92491685                0.00010000               -1.07412107                0.12579444               -0.41892629                1.03869559                8.28876251                1.64838144
               9.28755246                3.71356619               22.90884528                0.00010000               -0.41196451                0.12592063               -0.58416518                0.44322398                4.51277654                3.01766863
              10.28953715                3.62271429               22.81605745                1.00000000                0.25709747                0.26241624               -0.90077576                0.00585500                0.37388472                0.95414164
              11.29269441                3.53193830               22.71698893                1.00000000                0.31572507                0.39938650               -1.23635789               -0.01791257                0.06449958               -0.45203839
               1.46049026                5.48846538               23.21469957                1.00000000               -0.16653567               -0.23766416                0.72329241               -0.02485411                0.12131065                1.10484718
               2.45882490                5.38066314               23.10895006                0.00010000               -0.12619191               -0.12903248                0.42144611               -0.00554183                0.23677930               -0.35883761
               3.45796642                5.27243588               23.00545390                0.00010000               -0.15935664               -0.02193785                0.13289476                0.03907698                1.82940521               -1.68986738
               4.45563777                5.16462513               22.93155079                0.00010000               -0.90031062                0.32702210               -0.28366329                0.50220712                7.79674471               -0.88518820
               5.43996021                5.07215647               22.94691155                0.00010000               -1.58131450                0.30759569               -0.21528398                1.09388403               11.76002619               -0.60036699
               6.42401148                4.97928737               22.95288968                0.00010000               -1.59715234                0.35162839               -0.20688455                0.85078818               11.07934460               -0.01267226
               7.40801716                4.88753731               22.95509824                0.00010000               -1.57418837                0.33965688               -0.24526711                0.71299949               10.81978637                0.76772418
               8.39252771                4.79862850               22.95613660                0.00010000               -1.48621640                0.24462102               -0.31828662                0.70709166               10.82232275                1.68486890
               9.37829283                4.71449139               22.95841462                0.00010000               -0.64043793                0.07104770               -0.42031441                0.31291715                5.60713249                2.61822469
              10.37971895                4.62514003               22.85491662                0.00010000                0.21253803                0.22475281               -0.77637611                0.00880446                0.19972619                0.96055431
              11.38254359                4.53588291               22.74882498                1.00000000                0.28246410                0.38368082               -1.15252585               -0.01970540                0.07579462               -0.46244355
               1.56748461                6.48631090               23.18554431                0.00010000               -0.12543063               -0.19173108                0.58720706               -0.02474778                0.06878472                0.96068721
               2.56623030                6.37961210               23.07199607                0.00010000               -0.08282779               -0.08217921                0.27129775               -0.00515141                0.23272035               -0.53922594
               3.56582806                6.27248593               22.96167244                0.00010000               -0.36198628                0.02860037               -0.03296626                0.21057885                3.56291916               -2.02398580
               4.55899058                6.16917918               22.91472959                0.00010000               -1.19021871                0.49809273               -0.52600223                0.48207343               10.13467931                0.11599919
               5.54202368                6.07636288               22.93512721                0.00010000               -1.78280977                0.52174111               -0.30143913                0.84802093               13.34535338               -0.05789467
               6.52333438                5.98375181               22.95337573                0.00010000               -1.90349713                0.55184044               -0.21901721                0.59554824               13.12789522                0.30318025
               7.50395374                5.89165325               22.97006739                0.00010000               -1.91850900                0.49246891               -0.19818867                0.37286273               13.03926706                0.88853136
               8.48496420                5.80143042               22.98689120                0.00010000               -1.83272360                0.31323303               -0.21540727                0.30659405               13.11657808                1.61373350
               9.46729927                5.71498714               23.00519509                0.00010000               -0.83212423                0.02946264               -0.25978423                0.10001689                6.69052086                2.39264605
              10.46832172                5.62720935               22.89331010                0.00010000                0.17576337                0.18848376               -0.65555647                0.00685625                0.11983553                0.89272406
              11.47081453                5.53961192               22.77996290                1.00000000                0.24928147                0.35841857               -1.05735388               -0.01605967                0.05361922               -0.52404885
               1.67339291                7.48463076               23.15511546                0.00010000               -0.08460661               -0.14521023                0.45120084               -0.02355302                0.02932790                0.87261713
               2.67254684                7.37901955               23.03390674                0.00010000               -0.03909991               -0.03715272                0.12460690               -0.00281100                0.16078289               -0.60956955
               3.67261091                7.27300789               22.91527424                0.00010000               -0.55722770                0.07383973               -0.19805542                0.40290055                5.45034278               -2.20585152
               4.66140229                7.17458699               22.89985901                0.00010000               -1.51314568                0.57297512               -0.54552231                0.69522808               12.76500663                0.03289830
               5.64234800                7.08259129               22.92720343                0.00010000               -2.03851063                0.72741216               -0.33297913                0.75875450               14.92956392                0.16307893
               6.62063207                6.99032418               22.95602504                0.00010000               -2.22760969                0.78169549               -0.21179239                0.40077562               15.00712555                0.42630486
               7.59779580                6.89738669               22.98560704                0.00010000               -2.26531902                0.68018563               -0.14689355                0.03604917               15.10661854                0.87351953
               8.57532569                6.80489316               23.01684345                0.00010000               -2.16407766                0.40082562               -0.11662412               -0.16305443               15.29901732                1.48619763
               9.55451425                6.71508064               23.05043700                0.00010000               -1.00471990               -0.00821549               -0.11229144               -0.16839917                7.75874101                2.24152917
              10.55523130                6.62890971               22.93079228                0.00010000                0.14514996                0.15115504               -0.53700469                0.00030639                0.06909161                0.80368577
              11.55741725                6.54305128               22.81033622                0.00010000                0.21859510                0.32774440               -0.96402318               -0.01303474                0.03655689               -0.59304754
               1.77823597                8.48340669               23.12414992                0.00010000               -0.04390081               -0.10124394                0.31722814               -0.02258129                0.01108853                0.84748579
               2.77779696                8.37886904               22.99549082                0.00010000                0.00413333                0.00694070               -0.01930768               -0.00065535                0.06124745               -0.62577524
               3.77831863                8.27396272               22.86778269                0.00010000               -0.72426092                0.11675958               -0.35880401                0.60441461                7.17372991               -2.14619487
               4.76331174                8.18063868               22.88137212                0.00010000               -1.84285270                0.68961200               -0.49368983                0.95928853               15.46780600               -0.09259745
               5.74146158                8.09091112               22.91972839                0.00010000               -2.33786240                0.95757692               -0.32192189                0.72586883               16.70426625                0.15994450
               6.71655449                7.99938572               22.95888336                0.00010000               -2.56779192                1.01419725               -0.19298706                0.25524298               16.82259153                0.37953140
               7.69010574                7.90525696               23.00026880                0.00010000               -2.62726633                0.94035774               -0.09641981               -0.24853795               17.08024084                0.70889830
               8.66400917                7.80944694               23.04511532                0.00010000               -2.50955027                0.57310865               -0.02645374               -0.71195725               17.45100242                1.22418076
               9.63991474                7.71482283               23.09424781                0.00010000               -1.18259813               -0.03616281                0.02045880               -0.51316181                8.85781519                2.01964165
              10.64035720                7.63023245               22.96734553                0.00010000                0.11779735                0.11621016               -0.42647232               -0.01100392                0.04057760                0.73217797
              11.64227068                7.54616681               22.83986086                0.00010000                0.19134794                0.29381864               -0.87720752               -0.01015019                0.02088462               -0.66828821
               1.88201659                9.48260588               23.09315861                0.00010000               -0.00388825               -0.06060111                0.18575576               -0.02198279               -0.00789116                0.72551885
               2.88197770                9.37915837               22.95703045                0.00010000                0.04564854                0.05049724               -0.16068230                0.00050349                0.07630675               -0.53894789
               3.88292956                9.27534308               22.82253442                0.00010000               -0.91690218                0.15788849               -0.50707472                0.86661984                8.94813855               -1.48720129
               4.86363966                9.18837923               22.86383902                0.00010000               -2.24056115                1.03530381               -0.45421480                0.94363102               18.03717666                0.02347580
               5.83811834                9.10174283               22.91158232                0.00010000               -2.61242816                1.13345497               -0.31413338                0.54719544               18.38239162                0.08957666
               6.81139110                9.01060812               22.96042838                0.00010000               -2.76772537                1.16647179               -0.17931792                0.14198562               18.56248574                0.21792038
               7.78276383                8.91619385               23.01240441                0.00010000               -2.99352110                1.15189605               -0.05637482               -0.31958151               18.95483172                0.40061942
               8.75152068                8.81635533               23.06978196                0.00010000               -2.96491625                1.02893296                0.05572315               -0.94748620               19.57784628                0.71775897
               9.72346550                8.71435738               23.13496775                0.00010000               -1.39267176               -0.03819812                0.13366472               -0.95558142               10.10312316                1.34474031
              10.72366724                8.63123391               23.00327715                0.00010000                0.09400075                0.08880016               -0.32749889               -0.02602312                0.11987464                0.59292210
              11.72534552                8.54892766               22.86850707                0.00010000                0.16782774                0.25927807               -0.80111036               -0.00971807               -0.02295009               -0.61359511
               1.98469134               10.48219467               23.05968543                0.00010000                0.03784904               -0.04112102                0.05452872                0.03590681                0.39763236                0.60516131
               2.98506983               10.37987899               22.92031375                0.00010000                0.08694150                0.07206192               -0.29703998                0.05550377                0.76385042               -0.45027938
               3.98643017               10.27712049               22.78821506                0.00010000               -1.46426091                0.17774150               -0.63726201                1.42335003               10.69496873               -0.94139032
               4.95578461               10.20134476               22.84746249                0.00010000               -2.81267900                1.29655350               -0.47906616                1.03748154               20.04185833                0.08998754
               5.93017659               10.11358022               22.90249579                0.00010000               -2.54207146                1.18373944               -0.33838248                0.27434542               19.92185614                0.05417078
               6.90494318               10.02271516               22.95978429                0.00010000               -2.61048448                1.21070349               -0.18421624                0.09094154               20.18383284                0.12612591
               7.87796690                9.92829488               23.02059069                0.00010000               -2.90236405                1.21010325               -0.03620529               -0.11417073               20.64196139                0.22722102
               8.84689590                9.83002560               23.08772345                0.00010000               -3.60211862                1.36702642                0.11029480               -1.17427777               21.41554573                0.41496498
               9.80592453                9.71405887               23.16505768                0.00010000               -2.08147175               -0.02985156                0.20316631               -1.65495471               11.57035590                0.83063778
              10.80526647                9.63200845               23.03684554                0.00010000                0.03821481                0.07745399               -0.24478000                0.02459781                0.82017488                0.48852629
              11.80668883                9.55135237               22.89891360                0.00010000                0.14223574                0.24247132               -0.72935075                0.06872284                0.34711324               -0.51478200
               0.98217558                0.54435178               24.36206433                1.00000000               -0.34783932               -0.37715192                1.31577888               -0.06582410               -0.81988554                0.85088902
               1.97869719                0.42468825               24.28102885                1.00000000               -0.29140775               -0.29885144                1.05581050               -0.05206548               -1.04916872                0.07073665
               2.97634742                0.30477038               24.19537824                1.00000000               -0.16282133               -0.22062705                0.78187156               -0.04126598               -1.00158592               -0.21010882
               3.97544076                0.18572708               24.11530292                1.00000000                0.28790212               -0.17354869                0.51807719                0.43703702               -0.08302289               -0.68295227
               4.98210547                0.07782231               24.04808082                0.00010000                0.43470450               -0.05618451                0.22383791               -0.08050481                0.36056207                0.19077352
               5.98413485               -0.02170062               23.97737100                0.00010000                0.14880575                0.02725254               -0.05322830               -0.00573343                0.00522004                0.10811765
               6.98508158               -0.11959656               23.90308555                0.00010000                0.08648398                0.10083295               -0.32795756                0.00677333               -0.19543705               -0.06684142
               7.98586453               -0.21766796               23.82827732                0.00010000                0.10483588                0.18858660               -0.61411783                0.01943411               -0.44255676                0.08665546
               8.98717830               -0.31776908               23.74883037                1.00000000                0.20164317                0.27830359               -0.89982649                0.00695046               -0.78362085                0.47985215
               9.98989739               -0.41940995               23.66702743                1.00000000                0.32734929                0.34863343               -1.17956196               -0.04045305               -0.82178353                0.00690315
              10.99372528               -0.52128540               23.58680010                1.00000000                0.38278926                0.42880659               -1.44597216               -0.05429079               -0.74592220               -0.75431103
               1.10118087                1.54058026               24.32986902                1.00000000               -0.32136411               -0.35835711                1.19247579               -0.02544685               -0.11221794                1.15671406
               2.09796723                1.42169973               24.24846807                1.00000000               -0.28827608               -0.27795398                0.93388323               -0.00812097               -0.09095144                0.09921841
               3.09541535                1.30256411               24.16745069                1.00000000               -0.23410329               -0.19809972                0.66676114                0.01674748                0.11601715               -0.57887842
               4.09328516                1.18399159               24.09014804                1.00000000               -0.52005427               -0.16131992                0.39430644                0.61929633                1.64438761               -1.08862800
               5.08501426                1.07726047               24.03962620                0.00010000               -0.52491059                0.06538928                0.15042681               -0.10753791                2.36881758                0.98635000
               6.08278695                0.97857191               23.97626873                0.00010000               -0.09406387                0.08777292               -0.10586126                0.13673576                1.50631527                0.40310290
               7.08313299                0.88141177               23.90838146                0.00010000                0.11790870                0.07380411               -0.36260712                0.18699830                1.40951261               -0.37040885
               8.08514513                0.78421790               23.84313118                0.00010000                0.24929046                0.18737570               -0.61336906                0.19640902                1.40818299                0.60185155
               9.08811880                0.68501396               23.77540854                1.00000000                0.30529480                0.26735884               -0.86540537                0.08775196                0.71798483                0.70224649
              10.09125102                0.58407639               23.69653125                1.00000000                0.34695172                0.34065571               -1.13025732                0.00247265                0.09208487                0.09674205
              11.09505783                0.48300267               23.61633707                1.00000000                0.38068079                0.42073994               -1.39575772               -0.01233270                0.02408868               -0.89452253
               1.21942770                2.53718464               24.30375391                1.00000000               -0.28767826               -0.32687262                1.08061445               -0.01800409                0.04094700                1.47066733
               2.21655092                2.41912917               24.21644041                1.00000000               -0.25185907               -0.24216504                0.81520963                0.00671709                0.19251861                0.07343686
               3.21439052                2.30080839               24.13211212                1.00000000               -0.17102929               -0.16505914                0.55971438                0.03912035                0.79647971               -1.33151088
               4.21313033                2.18250068               24.05685059                0.00010000               -1.45080647               -0.14491982                0.27834762                0.86444446                4.52537332               -1.99343714
               5.18537439                2.07913010               24.04708315                0.00010000               -1.52060325                0.14473278                0.07552264                1.61778643                5.07716625               -1.26630850
               6.18271827                1.98005484               23.98107543                0.00010000               -0.10994183               -0.07168906               -0.15058234                1.35835862                1.89022417               -0.37586565
               7.18317555                1.88187952               23.90762971                0.00010000                0.17361254               -0.14414437               -0.37984496                1.11957096                3.21857867                0.39968948
               8.18619052                1.78607955               23.86833077                0.00010000                0.29496516               -0.10396178               -0.61912031                0.75153568                3.76239271                0.93789458
               9.18907485                1.68757810               23.80650718                1.00000000                0.28838104                0.25958144               -0.81730453                0.14186726                1.78780807                1.40257214
              10.19195814                1.58740317               23.72789393                1.00000000                0.32756101                0.32645991               -1.07521937                0.01716607                0.64093649                0.62028641
              11.19562608                1.48712940               23.64312610                1.00000000                0.36679378                0.41030716               -1.35580667               -0.00818965                0.33243945               -0.90861347
               1.33693173                3.53404281               24.27781387                1.00000000               -0.24539083               -0.30298952                0.96684793               -0.01448819                0.06748321                1.42137104
               2.33447782                3.41685643               24.18333011                1.00000000               -0.20527422               -0.21132977                0.69359887                0.00704737                0.08217843               -0.03779801
               3.33282625                3.29926293               24.08908775                1.00000000               -0.11127395               -0.12652196                0.42448700                0.00113345                1.02932311               -1.61360108
               4.33225234                3.18109319               24.01352749                0.00010000               -0.65052092               -0.10055615                0.15379634                0.88382146                4.75140299               -2.66639630
               5.31981583                3.08015512               23.99368256                0.00010000               -1.25238200                0.03903396               -0.00023552                2.33319685                7.07912637               -3.10539477
               6.30720470                2.97713813               23.96445416                0.00010000               -1.01580666               -0.07837552               -0.16314582                1.92369716                6.27104071               -1.10402570
               7.29949970                2.87852888               23.92810118                0.00010000               -0.63637224               -0.15738697               -0.33666210                1.59938636                5.82577616                0.98677374
               8.29447726                2.78213867               23.88990683                0.00010000               -0.49335846               -0.17923001               -0.52164450                1.22156316                5.50742049                1.22254093
               9.28963253                2.69020559               23.84711262                0.00010000               -0.12171075                0.20024234               -0.73361522                0.41244228                3.46184656                2.63171254
              10.29204304                2.59060559               23.76790926                1.00000000                0.29045249                0.30034681               -0.99200338               -0.00001294                0.82870896                1.00021312
              11.29544158                2.49120881               23.67237090                1.00000000                0.33985316                0.40859462               -1.30903991               -0.01309349                0.01410373               -0.63455776
               1.45351069                4.53112485               24.25070001                1.00000000               -0.20389449               -0.27533707                0.84425450               -0.02028438                0.09180790                1.27788231
               2.45147174                4.41490257               24.14904163                1.00000000               -0.16671317               -0.17303156                0.56354695                0.00043568                0.12724770               -0.17570478
               3.45017643                4.29827795               24.04803814                0.00010000               -0.07785890               -0.07214332                0.29343993               -0.03802248                1.14520885               -1.52249485
               4.44991457                4.18048955               23.96672365                0.00010000               -0.70915179                0.06130066                0.00245223                0.68863354                6.09904079               -2.39510076
               5.43599339                4.07991078               23.96467893                0.00010000               -1.35480566                0.08389453               -0.09719669                1.33224812                9.66499725               -1.43190758
               6.42281845                3.97848733               23.95469783                0.00010000               -1.29153264                0.19395028               -0.18631337                1.19831364                8.98771048               -0.47571849
               7.41016274                3.87873178               23.93911987                0.00010000               -1.19366914                0.14030696               -0.29713471                1.04088248                8.57039420                0.62848593
               8.39894507                3.78249495               23.92065366                0.00010000               -1.06529771                0.11699933               -0.43405121                0.96337498                8.47163624                1.74604587
               9.38885678                3.69158295               23.90289575                0.00010000               -0.39952071                0.10599825               -0.60533199                0.40698981                4.61795955                3.13685957
              10.39095466                3.59341010               23.80696200                1.00000000                0.26504882                0.26093018               -0.91751589                0.00375074                0.39778316                1.00119603
              11.39415776                3.49530129               23.70456826                1.00000000                0.32031032                0.40662772               -1.24686880               -0.01888650                0.07922565               -0.45989738
               1.56897060                5.52853607               24.22187896                1.00000000               -0.16371592               -0.23637619                0.71264294               -0.02476073                0.12317256                1.10854331
               2.56733344                5.41339580               24.11313444                0.00010000               -0.12458902               -0.12645772                0.41519310               -0.00591887                0.24551643               -0.38162069
               3.56647882                5.29782006               24.00677986                0.00010000               -0.14706248               -0.01833675                0.13174370                0.02069725                1.78653226               -1.73852481
               4.56439219                5.18231921               23.92884725                0.00010000               -0.90079007                0.31210615               -0.25747965                0.46364036                7.92407539               -1.02898197
               5.54846301                5.08183301               23.94480328                0.00010000               -1.60211061                0.30637292               -0.20613770                1.02471533               12.10235501               -0.61573967
               6.53234998                4.98101713               23.95080624                0.00010000               -1.60766451                0.34916592               -0.20985947                0.77748459               11.38433535                0.02567166
               7.51630972                4.88133502               23.95258832                0.00010000               -1.57281915                0.33325352               -0.25733730                0.63534332               11.10066303                0.84013954
               8.50089359                4.78447866               23.95285516                0.00010000               -1.47262766                0.23437425               -0.33858493                0.62647099               11.08746949                1.78449344
               9.48685717                4.69232555               23.95406602                0.00010000               -0.62469388                0.05647090               -0.44947630                0.27481814                5.75072636                2.74540559
              10.48839971                4.59582419               23.84704150                0.00010000                0.22121508                0.22411134               -0.79790178                0.01080421                0.21124501                1.02518384
              11.49128147                4.49934136               23.73721901                1.00000000                0.28817581                0.39406121               -1.16757630               -0.02032746                0.07698283               -0.45691128
               1.68329601                6.52639733               24.19135875                0.00010000               -0.12266359               -0.18981363                0.57567021               -0.02470728                0.06801563                0.96156336
               2.68206937                6.41237342               24.07467925                0.00010000               -0.08145212               -0.07929778                0.26510961               -0.00570542                0.23791670               -0.56101263
               3.68166697                6.29791121               23.96134141                0.00010000               -0.34474748                0.03273290               -0.03362582                0.18239359                3.48676212               -2.07346878
               4.67517442                6.18673168               23.90963857                0.00010000               -1.19385984                0.48959870               -0.48862000                0.42273536               10.31268871                0.09514901
               5.65778977                6.08603824               23.93216626                0.00010000               -1.81541411                0.52271708               -0.28884914                0.77725697               13.81366753               -0.03525515
               6.63886614                5.98547065               23.95117109                0.00010000               -1.91908442                0.55181082               -0.22169384                0.51613563               13.51478315                0.35290758
               7.61940808                5.88539685               23.96801669                0.00010000               -1.91910928                0.48837486               -0.21257408                0.28893680               13.39633597                0.96101028
               8.60048396                5.78718244               23.98461822                0.00010000               -1.82002347                0.30546031               -0.24001442                0.21781588               13.46072782                1.70847095
               9.58300761                5.69271236               24.00242972                0.00010000               -0.81645132                0.02219309               -0.29372130                0.05574592                6.86823460                2.50876009
              10.58415493                5.59789233               23.88662111                0.00010000                0.18546258                0.18948395               -0.68178980                0.00921054                0.12431183                0.95213148
              11.58671686                5.50318251               23.76929344                1.00000000                0.25619344                0.36975605               -1.07555374               -0.01602070                0.05525401               -0.51413056
               1.79652426                7.52473980               24.15956770                0.00010000               -0.08188242               -0.14264286                0.43913799               -0.02350454                0.02865900                0.87441124
               2.79570544                7.41180985               24.03512432                0.00010000               -0.03779179               -0.03444081                0.11863104               -0.00302467                0.16215930               -0.62787866
               3.79576843                7.29847472               23.91329489                0.00010000               -0.54927831                0.07726323               -0.19814537                0.37155425                5.44627548               -2.25173640
               4.78471987                7.19211118               23.89453551                0.00010000               -1.52496232                0.57330614               -0.51083733                0.61802558               13.02203713                0.15137080
               5.76526918                7.09228735               23.92392382                0.00010000               -2.07028997                0.73004007               -0.32017000                0.68493355               15.42675424                0.22643116
               6.74331407                6.99205335               23.95388530                0.00010000               -2.24462546                0.78410199               -0.21570599                0.31862865               15.45241666                0.48398220
               7.72037667                6.89110251               23.98405652                0.00010000               -2.26898395                0.67959142               -0.16381345               -0.05241165               15.52928703                0.94139380
               8.69793440                6.79058786               24.01553924                0.00010000               -2.15572381                0.39783607               -0.14518956               -0.25691903               15.71326577                1.56997797
               9.67726220                6.69276941               24.04912211                0.00010000               -0.99103103               -0.00806478               -0.15149602               -0.21753319                7.97001080                2.34114666
              10.67811377                6.59961387               23.92526716                0.00010000                0.15592469                0.15504842               -0.56805255                0.00137824                0.07069632                0.85591252
              11.68038069                6.50673648               23.80058432                0.00010000                0.22669158                0.33898339               -0.98568252               -0.01237014                0.03743692               -0.58813199
               1.90868582                8.52354447               24.12726120                0.00010000               -0.04118632               -0.09810670                0.30481021               -0.02252000                0.01059219                0.85139476
               2.90827396                8.41168460               23.99527116                0.00010000                0.00554495                0.00922681               -0.02499076               -0.00057682                0.05937964               -0.64104403
               3.90879672                8.29945648               23.86420055                0.00010000               -0.72758270                0.11850193               -0.35801548                0.57407381                7.27685416               -2.18243032
               4.89372230                8.19819780               23.87655702                0.00010000               -1.86252232                0.69446334               -0.46133965                0.88753351               15.82381521                0.04670413
               5.87154627                8.10063904               23.91654058                0.00010000               -2.36493733                0.96152298               -0.31303309                0.66226292               17.20217638                0.23239410
               6.84642355                8.00115269               23.95691842                0.00010000               -2.58604674                1.02028661               -0.19959666                0.18344718               17.30770460                0.43073886
               7.81982534                7.89898868               23.99921129                0.00010000               -2.63724394                0.94657325               -0.11553477               -0.33045825               17.55975268                0.76327385
               8.79367868                7.79513916               24.04469528                0.00010000               -2.50971974                0.57642758               -0.05846593               -0.80461086               17.92786993                1.29573979
               9.76963094                7.69255107               24.09422792                0.00010000               -1.17316261               -0.02847625               -0.02563023               -0.56439314                9.10178420                2.10083611
              10.77021542                7.60099330               23.96289923                0.00010000                0.12966445                0.12408525               -0.46331612               -0.01148943                0.04270338                0.77323830
              11.77222423                7.50996218               23.83095640                0.00010000                0.20088067                0.30460562               -0.90336646               -0.00893657                0.02162774               -0.67281488
               2.01979360                9.52277766               24.09495412                0.00010000               -0.00117025               -0.05698987                0.17300810               -0.02193432               -0.00870713                0.73081535
               3.01978189                9.41199438               23.95539898                0.00010000                0.04715554                0.05234998               -0.16607465                0.00062046                0.07573901               -0.55012583
               4.02073671                9.30084476               23.81747590                0.00010000               -0.92469535                0.15810247               -0.50507328                0.83957097                9.14853853               -1.50754252
               5.00128799                9.20600045               23.85936866                0.00010000               -2.25885776                1.03975826               -0.43583755                0.89768400               18.48913073                0.11353435
               5.97555955                9.11151781               23.90844686                0.00010000               -2.63273045                1.13908234               -0.31143350                0.50991762               18.89181411                0.13337946
               6.94863338                9.01245908               23.95858305                0.00010000               -2.78892562                1.17709477               -0.18959562                0.09910129               19.08719608                0.24694638
               7.91978104                8.91003398               24.01173628                0.00010000               -3.01767948                1.16713479               -0.07751022               -0.37454331               19.49171268                0.43042500
               8.88827979                8.80211641               24.07018709                0.00010000               -2.98304226                1.04669210                0.02555749               -1.01668111               20.11186376                0.76588160
               9.86012019                8.69219989               24.13604194                0.00010000               -1.39034578               -0.02354855                0.07951046               -1.00473833               10.37655305                1.39468151
              10.86047287                8.60209557               23.99978723                0.00010000                0.10719990                0.10089355               -0.37145313               -0.02746552                0.12690868                0.61979900
              11.86226419                8.51282860               23.86033742                0.00010000                0.17913201                0.26995183               -0.83280044               -0.00835996               -0.02137379               -0.62624580
               2.12981369               10.52240467               24.06016822                0.00010000                0.04055753               -0.03729916                0.04161310                0.03470281                0.40085312                0.61077757
               3.13021927               10.41273160               23.91731977                0.00010000                0.08841901                0.07372197               -0.30232444                0.05443033                0.77300820               -0.45864517
               4.13158207               10.30261853               23.78185725                0.00010000               -1.46081705                0.17737685               -0.63492885                1.39760481               10.95741699               -0.95244242
               5.10100293               10.21899297               23.84268889                0.00010000               -2.81480418                1.29925187               -0.47485108                1.01160184               20.57347229                0.13590510
               6.07528599               10.12342068               23.89909567                0.00010000               -2.55567553                1.19028690               -0.34092430                0.25772474               20.47089193                0.07220772
               7.04988942               10.02469459               23.95787137                0.00010000               -2.63044250                1.22355030               -0.19861131                0.07113840               20.75628795                0.13635234
               8.02267714                9.92233137               24.02010831                0.00010000               -2.93551357                1.22973940               -0.06062801               -0.14146920               21.23224251                0.23814411
               8.99117914                9.81607300               24.08867402                0.00010000               -3.65600619                1.39565871                0.08094584               -1.22262807               21.99271286                0.43946509
               9.94955702                9.69208010               24.16679212                0.00010000               -2.10708694               -0.01197915                0.14170459               -1.70940938               11.87920005                0.85976837
              10.94903741                9.60301117               24.03414807                0.00010000                0.05169853                0.09155964               -0.29601430                0.02050953                0.85202482                0.50787406
              11.95059099                9.51536122               23.89143141                0.00010000                0.15535800                0.25326227               -0.76727054                0.06768434                0.36174313               -0.52978423
               1.05623273                0.58574560               25.37518837                1.00000000               -0.34653084               -0.37540696                1.30930071               -0.06517687               -0.83561297                0.86528689
               2.05276742                0.45858906               25.29155779                1.00000000               -0.29116520               -0.29709520                1.05041274               -0.05114377               -1.07211162                0.07537172
               3.05040943                0.33116885               25.20317504                1.00000000               -0.16498648               -0.21887593                0.77810632               -0.04134691               -1.02717514               -0.21038118
               4.04946769                0.20455647               25.12046695                1.00000000                0.27269967               -0.17196481                0.51550200                0.41684882               -0.11976972               -0.70415396
               5.05586342                0.08860132               25.05031179                0.00010000                0.41969666               -0.05636922                0.22316395               -0.08102693                0.31324377                0.20070672
               6.05786163               -0.01922186               24.97684522                0.00010000                0.14926365                0.02674357               -0.05171291               -0.00833275               -0.03413155                0.11446525
               7.05884869               -0.12539766               24.89982492                0.00010000                0.09407825                0.09971924               -0.32465334                0.00530911               -0.23981278               -0.06889240
               8.05974319               -0.23162886               24.82216996                0.00010000                0.11493589                0.18660595               -0.60837396                0.01524724               -0.49196866                0.09219290
               9.06114741               -0.33965937               24.73987895                1.00000000                0.20681085                0.27487576               -0.89165305                0.00373948               -0.82909212                0.49192252
              10.06387941               -0.44909130               24.65529226                1.00000000                0.32673509                0.34576876               -1.16870872               -0.03955089               -0.85692725                0.00675388
              11.06768211               -0.55874593               24.57240974                1.00000000                0.38027050                0.42626846               -1.43341306               -0.05221209               -0.77382056               -0.77965008
               1.18273751                1.58199153               25.34175941                1.00000000               -0.31931473               -0.35696228                1.18568896               -0.02469579               -0.11536756                1.17655056
               2.17954436                1.45561810               25.25777717                1.00000000               -0.28626270               -0.27628793                0.92819015               -0.00726612               -0.09830778                0.10536576
               3.17701225                1.32898009               25.17409629                1.00000000               -0.23122065               -0.19612405                0.66244105                0.01483762                0.10197588               -0.57543765
               4.17491995                1.20283682               25.09408193                1.00000000               -0.50349693               -0.15869062                0.39187356                0.59139389                1.64140869               -1.10685552
               5.16694231                1.08803763               25.04111165                0.00010000               -0.50710798                0.06282882                0.14692500               -0.10898998                2.37823877                0.99493802
               6.16477779                0.98104557               24.97520148                0.00010000               -0.09185163                0.08596466               -0.10744822                0.12460371                1.51153987                0.41333261
               7.16510528                0.87559953               24.90475806                0.00010000                0.11243649                0.07864016               -0.36225855                0.17613020                1.41799116               -0.36373887
               8.16702652                0.77023720               24.83700804                0.00010000                0.24053723                0.18653647               -0.61177334                0.17904945                1.41972425                0.60430115
               9.16991603                0.66308939               24.76677543                1.00000000                0.30003321                0.26516468               -0.86178485                0.08039477                0.72324631                0.72122772
              10.17302718                0.55436639               24.68525782                1.00000000                0.34492992                0.33823509               -1.12507286                0.00301871                0.09099606                0.10006721
              11.17681462                0.44551675               24.60241806                1.00000000                0.37874438                0.41974511               -1.38873624               -0.01041795                0.02314671               -0.92411754
               1.30848567                2.57860636               25.31452269                1.00000000               -0.28521300               -0.32609511                1.07303257               -0.01718611                0.04236619                1.49479835
               2.30563354                2.45306330               25.22456223                1.00000000               -0.24991019               -0.24050893                0.80928153                0.00743388                0.19889927                0.07962959
               3.30348747                2.32724637               25.13768149                1.00000000               -0.16977523               -0.16214163                0.55470530                0.03588950                0.79476439               -1.33739184
               4.30223803                2.20138265               25.05960940                0.00010000               -1.40063010               -0.14171756                0.27336818                0.82747758                4.54972116               -2.01210916
               5.27547486                2.08985790               25.04780336                0.00010000               -1.47231210                0.13409985                0.06873395                1.53696344                5.14995246               -1.25694384
               6.27279179                1.98249743               24.97954658                0.00010000               -0.11475979               -0.07273543               -0.15486671                1.28618908                1.95153654               -0.34525690
               7.27317967                1.87617514               24.90381464                0.00010000                0.15212644               -0.13882092               -0.38280584                1.05235032                3.27314265                0.44412089
               8.27583432                1.77210187               24.86212442                0.00010000                0.27232257               -0.09983341               -0.62271405                0.70195534                3.83444747                0.98911942
               9.27862612                1.66564393               24.79832150                1.00000000                0.28390487                0.25646331               -0.81994695                0.12473214                1.85013707                1.44599999
              10.28151242                1.55767340               24.71714089                1.00000000                0.32734530                0.32307538               -1.07537607                0.01338686                0.66252803                0.64062525
              11.28517303                1.44964897               24.62958090                1.00000000                0.36606063                0.41225578               -1.35320314               -0.00774078                0.34279976               -0.93961585
               1.43347990                3.57546963               25.28744078                1.00000000               -0.24268779               -0.30248092                0.95836412               -0.01394737                0.07214959                1.43973102
               2.43105302                3.45080793               25.19023643                1.00000000               -0.20346067               -0.20944874                0.68765221                0.00762776                0.08924487               -0.03739553
               3.42941069                3.32573726               25.09331837                1.00000000               -0.10975252               -0.12318493                0.42179997               -0.00311297                1.03663047               -1.63063419
               4.42885797                3.20000247               25.01504463                0.00010000               -0.64219413               -0.09828446                0.15121276                0.83756893                4.81542548               -2.69873140
               5.41656680                3.09071962               24.99366163                0.00010000               -1.23368266                0.02970975               -0.00360606                2.21237682                7.20424466               -3.10561513
               6.40418432                2.97959087               24.96279566                0.00010000               -1.00094791               -0.08223212               -0.16849324                1.81622182                6.39615903               -1.05966368
               7.39654785                2.87282312               24.92469632                0.00010000               -0.62937395               -0.16162303               -0.34447097                1.49784669                5.94734930                1.06249290
               8.39159684                2.76824053               24.88464254                0.00010000               -0.48543543               -0.17956434               -0.53135874                1.14972566                5.61711443                1.32175554
               9.38683914                2.66821866               24.83972994                0.00010000               -0.11534833                0.18530280               -0.74250229                0.37822763                3.54339374                2.71379277
              10.38928987                2.56082790               24.75795462                1.00000000                0.29347680                0.29662858               -0.99815284               -0.00744512                0.85832253                1.02914399
              11.39270867                2.45376187               24.65926491                1.00000000                0.34188001                0.41216393               -1.31138399               -0.01193427                0.01438908               -0.65526239
               1.55753013                4.57255674               25.25909538                1.00000000               -0.20116646               -0.27460596                0.83467490               -0.02009926                0.09980577                1.28711198
               2.55551846                4.44887432               25.15464683                1.00000000               -0.16497321               -0.17074129                0.55738550                0.00036169                0.14071481               -0.18864508
               3.55423067                4.32478267               25.05096094                0.00010000               -0.07557083               -0.06875738                0.29107738               -0.04418962                1.15458971               -1.55282878
               4.55400705                4.19941696               24.96677573                0.00010000               -0.70483324                0.05640531                0.00747072                0.64536539                6.18887515               -2.48613825
               5.54013400                4.09045209               24.96371643                0.00010000               -1.34971553                0.08173567               -0.09544988                1.24586674                9.86228446               -1.44654114
               6.52701274                3.98085279               24.95281265                0.00010000               -1.28235343                0.18683371               -0.19101354                1.11097090                9.19018670               -0.43736389
               7.51448693                3.87294268               24.93609648                0.00010000               -1.17897227                0.13100840               -0.30790696                0.95457242                8.76124767                0.70254909
               8.50343329                3.76851059               24.91623583                0.00010000               -1.04418114                0.10566375               -0.44973928                0.88049294                8.64449392                1.84274426
               9.49360331                3.66934998               24.89673864                0.00010000               -0.38064940                0.08234348               -0.62553873                0.36886402                4.71766691                3.25149193
              10.49582030                3.56360598               24.79770713                1.00000000                0.27315433                0.25783492               -0.93230859                0.00216293                0.42185156                1.04792177
              11.49906640                3.45789225               24.69205155                1.00000000                0.32460913                0.41288170               -1.25524856               -0.02039479                0.09465198               -0.46515810
               1.68044274                5.56997751               25.22895243                1.00000000               -0.16084214               -0.23516550                0.70195873               -0.02475137                0.12491411                1.11058171
               2.67883432                5.44739310               25.11725392                0.00010000               -0.12292452               -0.12361822                0.40848172               -0.00639431                0.25449446               -0.40425881
               3.67798425                5.32436211               25.00808877                0.00010000               -0.13692308               -0.01405727                0.12964198                0.00553938                1.75550064               -1.78537702
               4.67609586                5.20113057               24.92640120                0.00010000               -0.89679696                0.29884704               -0.23225596                0.42023396                8.05084720               -1.15417998
               5.66004831                5.09235434               24.94278879                0.00010000               -1.60913587                0.30425727               -0.19686001                0.94137367               12.42474782               -0.62305414
               6.64391314                4.98332754               24.94869249                0.00010000               -1.60334084                0.34390572               -0.21316905                0.69279144               11.67310538                0.06783810
               7.62798150                4.87544328               24.94995149                0.00010000               -1.55568721                0.32312847               -0.27054060                0.54863359               11.36693904                0.91401365
               8.61279940                4.77035381               24.94936490                0.00010000               -1.44302344                0.22025929               -0.35991019                0.53773409               11.33804059                1.88356595
               9.59912103                4.66986553               24.94942510                0.00010000               -0.60042669                0.03781352               -0.47864768                0.23442708                5.88743462                2.87070285
              10.60079087                4.56598460               24.83895858                0.00010000                0.23036000                0.22101682               -0.81765258                0.01389513                0.22338060                1.09116276
              11.60372823                4.46201950               24.72547345                1.00000000                0.29373632                0.40358703               -1.18013061               -0.02108162                0.07785308               -0.44736413
               1.80220392                6.56785343               25.19705771                0.00010000               -0.11979452               -0.18804869                0.56403114               -0.02464250                0.06717106                0.96119953
               2.80100598                6.44640196               25.07729826                0.00010000               -0.07999712               -0.07615135                0.25845585               -0.00616961                0.24314777               -0.58229781
               3.80060398                6.32450153               24.96099992                0.00010000               -0.32932380                0.03759553               -0.03508644                0.15664640                3.42904717               -2.12102813
               4.79441950                6.20539390               24.90495719                0.00010000               -1.19197368                0.47826898               -0.44503525                0.35769771               10.49190675                0.08425345
               5.77676451                6.09653724               24.92935023                0.00010000               -1.83199404                0.51956269               -0.27331917                0.69109851               14.25413738               -0.00753046
               6.75777962                5.98773090               24.94894186                0.00010000               -1.91655866                0.54644778               -0.22420157                0.42512916               13.88069541                0.40532408
               7.73843333                5.87940525               24.96581591                0.00010000               -1.90069452                0.47883426               -0.22816929                0.19654898               13.73512810                1.03474570
               8.71976573                5.77291577               24.98209091                0.00010000               -1.78861343                0.29309208               -0.26610025                0.12135093               13.78759137                1.80316456
               9.70266106                5.67010625               24.99932067                0.00010000               -0.79107499                0.01199214               -0.32842752                0.00880271                7.03727256                2.62413913
              10.70394423                5.56802631               24.87967430                0.00010000                0.19569414                0.18826223               -0.70691537                0.01249394                0.12868975                1.01247119
              11.70657495                5.46596399               24.75845182                1.00000000                0.26307171                0.38030908               -1.09158444               -0.01606086                0.05669009               -0.50009731
               1.92285283                7.56621654               25.16389822                0.00010000               -0.07899995               -0.14026294                0.42683041               -0.02344776                0.02793541                0.87533880
               2.92206283                7.44587007               25.03627936                0.00010000               -0.03637981               -0.03142263                0.11209605               -0.00316449                0.16343471               -0.64563049
               3.92212524                7.32511402               24.91131133                0.00010000               -0.54243634                0.08157919               -0.19891421                0.33958774                5.46088583               -2.29572552
               4.91121410                7.21069595               24.88964226                0.00010000               -1.52959747                0.56728545               -0.46162184                0.53300390               13.27923098                0.27165254
               5.89153329                7.10274559               24.92080003                0.00010000               -2.08331979                0.72493616               -0.30270787                0.59698711               15.89380783                0.29091044
               6.86954771                6.99425650               24.95171092                0.00010000               -2.24028386                0.77859238               -0.21906177                0.22663179               15.87408202                0.54295978
               7.84672761                6.88501997               24.98233077                0.00010000               -2.25111458                0.67187087               -0.18192211               -0.14751234               15.93112962                1.01073704
               8.82452542                6.77621565               25.01393966                0.00010000               -2.12705328                0.38990537               -0.17550312               -0.35651998               16.10746824                1.65425321
               9.80418654                6.67010537               25.04740708                0.00010000               -0.96712050               -0.00932665               -0.19198982               -0.26901998                8.17052356                2.43889221
              10.80518301                6.56974984               24.91943123                0.00010000                0.16725555                0.15754137               -0.59897299                0.00294375                0.07157699                0.90838486
              11.80753165                6.46962569               24.79062257                0.00010000                0.23486464                0.34967104               -1.00591410               -0.01171869                0.03811692               -0.58003919
               2.04242789                8.56504817               25.13024612                0.00010000               -0.03826924               -0.09506851                0.29194706               -0.02247180                0.01008352                0.85458116
               3.04204520                8.44577351               24.99499101                0.00010000                0.00709806                0.01185822               -0.03139383               -0.00035942                0.05742703               -0.65576265
               4.04256986                8.32613311               24.86062238                0.00010000               -0.72985961                0.12107511               -0.35793318                0.53857595                7.39656815               -2.21661784
               5.02744801                8.21673961               24.87214532                0.00010000               -1.87130753                0.69110466               -0.41481078                0.80700297               16.17689781                0.17857169
               6.00514371                8.11103596               24.91346773                0.00010000               -2.37050656                0.95548673               -0.29988805                0.58850401               17.66928479                0.30237346
               6.98003788                8.00330275               24.95489143                0.00010000               -2.58098876                1.01688030               -0.20574221                0.10523014               17.76944679                0.48224190
               7.95352393                7.89284267               24.99795810                0.00010000               -2.62439749                0.94426793               -0.13548819               -0.41612188               18.01709290                0.81965205
               8.92754993                7.78071388               25.04394600                0.00010000               -2.48887270                0.57392881               -0.09201543               -0.89980390               18.38084071                1.37141675
               9.90374648                7.66991972               25.09373520                0.00010000               -1.15335694               -0.02092776               -0.07377777               -0.61634301                9.33208184                2.17863030
              10.90448279                7.57117714               24.95807921                0.00010000                0.14212040                0.13156025               -0.50106460               -0.01176924                0.04388336                0.81339805
              11.90658888                7.47295741               24.82179353                0.00010000                0.21060940                0.31510247               -0.92894043               -0.00767269                0.02221349               -0.67528444
               2.16095272                9.56431517               25.09661878                0.00010000                0.00179818               -0.05330799                0.15959612               -0.02192227               -0.00949591                0.73550497
               3.16097070                9.44610724               24.95370896                0.00010000                0.04889629                0.05454951               -0.17239403                0.00080603                0.07528804               -0.56085790
               4.16193065                9.32753552               24.81243295                0.00010000               -0.92596937                0.15879131               -0.50384161                0.80251738                9.35583371               -1.52614427
               5.14245131                9.22451805               24.85512227                0.00010000               -2.25952088                1.03413988               -0.41073467                0.84437158               18.93441478                0.18933529
               6.11674023                9.12185533               24.90535365                0.00010000               -2.63028573                1.13453950               -0.30645900                0.46721490               19.37703969                0.17446157
               7.08984560                9.01459410               24.95663647                0.00010000               -2.78730930                1.17814073               -0.19987476                0.05342153               19.59060537                0.27596480
               8.06099404                8.90390533               25.01085421                0.00010000               -3.01966554                1.17355168               -0.09899367               -0.43073514               20.00898025                0.46194608
               9.02945229                8.78769423               25.07029311                0.00010000               -2.97988100                1.05635780               -0.00333942               -1.08510484               20.61696353                0.82056925
              10.00139642                8.66968681               25.13655796                0.00010000               -1.37711789               -0.00829244                0.02231990               -1.05125897               10.62952206                1.44088448
              11.00190993                8.57238105               24.99584808                0.00010000                0.12106166                0.11335549               -0.41726534               -0.02870965                0.13293557                0.64507422
              12.00381766                8.47592773               24.85185106                0.00010000                0.19077241                0.28056505               -0.86461502               -0.00692484               -0.01958898               -0.63762294
               2.27840531               10.56398201               25.06051770                0.00010000                0.04356579               -0.03331577                0.02788134                0.03350745                0.40372758                0.61587826
               3.27884097               10.44686450               24.91426726                0.00010000                0.09020442                0.07572588               -0.30876514                0.05337267                0.78185208               -0.46664656
               4.28020940               10.32930894               24.77551649                0.00010000               -1.44126626                0.17734117               -0.63360173                1.35577072               11.21736792               -0.96225938
               5.25001564               10.23742241               24.83796547                0.00010000               -2.78987242                1.29043662               -0.46981433                0.97732320               21.09484533                0.16852591
               6.22441195               10.13372675               24.89567731                0.00010000               -2.54796658                1.18714234               -0.34266543                0.23932960               21.00167819                0.08882772
               7.19905631               10.02686557               24.95581206                0.00010000               -2.63014231                1.22714646               -0.21374541                0.05041859               21.30842515                0.14686350
               8.17180910                9.91631370               25.01937813                0.00010000               -2.94949819                1.24083775               -0.08554236               -0.16972066               21.80572165                0.25051555
               9.14006634                9.80184104               25.08934236                0.00010000               -3.68873109                1.41468077                0.05494640               -1.26658611               22.53810050                0.47007629
              10.09803448                9.66975387               25.16789177                0.00010000               -2.11993335                0.00670571                0.07640565               -1.75603363               12.16129381                0.88545064
              11.09766768                9.57344425               25.03092526                0.00010000                0.06612652                0.10632039               -0.34985891                0.01651663                0.88197987                0.52557496
              12.09935701                9.47856871               24.88356819                0.00010000                0.16893321                0.26409781               -0.80579041                0.06638172                0.37631465               -0.54369468
               1.13272448                0.62851544               26.38825034                1.00000000               -0.34561903               -0.37384814                1.30343382               -0.06450036               -0.85065824                0.87895315
               2.12926829                0.49375692               26.30203711                1.00000000               -0.29148603               -0.29543128                1.04583964               -0.05017001               -1.09408655                0.07995716
               3.12689476                0.35872024               26.21094037                1.00000000               -0.16798428               -0.21713352                0.77538186               -0.04160871               -1.05163048               -0.21046909
               4.12590861                0.22441405               26.12561296                1.00000000                0.25486544               -0.17020162                0.51412854                0.39476124               -0.15508654               -0.72415740
               5.13199207                0.10023672               26.05254410                0.00010000                0.40152433               -0.05690606                0.22409848               -0.08015215                0.26735154                0.21025938
               6.13393909               -0.01612383               25.97633675                0.00010000                0.14842592                0.02610325               -0.04963290               -0.01064499               -0.07272793                0.12079414
               7.13496059               -0.13084069               25.89659249                0.00010000                0.10160158                0.09879493               -0.32220429                0.00374389               -0.28333561               -0.07065640
               8.13597112               -0.24550027               25.81610984                0.00010000                0.12567818                0.18497386               -0.60462524                0.01096634               -0.53973488                0.09720002
               9.13747415               -0.36172359               25.73099731                1.00000000                0.21284678                0.27195490               -0.88590082                0.00069420               -0.87240043                0.50414594
              10.14022806               -0.47920597               25.64365326                1.00000000                0.32698880                0.34350775               -1.16042452               -0.03854735               -0.89021287                0.00682050
              11.14401393               -0.59689504               25.55813184                1.00000000                0.37858683                0.42441997               -1.42355843               -0.05027154               -0.80037632               -0.80342690
               1.26683800                1.62477696               26.35358280                1.00000000               -0.31738066               -0.35581008                1.17912954               -0.02386277               -0.11852508                1.19539267
               2.26366419                1.49080261               26.26703187                1.00000000               -0.28439434               -0.27472108                0.92295738               -0.00631240               -0.10571364                0.11154618
               3.26115011                1.35654891               26.18069951                1.00000000               -0.22831076               -0.19408842                0.65830105                0.01266476                0.08788089               -0.57137061
               4.25909798                1.22271203               26.09798551                1.00000000               -0.48453133               -0.15591282                0.38856478                0.56065177                1.63760826               -1.12434228
               5.25145949                1.09966766               26.04256470                0.00010000               -0.48633145                0.06022586                0.14413762               -0.10653183                2.38739862                1.00308515
               6.24937135                0.98413721               25.97411976                0.00010000               -0.08866186                0.08396778               -0.10862711                0.11391077                1.51778517                0.42377191
               7.24968625                0.87014726               25.90113629                0.00010000                0.10754449                0.08321769               -0.36234173                0.16561208                1.42704407               -0.35682017
               8.25152224                0.75634947               25.83089571                0.00010000                0.23238495                0.18638571               -0.61134231                0.16250924                1.43162096                0.60549232
               9.25433395                0.64099596               25.75817284                1.00000000                0.29530386                0.26335853               -0.85942745                0.07333002                0.72888801                0.73948799
              10.25742832                0.52422910               25.67402979                1.00000000                0.34331677                0.33624195               -1.12129239                0.00372173                0.09018243                0.10396078
              11.26120028                0.40734916               25.58856235                1.00000000                0.37719675                0.41926385               -1.38318264               -0.00858800                0.02258530               -0.95131076
               1.40019593                2.62139924               26.32521457                1.00000000               -0.28258315               -0.32561152                1.06529585               -0.01640336                0.04368178                1.51773801
               2.39737010                2.48826250               26.23262605                1.00000000               -0.24786475               -0.23893445                0.80356623                0.00800817                0.20480594                0.08609841
               3.39523864                2.35483847               26.14320622                1.00000000               -0.16836075               -0.15890550                0.55053494                0.03169165                0.79131348               -1.34109199
               4.39400288                2.22129579               26.06231795                0.00010000               -1.34011886               -0.13798978                0.26817370                0.78611914                4.57079222               -2.02743302
               5.36843626                2.10144124               26.04845783                0.00010000               -1.41325876                0.12310399                0.06310537                1.44749747                5.22099663               -1.24556933
               6.36573771                1.98555553               25.97797809                0.00010000               -0.11878465               -0.07292131               -0.15818771                1.20521354                2.01330241               -0.31381365
               7.36606057                1.87082367               25.89997360                0.00010000                0.13174503               -0.13251806               -0.38538580                0.97927343                3.32629062                0.48780830
               8.36837261                1.75822745               25.85587649                0.00010000                0.25002772               -0.09435518               -0.62801900                0.64918032                3.90431346                1.03840534
               9.37106112                1.64354358               25.79010824                1.00000000                0.27883457                0.25341703               -0.82300801                0.10728919                1.91189895                1.48793850
              10.37394930                1.52751886               25.70638641                1.00000000                0.32704719                0.31965606               -1.07557696                0.00964332                0.68426078                0.66174011
              11.37760206                1.41149023               25.61606204                1.00000000                0.36527625                0.41418737               -1.35060812               -0.00743758                0.35327645               -0.96734222
               1.53278341                3.61826473               26.29698115                1.00000000               -0.23982889               -0.30219029                0.94956421               -0.01368223                0.07686449                1.45688526
               2.53038513                3.48602392               26.19708316                1.00000000               -0.20163787               -0.20751589                0.68167853                0.00782267                0.09672038               -0.03663979
               3.52875066                3.35337080               26.09752374                1.00000000               -0.10837664               -0.11937513                0.41944128               -0.00854999                1.04377966               -1.64529087
               4.52821759                3.21995224               26.01655174                0.00010000               -0.63004798               -0.09427851                0.15098741                0.78463173                4.87667465               -2.72399912
               5.51614970                3.10212974               25.99361043                0.00010000               -1.20621992                0.02057756               -0.00632272                2.07462209                7.32537038               -3.10039748
               6.50409319                2.98267878               25.96108429                0.00010000               -0.97749483               -0.08561527               -0.17370756                1.69357955                6.51607558               -1.01344972
               7.49659980                2.86749690               25.92121176                0.00010000               -0.61536327               -0.16480368               -0.35279396                1.38437676                6.06361654                1.13729318
               8.49178593                2.75446237               25.87927965                0.00010000               -0.47057435               -0.17999874               -0.54162048                1.06937894                5.72331155                1.41910454
               9.48718831                2.64606430               25.83226258                0.00010000               -0.10556977                0.16870246               -0.75059715                0.34187769                3.62356011                2.79201571
              10.48967453                2.53062222               25.74794620                1.00000000                0.29602408                0.29228576               -1.00244418               -0.01509643                0.88742856                1.05730161
              11.49310879                2.41563290               25.64614322                1.00000000                0.34342620                0.41496750               -1.31191844               -0.01093736                0.01423092               -0.67324215
               1.66440391                4.61535544               26.26739351                1.00000000               -0.19834198               -0.27396775                0.82479728               -0.02020106                0.10792509                1.29507073
               2.66242049                4.48411218               26.16018934                1.00000000               -0.16322929               -0.16823617                0.55103834               -0.00013052                0.15452091               -0.20151673
               3.66113932                4.35245097               26.05385969                0.00010000               -0.07419580               -0.06486296                0.28867933               -0.05055368                1.16604821               -1.58188428
               4.66093657                4.21941022               25.96687306                0.00010000               -0.69685830                0.05509556                0.01188637                0.59466703                6.27907042               -2.56412303
               5.64720216                4.10185279               25.96276993                0.00010000               -1.33472151                0.08041969               -0.09400548                1.14749955               10.05192672               -1.45341718
               6.63424214                3.98384322               25.95087756                0.00010000               -1.26188212                0.17829552               -0.19630068                1.01154966                9.38240279               -0.39569472
               7.62196451                3.86752759               25.93296173                0.00010000               -1.15246771                0.11994808               -0.31950915                0.85802673                8.94225924                0.77695542
               8.61119279                3.75462747               25.91165888                0.00010000               -1.01128485                0.09162643               -0.46594733                0.78924551                8.80826126                1.93742098
               9.60173882                3.64691763               25.89038497                0.00010000               -0.35570077                0.05466395               -0.64448942                0.32804889                4.81318655                3.36048228
              10.60407877                3.53336458               25.78831583                1.00000000                0.28115714                0.25290276               -0.94426484                0.00081931                0.44652555                1.09381959
              11.60736196                3.41978958               25.67946329                1.00000000                0.32831871                0.41804536               -1.26063223               -0.02249953                0.11054099               -0.46758554
               1.79486590                5.61278538               26.23591813                1.00000000               -0.15789179               -0.23399586                0.69106135               -0.02489681                0.12640788                1.11137317
               2.79328698                5.48265920               26.12130407                0.00010000               -0.12121758               -0.12050815                0.40138353               -0.00711053                0.26353119               -0.42668656
               3.79244155                5.35207354               26.00937270                0.00010000               -0.12889346               -0.00914399                0.12687345               -0.00776975                1.73617070               -1.83076835
               4.79070911                5.22105415               25.92420213                0.00010000               -0.88874308                0.28827340               -0.20852405                0.36951402                8.17959118               -1.25841052
               5.77466669                5.10373814               25.94086608                0.00010000               -1.60298624                0.30117986               -0.18788213                0.84381182               12.72847045               -0.62123891
               6.75864939                4.98624469               25.94654286                0.00010000               -1.58452989                0.33577394               -0.21715250                0.59649768               11.94540895                0.11362239
               7.74297609                4.86989586               25.94717751                0.00010000               -1.52342933                0.30924437               -0.28481643                0.45236420               11.61845734                0.98852431
               8.72818080                4.75629490               25.94565696                0.00010000               -1.39819523                0.20217494               -0.38209187                0.43999758               11.57436596                1.98110299
               9.71501218                4.64715758               25.94449307                0.00010000               -0.56809151                0.01477638               -0.50768410                0.19081198                6.01812923                2.99278858
              10.71681897                4.53568028               25.83068844                0.00010000                0.23983079                0.21522661               -0.83504777                0.01775108                0.23675345                1.15723358
              11.71980880                4.42399381               25.71361639                1.00000000                0.29898288                0.41209346               -1.18951565               -0.02196417                0.07834808               -0.43426773
               1.92415833                6.61067552               26.20263937                0.00010000               -0.11682130               -0.18636093                0.55218535               -0.02460962                0.06626439                0.95975346
               2.92299012                6.48170202               26.07984837                0.00010000               -0.07846755               -0.07273550                0.25135992               -0.00666921                0.24840637               -0.60302927
               3.92258898                6.35226809               25.96063968                0.00010000               -0.31639321                0.04321087               -0.03732621                0.13276832                3.39298465               -2.16680116
               4.91666225                6.22517569               25.90073786                0.00010000               -1.18505650                0.46509758               -0.39715556                0.28574924               10.67432194                0.08962025
               5.89888785                6.10787639               25.92669988                0.00010000               -1.83239414                0.51249627               -0.25643381                0.58965052               14.66470099                0.02676428
               6.88001437                5.99055870               25.94668706                0.00010000               -1.89631283                0.53591418               -0.22707651                0.32258383               14.22438419                0.46033795
               7.86096159                5.87371248               25.96345330                0.00010000               -1.86416744                0.46395966               -0.24497349                0.09533491               14.05505724                1.10923410
               8.84273102                5.75867097               25.97929621                0.00010000               -1.73959600                0.27614703               -0.29338940                0.01636653               14.09701438                1.89714663
               9.82616967                5.64721316               25.99586117                0.00010000               -0.75667278               -0.00124290               -0.36367997               -0.04164689                7.19802853                2.73807936
              10.82759757                5.53766911               25.87248280                0.00010000                0.20629716                0.18481894               -0.73064938                0.01645742                0.13343324                1.07243870
              11.83029562                5.42803145               25.74746176                1.00000000                0.26980497                0.39000921               -1.10530464               -0.01618870                0.05789212               -0.48284010
               2.05232070                7.60905816               26.16810430                0.00010000               -0.07596783               -0.13799901                0.41422599               -0.02339756                0.02718686                0.87537142
               3.05156102                7.48120449               26.03736625                0.00010000               -0.03487285               -0.02811368                0.10501817               -0.00321388                0.16471674               -0.66284260
               4.05162325                7.35293776               25.90931661                0.00010000               -0.53726136                0.08672052               -0.20040966                0.30681978                5.50096060               -2.33781621
               5.04081580                7.23035610               25.88530307                0.00010000               -1.52732820                0.55567669               -0.40215388                0.44014806               13.54016029                0.39630647
               6.02107668                7.11398806               25.91786966                0.00010000               -2.07754126                0.71282463               -0.28259984                0.49524431               16.32575589                0.35641284
               6.99926497                6.99696297               25.94950407                0.00010000               -2.21530819                0.76566370               -0.22259767                0.12473682               16.27023194                0.60296433
               7.97677052                6.87917506               25.98041807                0.00010000               -2.21287603                0.65729022               -0.20124659               -0.24970526               16.31127570                1.08152023
               8.95500745                6.76181784               26.01202917                0.00010000               -2.07947075                0.37715377               -0.20719653               -0.46274806               16.48119862                1.73892808
               9.93518110                6.64713272               26.04528231                0.00010000               -0.93388123               -0.01201842               -0.23319263               -0.32357403                8.36015172                2.53419461
              10.93632983                6.53937666               25.91328770                0.00010000                0.17896207                0.15876453               -0.62952109                0.00492325                0.07179440                0.96005261
              11.93876034                6.43179399               25.78046604                0.00010000                0.24305178                0.35982768               -1.02485685               -0.01105453                0.03857334               -0.56958370
               2.17939772                8.60791554               26.13310014                0.00010000               -0.03514770               -0.09209853                0.27861373               -0.02244893                0.00959172                0.85694827
               3.17904624                8.48113975               25.99464328                0.00010000                0.00880223                0.01482401               -0.03849451               -0.00002931                0.05558662               -0.67001960
               4.17957377                8.35400250               25.85704189                0.00010000               -0.73156682                0.12450049               -0.35845456                0.49831502                7.53970915               -2.24873580
               5.16441491                8.23628922               25.86826080                0.00010000               -1.86939524                0.68054557               -0.35892660                0.71850833               16.53108903                0.29870190
               6.14218586                8.12213288               25.91054282                0.00010000               -2.35463967                0.94047013               -0.28472957                0.50461104               18.10094802                0.36851646
               7.11732211                8.00587198               25.95280358                0.00010000               -2.55366175                1.00473878               -0.21223609                0.02026814               18.20640328                0.53375830
               8.09111263                7.88685829               25.99650152                0.00010000               -2.59018600                0.93389095               -0.15620859               -0.50622247               18.45147532                0.87854894
               9.06551839                7.76621405               26.04285498                0.00010000               -2.44866275                0.56567993               -0.12656137               -0.99888226               18.80878028                1.45304559
              10.04213937                7.64697279               26.09275237                0.00010000               -1.12418163               -0.01358581               -0.12322340               -0.66975425                9.54771572                2.25216407
              11.04303476                7.54084440               25.95287794                0.00010000                0.15502418                0.13871759               -0.53945593               -0.01180620                0.04393083                0.85182085
              12.04523985                7.43522801               25.81237760                0.00010000                0.22050928                0.32537416               -0.95419224               -0.00633360                0.02260898               -0.67621322
               2.30542331                9.60721619               26.09814604                0.00010000                0.00501680               -0.04955718                0.14552545               -0.02195244               -0.01024760                0.73952599
               3.30547348                9.48150097               25.95195110                0.00010000                0.05083817                0.05711597               -0.17964862                0.00114272                0.07524355               -0.57129238
               4.30644007                9.35542777               25.80739907                0.00010000               -0.92089465                0.16018888               -0.50323221                0.75617519                9.57348551               -1.54308048
               5.28705558                9.24396701               25.85115397                0.00010000               -2.24269612                1.01939350               -0.38256876                0.78469023               19.37540139                0.24476929
               6.26158615                9.13279747               25.90231768                0.00010000               -2.60553255                1.12085238               -0.30114931                0.41889198               19.83626333                0.21172226
               7.23494493                9.01705775               25.95458556                0.00010000               -2.76410746                1.17043473               -0.21091330                0.00451964               20.07225810                0.30488821
               8.20630400                8.89785288               26.00975641                0.00010000               -3.00148159                1.17177757               -0.12058232               -0.48888362               20.50748897                0.49578221
               9.17491530                8.77313143               26.07012030                0.00010000               -2.95741693                1.05809882               -0.02946575               -1.15413745               21.09084771                0.88481673
              10.14715566                8.64686101               26.13648834                0.00010000               -1.35384053                0.00743511               -0.03724763               -1.09598980               10.85865542                1.48247894
              11.14783849                8.54215101               25.99144192                0.00010000                0.13554026                0.12619623               -0.46480681               -0.02968539                0.13765682                0.66812968
              12.14986647                8.43830148               25.84304512                0.00010000                0.20279771                0.29125259               -0.89703740               -0.00537563               -0.01760457               -0.64786683
               2.43038911               10.60692440               26.06072585                0.00010000                0.04684100               -0.02917922                0.01336118                0.03234741                0.40619118                0.62044186
               3.43085752               10.48228207               25.91114447                0.00010000                0.09210585                0.07810985               -0.31643024                0.05249868                0.79072116               -0.47444125
               4.43223123               10.35720628               25.76918522                0.00010000               -1.40592548                0.17785144               -0.63323099                1.29886693               11.47575046               -0.97090077
               5.40273901               10.25667709               25.83329260                0.00010000               -2.73791337                1.27100829               -0.46583469                0.93552539               21.60676271                0.18307037
               6.37747296               10.14454993               25.89224236                0.00010000               -2.51909572                1.17524649               -0.34523193                0.21886007               21.51421175                0.10362301
               7.35235710               10.02928067               25.95359646                0.00010000               -2.61058464                1.22229216               -0.23027324                0.02841183               21.84026473                0.15784923
               8.32526127                9.91029384               26.01839746                0.00010000               -2.94647921                1.24409618               -0.11062493               -0.19950568               22.36479167                0.26497484
               9.29342751                9.78737602               26.08977295                0.00010000               -3.70306343                1.42445870                0.03442819               -1.30739589               23.04894112                0.50966011
              10.25120000                9.64712149               26.16832024                0.00010000               -2.12134645                0.02604868                0.00772981               -1.79595094               12.41137022                0.90688779
              11.25100058                9.54336833               26.02715089                0.00010000                0.08157040                0.12173172               -0.40641193                0.01278757                0.90963719                0.54114437
              12.25283141                9.44105306               25.87531560                0.00010000                0.18308237                0.27515803               -0.84562670                0.06496709                0.39086648               -0.55640833
               1.21164603                0.67265975               27.40125705                1.00000000               -0.34503676               -0.37245919                1.29820017               -0.06382710               -0.86474262                0.89167495
               2.20819567                0.53019866               27.31247459                1.00000000               -0.29225370               -0.29385755                1.04198160               -0.04915797               -1.11471830                0.08459216
               3.20580096                0.38744118               27.21868267                1.00000000               -0.17167203               -0.21543580                0.77349126               -0.04199376               -1.07454399               -0.21034412
               4.20476223                0.24532823               27.13074952                1.00000000                0.23428538               -0.16832506                0.51365677                0.37067552               -0.18839969               -0.74363358
               5.21048667                0.11276530               27.05479376                0.00010000                0.37982273               -0.05797007                0.22687263               -0.07807586                0.22271161                0.21998531
               6.21235868               -0.01237201               26.97585256                0.00010000                0.14611080                0.02516753               -0.04678872               -0.01286279               -0.11200578                0.12745850
               7.21340888               -0.13589839               26.89338083                0.00010000                0.10924953                0.09804143               -0.32040667                0.00190454               -0.32751171               -0.07226497
               8.21454367               -0.25925659               26.81007745                0.00010000                0.13735522                0.18369916               -0.60257900                0.00641626               -0.58675728                0.10137306
               9.21615599               -0.38392751               26.72216093                1.00000000                0.21984757                0.26957264               -0.88235946               -0.00219753               -0.91393782                0.51637532
              10.21894062               -0.50970796               26.63208377                1.00000000                0.32807195                0.34204172               -1.15463120               -0.03732971               -0.92194789                0.00684337
              11.22271743               -0.63567549               26.54393857                1.00000000                0.37768048                0.42358287               -1.41634901               -0.04837376               -0.82598695               -0.82611790
               1.35346885                1.66893516               27.36534200                1.00000000               -0.31554775               -0.35484938                1.17282959               -0.02299155               -0.12168222                1.21309201
               2.35031337                1.52726009               27.27623632                1.00000000               -0.28263061               -0.27323405                0.91807417               -0.00530025               -0.11327283                0.11788637
               3.34781624                1.38528682               27.18726231                1.00000000               -0.22532271               -0.19204417                0.65432661                0.01028798                0.07327858               -0.56620334
               4.34580692                1.24364498               27.10185322                1.00000000               -0.46301042               -0.15302386                0.38475062                0.52694148                1.63351313               -1.14093432
               5.33855603                1.11218560               27.04399441                0.00010000               -0.46225088                0.05677370                0.14264887               -0.10086642                2.39714602                1.01199603
               6.33656190                0.98787967               26.97302894                0.00010000               -0.08429067                0.08143194               -0.10895844                0.10399039                1.52476941                0.43517168
               7.33687022                0.86508202               26.89751122                0.00010000                0.10302437                0.08771197               -0.36291740                0.15494720                1.43619405               -0.34969960
               8.33862239                0.74258041               26.82478120                0.00010000                0.22447419                0.18713093               -0.61228686                0.14642401                1.44367353                0.60419530
               9.34135970                0.61876822               26.74958688                1.00000000                0.29094650                0.26202312               -0.85854116                0.06651204                0.73488196                0.75662214
              10.34444132                0.49371246               26.66283197                1.00000000                0.34207603                0.33498785               -1.11923237                0.00476637                0.08962320                0.10824354
              11.34820122                0.36856034               26.57475440                1.00000000                0.37599024                0.41983748               -1.37948158               -0.00671892                0.02244292               -0.97640462
               1.49453635                2.66556276               27.33582860                1.00000000               -0.27983453               -0.32533857                1.05748674               -0.01566197                0.04477395                1.53951770
               2.49173800                2.52473398               27.24063356                1.00000000               -0.24572594               -0.23741262                0.79795076                0.00844959                0.21028221                0.09298687
               3.48962183                2.38360030               27.14869219                1.00000000               -0.16678631               -0.15544222                0.54678542                0.02676129                0.78571927               -1.34209041
               4.48840227                2.24226776               27.06497287                0.00010000               -1.26935855               -0.13388042                0.26260159                0.73991689                4.58916769               -2.03758084
               5.46423466                2.11390078               27.04906546                0.00010000               -1.34301015                0.11069839                0.06053550                1.34872536                5.29114671               -1.23199353
               6.46154207                1.98925663               26.97638282                0.00010000               -0.12137846               -0.07286306               -0.15984104                1.11488370                2.07543934               -0.28152062
               7.46180709                1.86585584               26.89610693                0.00010000                0.11219392               -0.12505865               -0.38840414                0.89920011                3.37735563                0.53017060
               8.46378595                1.74448603               26.84956404                0.00010000                0.22735460               -0.08700844               -0.63618304                0.59234870                3.97206015                1.08506126
               9.46635418                1.62131296               26.78186134                1.00000000                0.27289425                0.25070088               -0.82704234                0.08949266                1.97415785                1.52808454
              10.46924383                1.49699180               26.69562935                1.00000000                0.32665551                0.31660263               -1.07635411                0.00623928                0.70656711                0.68430586
              11.47288729                1.37272126               26.60256873                1.00000000                0.36434543                0.41677201               -1.34862724               -0.00715181                0.36422998               -0.99099117
               1.63481317                3.66242839               27.30643206                1.00000000               -0.23683399               -0.30207982                0.94057525               -0.01362369                0.08144424                1.47312646
               2.63244483                3.52251184               27.20387000                1.00000000               -0.19977405               -0.20554563                0.67562835                0.00771469                0.10445052               -0.03537384
               3.63081769                3.38217798               27.10170720                1.00000000               -0.10700292               -0.11521345                0.41729017               -0.01491931                1.05122214               -1.65761012
               4.63030478                3.24096737               27.01806438                0.00010000               -0.61380146               -0.08918192                0.15181288                0.72487658                4.93518010               -2.74179965
               5.61854166                3.11439957               26.99353518                0.00010000               -1.17001338                0.01136632               -0.00857283                1.91942066                7.44133976               -3.09050625
               6.60690451                2.98642240               26.95932150                0.00010000               -0.94584246               -0.08881515               -0.17889825                1.55541005                6.63018864               -0.96651993
               7.59962481                2.86258085               26.91764045                0.00010000               -0.59461289               -0.16699008               -0.36196397                1.25807743                6.17413908                1.21029124
               8.59501225                2.74084024               26.87381013                0.00010000               -0.44905118               -0.18021667               -0.55311405                0.97953591                5.82660904                1.51480482
               9.59064379                2.62378224               26.82471800                0.00010000               -0.09272229                0.15080924               -0.75874675                0.30300907                3.70381512                2.86605992
              10.59315780                2.50004451               26.73790574                1.00000000                0.29777360                0.28741659               -1.00418034               -0.02288992                0.91701396                1.08570298
              11.59659926                2.37689578               26.63302654                1.00000000                0.34414584                0.41730540               -1.30991465               -0.01012310                0.01357464               -0.68711110
               1.77409698                4.65952117               27.27559133                1.00000000               -0.19542705               -0.27346396                0.81474460               -0.02051755                0.11604022                1.30219709
               2.77214271                4.52062307               27.16566760                1.00000000               -0.16145363               -0.16557494                0.54453470               -0.00098003                0.16850482               -0.21418735
               3.77086790                4.38129603               27.05673452                0.00010000               -0.07322469               -0.06056144                0.28611929               -0.05735183                1.17931811               -1.60988424
               4.77067821                4.24048412               26.96701346                0.00010000               -0.68499328                0.05650941                0.01551923                0.53608056                6.36829374               -2.62905949
               5.75716804                4.11412810               26.96183632                0.00010000               -1.31046083                0.08000201               -0.09302597                1.03657688               10.23336437               -1.45273400
               6.74446900                3.98748033               26.94888664                0.00010000               -1.23086182                0.16840408               -0.20227789                0.89966625                9.56401550               -0.35144216
               7.73255080                3.86251604               26.92970629                0.00010000               -1.11468601                0.10706744               -0.33218562                0.75065520                9.11325994                0.85112315
               8.72217528                3.74088170               26.90691688                0.00010000               -0.96703569                0.07491475               -0.48316062                0.68860042                8.96390884                2.02959421
               9.71321009                3.62432914               26.88384885                0.00010000               -0.32513886                0.02314315               -0.66228530                0.28333841                4.90671657                3.46288943
              10.71567250                3.50274013               26.77882184                1.00000000                0.28861017                0.24588910               -0.95173822               -0.00084870                0.47276803                1.13823464
              11.71898229                3.38106737               26.66683891                1.00000000                0.33097932                0.42199532               -1.26123437               -0.02527483                0.12634405               -0.46706577
               1.91219902                5.65695911               27.24277366                1.00000000               -0.15486427               -0.23294224                0.68001652               -0.02516494                0.12755117                1.11129397
               2.91065037                5.51920034               27.12528159                0.00010000               -0.11947034               -0.11719348                0.39401235               -0.00806361                0.27244130               -0.44881482
               3.90980961                5.38096675               27.01062624                0.00010000               -0.12280323               -0.00372144                0.12360740               -0.01982510                1.72774338               -1.87486177
               4.90819431                5.24209756               26.92223072                0.00010000               -0.87663090                0.28006263               -0.18720556                0.31001965                8.31057740               -1.33838088
               5.89227699                5.11599961               26.93903115                0.00010000               -1.58422082                0.29704180               -0.17937510                0.73171069               13.01440557               -0.60971767
               6.87650989                4.98979049               26.94434944                0.00010000               -1.55202240                0.32480655               -0.22207305                0.48837351               12.20103141                0.16275372
               7.86123654                4.86472220               26.94425516                0.00010000               -1.47693669                0.29166626               -0.30033818                0.34612863               11.85517817                1.06322611
               8.84697116                4.74233853               26.94172307                0.00010000               -1.33922067                0.18023960               -0.40520602                0.33228921               11.79686633                2.07664595
               9.83445213                4.62424510               26.93927141                0.00010000               -0.52842762               -0.01252737               -0.53660890                0.14243576                6.14382276                3.11066317
              10.83640261                4.50496229               26.82225763                0.00010000                0.24935803                0.20678518               -0.84956038                0.02151958                0.25201615                1.22164404
              11.83943929                4.38533568               26.70168314                1.00000000                0.30366844                0.41950873               -1.19542519               -0.02303106                0.07842951               -0.41884270
               2.04911122                6.65486232               27.20810142                0.00010000               -0.11374262               -0.18479565                0.54015182               -0.02462873                0.06529529                0.95740796
               3.04797380                6.51827920               27.08232546                0.00010000               -0.07685219               -0.06910152                0.24389752               -0.00731184                0.25361735               -0.62314696
               4.04757418                6.38122160               26.96025340                0.00010000               -0.30640262                0.04943734               -0.04022018                0.11020892                3.38060572               -2.21069454
               5.04184574                6.24608537               26.89701408                0.00010000               -1.17324250                0.45007901               -0.34692952                0.20586452               10.86209404                0.11629718
               6.02410933                6.12006894               26.92422155                0.00010000               -1.81659310                0.50156477               -0.23925553                0.47307512               15.04414655                0.06846840
               7.00551388                5.99397646               26.94440033                0.00010000               -1.85920001                0.52043913               -0.23086640                0.20872343               14.54525589                0.51779846
               7.98692533                5.86834937               26.96091644                0.00010000               -1.81078640                0.44399785               -0.26313175               -0.01492466               14.35597731                1.18422843
               8.96929815                5.74448649               26.97622312                0.00010000               -1.67451417                0.25484591               -0.32174324               -0.09783908               14.38922237                1.99025843
               9.95343504                5.62407859               26.99204707                0.00010000               -0.71429222               -0.01735194               -0.39914620               -0.09658692                7.35115286                2.85055443
              10.95501231                5.50687583               26.86506131                0.00010000                0.21699211                0.17967351               -0.75298625                0.02057516                0.13903041                1.13103827
              11.95777489                5.38945754               26.73634573                0.00010000                0.27625779                0.39912443               -1.11725263               -0.01647212                0.05876861               -0.46346935
               2.18487269                7.65326320               27.17218274                0.00010000               -0.07278236               -0.13584626                0.40129904               -0.02337758                0.02643102                0.87452183
               3.18414486                7.51781831               27.03837972                0.00010000               -0.03325328               -0.02454707                0.09744938               -0.00331533                0.16601197               -0.67953125
               4.18420762                7.38195550               26.90730314                0.00010000               -0.53403022                0.09271676               -0.20259135                0.27265871                5.57106606               -2.37797342
               5.17346426                7.25109914               26.88159918                0.00010000               -1.51801069                0.53886926               -0.33692350                0.33992610               13.80763162                0.52604543
               6.15384741                7.12603091               26.91514803                0.00010000               -2.05301627                0.69446636               -0.26191554                0.38053458               16.71936880                0.42259921
               7.13240393                7.00019927               26.94725896                0.00010000               -2.17096958                0.74599861               -0.22712036                0.01323040               16.63998146                0.66371622
               8.11042802                6.87360215               26.97830584                0.00010000               -2.15593909                0.63629743               -0.22195141               -0.35935541               16.66951961                1.15393827
               9.08928515                6.74743545               27.00979573                0.00010000               -2.01484815                0.35985862               -0.23997529               -0.57637755               16.83466680                1.82433079
              10.07013105                6.62389806               27.04274323                0.00010000               -0.89249932               -0.01608099               -0.27459355               -0.38184514                8.53916919                2.62725738
              11.07143517                6.50855576               26.90684081                0.00010000                0.19076900                0.15917496               -0.65948012                0.00719898                0.07145009                1.01042601
              12.07394643                6.39331817               26.77012543                0.00010000                0.25112675                0.36982631               -1.04296544               -0.01041608                0.03876378               -0.55731804
               2.31953345                8.65214540               27.13581840                0.00010000               -0.03182583               -0.08916096                0.26476467               -0.02246565                0.00913361                0.85845600
               3.31921519                8.51778826               26.99422112                0.00010000                0.01065342                0.01809476               -0.04625767                0.00041084                0.05402795               -0.68392977
               4.31974652                8.38307593               26.85345328                0.00010000               -0.73231683                0.12875429               -0.35968736                0.45321799                7.71002913               -2.27895208
               5.30456885                8.25686275               26.86496679                0.00010000               -1.85633121                0.66412460               -0.30066456                0.62294021               16.88927798                0.40254095
               6.28261989                8.13395827               26.90777314                0.00010000               -2.31808058                0.91796615               -0.27021045                0.41100875               18.49503432                0.42947301
               7.25820724                8.00889643               26.95064671                0.00010000               -2.50589280                0.98498561               -0.22003795               -0.07174235               18.61829586                0.58502748
               8.23250204                7.88107532               26.99483393                0.00010000               -2.53662756                0.91614414               -0.17782068               -0.60158520               18.86289526                0.94069004
               9.20747469                7.75168366               27.04141477                0.00010000               -2.39121031                0.55185696               -0.16170974               -1.10330915               19.21135100                1.54319927
              10.18467783                7.62375697               27.09127073                0.00010000               -1.08692557               -0.00647690               -0.17305444               -0.72537393                9.74818138                2.32114305
              11.18573618                7.51005933               26.94729009                0.00010000                0.16819566                0.14574602               -0.57825087               -0.01158952                0.04265215                0.88804168
              12.18804174                7.39685407               26.80270969                0.00010000                0.23055644                0.33571097               -0.97966589               -0.00488986                0.02278810               -0.67591437
               2.45313765                9.65147998               27.09952929                0.00010000                0.00848947               -0.04570881                0.13076088               -0.02205526               -0.01096014                0.74290420
               3.45322255                9.51818020               26.95011599                0.00010000                0.05299182                0.06003341               -0.18782780                0.00157158                0.07591432               -0.58166070
               4.45419749                9.38453058               26.80236831                0.00010000               -0.90909078                0.16213407               -0.50323583                0.70155937                9.80261037               -1.55889028
               5.43504073                9.26438163               26.84747090                0.00010000               -2.20817893                0.99718994               -0.35692852                0.71922716               19.81353859                0.27540096
               6.41003391                9.14439023               26.89933067                0.00010000               -2.55943464                1.09957869               -0.29791071                0.36448873               20.26941733                0.24424032
               7.38385204                9.01989898               26.95241820                0.00010000               -2.72124159                1.15521545               -0.22372242               -0.04829648               20.53267910                0.33365276
               8.35560908                8.89192504               27.00844256                0.00010000               -2.96573629                1.16278877               -0.14235735               -0.54999903               20.98925263                0.53265418
               9.32453731                8.75847259               27.06970380                0.00010000               -2.91805843                1.05226393               -0.05161036               -1.22544053               21.53189711                0.96253024
              10.29724791                8.62376853               27.13581301                0.00010000               -1.32155134                0.02354291               -0.09833053               -1.13979002               11.06059512                1.51879660
              11.29810628                8.51147068               26.98655195                0.00010000                0.15056287                0.13949340               -0.51397359               -0.03036292                0.14079947                0.68847951
              12.30025917                8.40003239               26.83391031                0.00010000                0.21528812                0.30227615               -0.93081652               -0.00367025               -0.01546249               -0.65711379
               2.58569189               10.65123122               27.06078492                0.00010000                0.05041254               -0.02487554               -0.00195460                0.03119500                0.40818791                0.62456322
               3.58619602               10.51898893               26.90793866                0.00010000                0.09421899                0.08087259               -0.32536900                0.05171708                0.79984710               -0.48232587
               4.58757627               10.38631861               26.76285187                0.00010000               -1.35511350                0.17880341               -0.63403863                1.22875996               11.73249831               -0.97897451
               5.55909375               10.27680655               26.82864877                0.00010000               -2.65919760                1.24249193               -0.46534058                0.88686330               22.10920500                0.17683022
               6.53439232               10.15594984               26.88877267                0.00010000               -2.46936212                1.15596118               -0.35070677                0.19555059               22.00886373                0.11631620
               7.50970651               10.03200074               26.95120659                0.00010000               -2.57319371                1.21017574               -0.24914861                0.00450963               22.35255053                0.16948813
               8.48292845                9.90433109               27.01716563                0.00010000               -2.92920579                1.24060572               -0.13596745               -0.23165263               22.91310670                0.28222916
               9.45112239                9.77272894               27.09003093                0.00010000               -3.70222543                1.42563530                0.02098335               -1.34665492               23.52291722                0.56183006
              10.40888394                9.62422783               27.16804637                0.00010000               -2.11286676                0.04593080               -0.06374039               -1.83038407               12.62377517                0.92338583
              11.40886506                9.51284920               27.02279702                0.00010000                0.09804909                0.13785172               -0.46585116                0.00946498                0.93462311                0.55413413
              12.41084492                9.40289959               26.86665566                0.00010000                0.19798650                0.28671979               -0.88781508                0.06361459                0.40541399               -0.56787973
               1.29299456                0.71817904               28.41421434                1.00000000               -0.34462561               -0.37117876                1.29340890               -0.06325805               -0.87766741                0.90333285
               2.28954830                0.56792530               28.32287674                1.00000000               -0.29328079               -0.29239299                1.03864541               -0.04823618               -1.13365643                0.08934065
               3.28712894                0.41735407               28.22641019                1.00000000               -0.17593911               -0.21387485                0.77247573               -0.04258239               -1.09535683               -0.20998597
               4.28602952                0.26733398               28.13588610                1.00000000                0.21071579               -0.16639827                0.51461150                0.34471604               -0.21874589               -0.76288197
               5.29134326                0.12623514               28.05708155                0.00010000                0.35411929               -0.05992598                0.23170163               -0.07472599                0.17943695                0.23058122
               6.29311191               -0.00792740               27.97540097                0.00010000                0.14211021                0.02377839               -0.04330584               -0.01529382               -0.15301594                0.13479664
               7.29418546               -0.14054676               27.89018435                0.00010000                0.11719856                0.09739385               -0.31885197               -0.00040351               -0.37318260               -0.07396352
               8.29545588               -0.27288029               27.80405826                0.00010000                0.15018063                0.18270834               -0.60135859                0.00135648               -0.63370576                0.10434489
               9.29718908               -0.40624798               27.71335012                1.00000000                0.22777943                0.26759735               -0.88017094               -0.00508681               -0.95428306                0.52840811
              10.30001147               -0.54056550               27.62056063                1.00000000                0.32977618                0.34138915               -1.15055664               -0.03587635               -0.95270936                0.00627594
              11.30378460               -0.67504908               27.52980486                1.00000000                0.37731334                0.42399735               -1.41108328               -0.04639096               -0.85125408               -0.84876182
               1.44261572                1.71446725               28.37703939                1.00000000               -0.31372966               -0.35397498                1.16676677               -0.02224120               -0.12488408                1.22960564
               2.43947842                1.56500137               28.28539336                1.00000000               -0.28084698               -0.27183699                0.91336249               -0.00440346               -0.12111896                0.12447184
               3.43699878                1.41521533               28.19378604                1.00000000               -0.22211381               -0.19011458                0.65041798                0.00766922                0.05787715               -0.55964136
               4.43503615                1.26566999               28.10568052                1.00000000               -0.43860456               -0.15004791                0.38054872                0.49019979                1.63014756               -1.15655205
               5.42822669                1.12563588               28.04541768                0.00010000               -0.43431128                0.05127279                0.14369742               -0.09268152                2.40890119                1.02377281
               6.42634992                0.99231038               27.97194059                0.00010000               -0.07844090                0.07799771               -0.10788768                0.09422086                1.53224406                0.44825170
               7.42665787                0.86042718               27.89387794                0.00010000                0.09850637                0.09223089               -0.36379794                0.14387076                1.44469592               -0.34295048
               8.42832005                0.72894679               27.81864997                0.00010000                0.21614708                0.18900143               -0.61462014                0.13021727                1.45554344                0.59898149
               9.43098081                0.59642800               27.74100202                1.00000000                0.28666025                0.26110643               -0.85920181                0.05957412                0.74096579                0.77214052
              10.43405326                0.46284839               27.65164515                1.00000000                0.34117281                0.33483536               -1.11912735                0.00623403                0.08901245                0.11223749
              11.43780427                0.32919090               27.56097272                1.00000000                0.37510149                0.42236765               -1.37810170               -0.00458449                0.02257157               -1.00063902
               1.59148150                2.71109954               28.34636430                1.00000000               -0.27693434               -0.32513583                1.04982124               -0.01506338                0.04543579                1.56027235
               2.58871216                2.56248856               28.24858506                1.00000000               -0.24339000               -0.23594830                0.79215789                0.00864090                0.21515087                0.10045860
               3.58661370                2.41355178               28.15414193                1.00000000               -0.16495998               -0.15195340                0.54305614                0.02132002                0.77770023               -1.33999937
               4.58541296                2.26433302               28.06756999                0.00010000               -1.18822302               -0.12971670                0.25690226                0.68829403                4.60721860               -2.04182112
               5.56284924                2.12726060               28.04966854                0.00010000               -1.26039639                0.09564380                0.06322626                1.23961044                5.36262422               -1.21584094
               6.56020503                1.99363255               27.97478127                0.00010000               -0.12113886               -0.07329071               -0.16031127                1.01395168                2.13769294               -0.24839596
               7.56042647                1.86129785               27.89220552                0.00010000                0.09271845               -0.11619083               -0.39241576                0.81016378                3.42564188                0.57037315
               8.56205940                1.73089974               27.84315283                0.00010000                0.20262474               -0.07705886               -0.64795865                0.52984010                4.03786968                1.12857170
               9.56447896                1.59897415               27.77356739                1.00000000                0.26569241                0.24849955               -0.83282900                0.07098288                2.03819261                1.56597987
              10.56737325                1.46613121               27.68485932                1.00000000                0.32644717                0.31477031               -1.07925514                0.00385717                0.72979772                0.70894705
              11.57100790                1.33339828               27.58908949                1.00000000                0.36346542                0.42148037               -1.34942822               -0.00657198                0.37631810               -1.01008753
               1.73953642                3.70796453               28.31579265                1.00000000               -0.23374179               -0.30208778                0.93176940               -0.01367980                0.08568695                1.48875508
               2.73719900                3.56028240               28.21059572                1.00000000               -0.19778472               -0.20358541                0.66942252                0.00734776                0.11223866               -0.03335887
               3.73558072                3.41217626               28.10586955                1.00000000               -0.10528928               -0.11087713                0.41479372               -0.02203098                1.05905403               -1.66748048
               4.73509321                3.26307566               28.01958800                0.00010000               -0.59306777               -0.08351636                0.15208609                0.65800935                4.99089978               -2.75184289
               5.72371937                3.12754876               27.99343898                0.00010000               -1.12507562                0.00207705               -0.01091866                1.74579628                7.55111786               -3.07675953
               6.71259170                2.99084457               27.95750633                0.00010000               -0.90627037               -0.09230508               -0.18451906                1.40010239                6.73782070               -0.91982977
               7.70559396                2.85810336               27.91397248                0.00010000               -0.56755734               -0.16812578               -0.37220663                1.11670270                6.27839150                1.28108474
               8.70124055                2.72740562               27.86821737                0.00010000               -0.42124786               -0.17966615               -0.56623025                0.87818190                5.92656106                1.60953637
               9.69716900                2.60139799               27.81708764                0.00010000               -0.07671389                0.13239278               -0.76975255                0.26137078                3.78523741                2.93580437
              10.69970628                2.46914380               27.72786260                1.00000000                0.29848469                0.28230877               -1.00373097               -0.03033301                0.94910836                1.11562439
              11.70313870                2.33762050               27.61994493                1.00000000                0.34324200                0.41966944               -1.30396404               -0.00998986                0.01326708               -0.69435853
               1.88657217                4.70505778               28.28368840                1.00000000               -0.19247820               -0.27316826                0.80487842               -0.02086150                0.12404932                1.30877396
               2.88464739                4.55841685               28.17108003                1.00000000               -0.15961737               -0.16286794                0.53792598               -0.00196615                0.18247840               -0.22644234
               3.88337983                4.41133424               28.05958207                0.00010000               -0.07233726               -0.05594149                0.28304301               -0.06437986                1.19373483               -1.63668266
               4.88320065                4.26266269               27.96718345                0.00010000               -0.66917823                0.06051239                0.01642282                0.46952186                6.45418472               -2.67869575
               5.86999626                4.12730214               27.96090941                0.00010000               -1.27740828                0.08048991               -0.09272538                0.91202356               10.40561384               -1.44387462
               6.85765248                3.99178645               27.94683200                0.00010000               -1.18983964                0.15707549               -0.20942872                0.77437513                9.73449069               -0.30500978
               7.84619947                3.85793534               27.92631802                0.00010000               -1.06620358                0.09234429               -0.34621223                0.63160144                9.27397772                0.92472982
               8.83632841                3.72730642               27.90199566                0.00010000               -0.91156376                0.05579797               -0.50206184                0.57739956                9.11181630                2.11950229
               9.82796819                3.60162201               27.87713927                0.00010000               -0.28921673               -0.01126805               -0.68145148                0.23280206                5.00088890                3.55903860
              10.83054407                3.47177738               27.76928106                1.00000000                0.29432517                0.23649429               -0.95087249               -0.00445265                0.50225126                1.17987571
              11.83385470                3.34179166               27.65423860                1.00000000                0.33106225                0.42448144               -1.25397439               -0.02918832                0.14129274               -0.46348259
               2.03240105                5.70250117               28.24951846                1.00000000               -0.15178359               -0.23215970                0.66906751               -0.02541366                0.12833164                1.11050500
               3.03088322                5.55702504               28.12918432                0.00010000               -0.11768852               -0.11379509                0.38650096               -0.00903242                0.28116055               -0.47054492
               4.03004728                5.41105743               28.01184485                0.00010000               -0.11837341                0.00215310                0.11992433               -0.03032449                1.72902256               -1.91756977
               5.02851575                5.26428591               27.92045802                0.00010000               -0.86056022                0.27352399               -0.16791257                0.24182317                8.44292885               -1.38963319
               6.01283608                5.12915856               27.93727858                0.00010000               -1.55348733                0.29133682               -0.17155381                0.60442191               13.28314897               -0.58780127
               6.99744600                4.99398608               27.94210140                0.00010000               -1.50650295                0.31093484               -0.22837936                0.36819045               12.43964505                0.21498655
               7.98270602                4.85995024               27.94117074                0.00010000               -1.41720642                0.27055158               -0.31747543                0.22971886               12.07724356                1.13801062
               8.96910188                4.72852158               27.93755284                0.00010000               -1.26759727                0.15485284               -0.42955588                0.21394057               12.00627932                2.17057303
               9.95735408                4.60117263               27.93376089                0.00010000               -0.48271544               -0.04347879               -0.56543535                0.08692269                6.26613276                3.22493956
              10.95944757                4.47387369               27.81369724                0.00010000                0.25861465                0.19646582               -0.86194363                0.02364696                0.26997658                1.28295001
              11.96252637                4.34611013               27.68970789                1.00000000                0.30788014                0.42640534               -1.20016075               -0.02398268                0.07813300               -0.40268276
               2.17701615                6.70041459               28.21344241                0.00010000               -0.11056693               -0.18347779                0.52802152               -0.02464860                0.06427973                0.95418088
               3.17591048                6.55614095               28.08472632                0.00010000               -0.07518407               -0.06534197                0.23619051               -0.00798194                0.25876714               -0.64261478
               4.17551247                6.41137730               27.95983528                0.00010000               -0.29872518                0.05604850               -0.04346801                0.08850236                3.39296677               -2.25276374
               5.16993598                6.26813317               27.89379927                0.00010000               -1.15639706                0.43191938               -0.29487496                0.11796803               11.05554796                0.16817995
               6.15238453                6.13312888               27.92191477                0.00010000               -1.78556889                0.48649520               -0.22249908                0.34200862               15.39147073                0.11772355
               7.13422460                5.99800515               27.94206973                0.00010000               -1.80630928                0.50024210               -0.23620265                0.08391421               14.84285160                0.57755342
               8.11625835                5.86334637               27.95819067                0.00010000               -1.74198827                0.41930400               -0.28301229               -0.13417763               14.63820172                1.25979441
               9.09938484                5.73040347               27.97286135                0.00010000               -1.59519034                0.22956123               -0.35120826               -0.22162072               14.66514309                2.08292725
              10.08435454                5.60075243               27.98787824                0.00010000               -0.66526641               -0.03592116               -0.43456658               -0.15657171                7.49802967                2.96261617
              11.08607951                5.47570670               27.85742308                0.00010000                0.22738048                0.17413579               -0.77404568                0.02481986                0.14633115                1.18871253
              12.08890215                5.35031977               27.72511670                0.00010000                0.28226391                0.40867729               -1.12868665               -0.01669298                0.05939419               -0.44200474
               2.32045537                7.69883161               28.17613029                0.00010000               -0.06944991               -0.13382358                0.38803373               -0.02340105                0.02568263                0.87271613
               3.31976087                7.55571820               28.03931523                0.00010000               -0.03151287               -0.02080310                0.08947148               -0.00358922                0.16731850               -0.69567898
               4.31982511                7.41217840               27.90526478                0.00010000               -0.53186649                0.09904942               -0.20527539                0.23611463                5.67324936               -2.41624374
               5.30912354                7.27292429               27.87856460                0.00010000               -1.50104160                0.51675783               -0.26996875                0.23273491               14.08274902                0.65901842
               6.28980428                7.13888846               27.91263135                0.00010000               -2.01083719                0.67054163               -0.24243317                0.25443605               17.07267365                0.48832744
               7.26890679                7.00399092               27.94496166                0.00010000               -2.10900682                0.72040707               -0.23354066               -0.10747529               16.98298993                0.72500065
               8.24762414                6.86833632               27.97597905                0.00010000               -2.08216971                0.60944984               -0.24445769               -0.47669979               17.00627141                1.22843965
               9.22726340                6.73311280               28.00722967                0.00010000               -1.93523635                0.33832468               -0.27377829               -0.69791723               17.16893664                1.91120901
              10.20891941                6.60045421               28.03979044                0.00010000               -0.84433869               -0.02132813               -0.31554864               -0.44416291                8.70864964                2.71913948
              11.21037663                6.47735640               27.90009810                0.00010000                0.20234765                0.15936961               -0.68851334                0.00994072                0.07100370                1.05977948
              12.21296637                6.35428368               27.75960673                0.00010000                0.25897410                0.38025345               -1.06098061               -0.00955860                0.03888781               -0.54306414
               2.46277495                8.69773812               28.13839544                0.00010000               -0.02830381               -0.08619322                0.25031754               -0.02255658                0.00870106                0.85906492
               3.46249192                8.55572489               27.99371813                0.00010000                0.01268602                0.02160048               -0.05461029                0.00060219                0.05268123               -0.69756395
               4.46302867                8.41335829               27.84984814                0.00010000               -0.73056497                0.13364901               -0.36164474                0.40278523                7.90715697               -2.30755800
               5.44788062                8.27846833               27.86224751                0.00010000               -1.83110223                0.64343761               -0.24828145                0.52109393               17.25314940                0.48494995
               6.42640663                8.14653971               27.90513861                0.00010000               -2.26266911                0.88971384               -0.25866320                0.30839368               18.85197494                0.48378066
               7.40262723                8.01241329               27.94840282                0.00010000               -2.44020812                0.95900003               -0.23027430               -0.17122566               19.00558987                0.63579302
               8.37760247                7.87553537               27.99294511                0.00010000               -2.46593105                0.89189674               -0.20085165               -0.70320018               19.25200551                1.00695121
               9.35330861                7.73716997               28.03962078                0.00010000               -2.31873932                0.53265415               -0.19742899               -1.21450531               19.58932031                1.64505719
              10.33122768                7.60032587               28.08929128                0.00010000               -1.04298813                0.00035494               -0.22233610               -0.78379381                9.93381503                2.38599285
              11.33244885                7.47889409               27.94131292                0.00010000                0.18143704                0.15286354               -0.61725585               -0.01102373                0.03993610                0.92193842
              12.33485642                7.35792484               27.79278428                0.00010000                0.24075711                0.34647754               -1.00619936               -0.00321882                0.02272740               -0.67444685
               2.60403070                9.69710775               28.10076126                0.00010000                0.01220392               -0.04168635                0.11519065               -0.02223169               -0.01166471                0.74573801
               3.60415274                9.55615021               27.94819454                0.00010000                0.05533369                0.06326622               -0.19684586                0.00196160                0.07748973               -0.59218796
               4.60513737                9.41485138               27.79733435                0.00010000               -0.88943701                0.16506942               -0.50460783                0.63926199               10.04105950               -1.57447388
               5.58636400                9.28579305               27.84401540                0.00010000               -2.15550911                0.96948077               -0.33996166                0.64765256               20.24860271                0.27925608
               6.56202719                9.15668274               27.89635947                0.00010000               -2.49386881                1.07262712               -0.29902088                0.30318278               20.67819258                0.27130685
               7.53648662                9.02317092               27.95011111                0.00010000               -2.66118665                1.13401798               -0.23958350               -0.10602838               20.97289938                0.36211086
               8.50880346                8.88617426               28.00690926                0.00010000               -2.91519155                1.14784548               -0.16505136               -0.61542165               21.45720904                0.57331123
               9.47818279                8.74376588               28.06908809                0.00010000               -2.86420231                1.03941967               -0.06954172               -1.30082245               21.93963458                1.05828517
              10.45151941                8.60046130               28.13452173                0.00010000               -1.28128049                0.03983135               -0.15985663               -1.18352400               11.23250838                1.54951037
              11.45255718                8.48041367               27.98116245                0.00010000                0.16605417                0.15333897               -0.56464964               -0.03065845                0.14212950                0.70587927
              12.45484049                8.36121323               27.82442879                0.00010000                0.22833138                0.31399628               -0.96690336               -0.00174504               -0.01321065               -0.66529203
               2.74424539               10.69690439               28.06068676                0.00010000                0.05421254               -0.02033584               -0.01820692                0.03005133                0.40967320                0.62845500
               3.74478752               10.55699021               27.90463709                0.00010000                0.09628436                0.08399973               -0.33542719                0.05124245                0.80949441               -0.49068997
               4.74617108               10.41665968               27.75650445                0.00010000               -1.28926051                0.18083006               -0.63713906                1.14675735               11.98689029               -0.98793264
               5.71900231               10.29785794               27.82398579                0.00010000               -2.55393332                1.20648954               -0.47036195                0.83045962               22.60052690                0.15046501
               6.69509241               10.16799225               27.88522823                0.00010000               -2.39935814                1.13095132               -0.36120972                0.16830754               22.48590345                0.12661130
               7.67101514               10.03509365               27.94861349                0.00010000               -2.51966725                1.19227281               -0.27168038               -0.02214635               22.84623689                0.18183373
               8.64469907                9.89849228               28.01567811                0.00010000               -2.90050126                1.23180177               -0.16248287               -0.26720320               23.45512324                0.30297090
               9.61300512                9.75795836               28.09019262                0.00010000               -3.68948280                1.41924759                0.01460027               -1.38625606               23.95856300                0.63071386
              10.57090941                9.60112250               28.16704543                0.00010000               -2.09606820                0.06611937               -0.13733334               -1.86087421               12.79321714                0.93444249
              11.57108376                9.48196087               28.01783387                0.00010000                0.11564965                0.15472003               -0.52837339                0.00677096                0.95669019                0.56425439
              12.57322241                9.36420477               27.85755930                0.00010000                0.21386498                0.29915368               -0.93363693                0.06258052                0.42002480               -0.57789752
               1.37676790                0.76507632               29.42712523                1.00000000               -0.34412056               -0.36990032                1.28868450               -0.06287453               -0.88949238                0.91412607
               2.37332669                0.60695224               29.33324749                1.00000000               -0.29417169               -0.29110360                1.03545940               -0.04756337               -1.15060972                0.09411977
               3.37088446                0.44848976               29.23413219                1.00000000               -0.18053733               -0.21275029                0.77211408               -0.04330861               -1.11320722               -0.20918132
               4.36971594                0.29048175               29.14104175                1.00000000                0.18380350               -0.16516991                0.51758786                0.31697472               -0.24513554               -0.78115515
               5.37456053                0.14070467               29.05942780                0.00010000                0.32398082               -0.06306007                0.23726335               -0.07050911                0.13663597                0.24265648
               6.37619556               -0.00275532               28.97498645                0.00010000                0.13637035                0.02197186               -0.03968593               -0.01838013               -0.19600619                0.14240474
               7.37728794               -0.14476484               28.88700379                0.00010000                0.12541142                0.09666925               -0.31649733               -0.00320740               -0.41983852               -0.07593861
               8.37870379               -0.28635310               28.79805028                0.00010000                0.16400084                0.18185758               -0.59945291               -0.00437485               -0.68074154                0.10587922
               9.38056796               -0.42866313               28.70455751                1.00000000                0.23639545                0.26568922               -0.87786278               -0.00832993               -0.99385466                0.54018254
              10.38343170               -0.57175147               28.60907264                1.00000000                0.33179710                0.34099838               -1.14684887               -0.03424914               -0.98285796                0.00474027
              11.38720390               -0.71498645               28.51571690                1.00000000                0.37722005                0.42493681               -1.40665734               -0.04413689               -0.87654513               -0.87227923
               1.53426323                1.76137732               29.38867734                1.00000000               -0.31188919               -0.35306864                1.16102045               -0.02182909               -0.12819532                1.24517007
               2.53114434                1.60404120               29.29450357                1.00000000               -0.27883058               -0.27057253                0.90877476               -0.00391848               -0.12946679                0.13115372
               3.52868662                1.44636225               29.20027067                1.00000000               -0.21830537               -0.18864763                0.64639161                0.00476469                0.04128473               -0.55140630
               4.52677823                1.28883005               29.10946420                1.00000000               -0.41063207               -0.14789520                0.37751867                0.45079580                1.62884509               -1.16968735
               5.52047398                1.14007407               29.04686835                0.00010000               -0.40158566                0.04289930                0.14904030               -0.08251684                2.42466044                1.04034098
               6.51874652                0.99746440               28.97087118                0.00010000               -0.07096107                0.07391479               -0.10522698                0.08455830                1.53871681                0.46153500
               7.51905476                0.85620185               28.89023526                0.00010000                0.09313333                0.09668085               -0.36422599                0.13307527                1.45080148               -0.33732787
               8.52060919                0.71546547               28.81248879                0.00010000                0.20645417                0.19215835               -0.61803647                0.11347933                1.46650295                0.58882449
               9.52318384                0.57399376               28.73240284                1.00000000                0.28208399                0.26050297               -0.86127944                0.05183089                0.74684801                0.78593651
              10.52625087                0.43165852               28.64044942                1.00000000                0.34068354                0.33523775               -1.12077664                0.00775738                0.08791227                0.11513796
              11.52999751                0.28926292               28.54719237                1.00000000                0.37466460                0.42668739               -1.37884769               -0.00208912                0.02272305               -1.02566329
               1.69100354                2.75801495               29.35682503                1.00000000               -0.27401552               -0.32489647                1.04300088               -0.01453880                0.04542111                1.58025854
               2.68826339                2.60154079               29.25647671                1.00000000               -0.24063174               -0.23457585                0.78618061                0.00851137                0.21883014                0.10855083
               3.68619091                2.44471680               29.15955331                1.00000000               -0.16216733               -0.14870137                0.53766092                0.01514673                0.76660020               -1.33433291
               4.68502004                2.28752385               29.07011092                0.00010000               -1.09575271               -0.12565012                0.25075915                0.63104830                4.62714364               -2.03787297
               5.66427585                2.14156266               29.05032999                0.00010000               -1.16305434                0.07747154                0.07011670                1.11854211                5.43940221               -1.19683057
               6.66175895                1.99872298               28.97317660                0.00010000               -0.11637408               -0.07446598               -0.16266310                0.89935074                2.19730848               -0.21598572
               7.66194837                1.85716877               28.88825861                0.00010000                0.07112565               -0.10559049               -0.39599060                0.70969644                3.46789341                0.60753757
               8.66318147                1.71749006               28.83660486                0.00010000                0.17315809               -0.06386727               -0.66281351                0.45986365                4.10051801                1.16898458
               9.66541153                1.57654693               28.76520476                1.00000000                0.25681106                0.24663467               -0.84129327                0.04913483                2.10472459                1.60083867
              10.66831769                1.43495329               28.67404425                1.00000000                0.32708891                0.31383715               -1.08580008                0.00160975                0.75310266                0.73629265
              11.67195331                1.29354730               28.57558017                1.00000000                0.36356238                0.42982901               -1.35573388               -0.00547708                0.38890121               -1.02366938
               1.84692077                3.75487939               29.32506745                1.00000000               -0.23080601               -0.30220547                0.92373691               -0.01341195                0.08949670                1.50386553
               2.84461271                3.59934969               29.21725845                1.00000000               -0.19571386               -0.20175814                0.66327414                0.00720274                0.11982644               -0.03032919
               3.84300650                3.44338823               29.11000307                1.00000000               -0.10296854               -0.10648664                0.41105878               -0.02921787                1.06649301               -1.67433063
               4.84255334                3.28631705               29.02110610                0.00010000               -0.56803999               -0.07418328                0.14864583                0.58249036                5.03809270               -2.74645353
               5.83164570                3.14162351               28.99331681                0.00010000               -1.07129598               -0.00758238               -0.01463850                1.55069676                7.65233763               -3.06199965
               6.82112742                2.99597508               28.95563112                0.00010000               -0.85820487               -0.09689594               -0.19143848                1.22288928                6.83865406               -0.87395938
               7.81448160                2.85409004               28.91019631                0.00010000               -0.53495580               -0.16781994               -0.38392791                0.95656870                6.37605931                1.34905567
               8.81042831                2.71418813               28.86248552                0.00010000               -0.38891412               -0.17768928               -0.58043053                0.76226505                6.02137346                1.70382387
               9.80670332                2.57892645               28.80932295                0.00010000               -0.05728083                0.11448717               -0.78510680                0.21390321                3.86671110                3.00118513
              10.80928269                2.43793526               28.71783112                1.00000000                0.29983160                0.27748586               -1.00879901               -0.03832267                0.98636196                1.15103521
              11.81269995                2.29785950               28.60694726                1.00000000                0.34172583                0.42437262               -1.29934021               -0.01058810                0.01963958               -0.69092681
               2.00179470                4.75197084               29.29168890                1.00000000               -0.18961006               -0.27320932                0.79558940               -0.02086311                0.13205932                1.31466676
               2.99989860                4.59750563               29.17642612                1.00000000               -0.15777598               -0.16032674                0.53141056               -0.00246418                0.19645449               -0.23816157
               3.99863918                4.44258707               29.06239538                0.00010000               -0.07320179               -0.05130398                0.27946854               -0.06777877                1.20775998               -1.66196836
               4.99843457                4.28604018               28.96734191                0.00010000               -0.65037117                0.06860102                0.01634926                0.39448819                6.53468100               -2.70636813
               5.98563176                4.14141101               28.95998182                0.00010000               -1.23421814                0.08073613               -0.09388963                0.76978843               10.56974781               -1.42769838
               6.97375020                3.99678506               28.94469806                0.00010000               -1.13825325                0.14387029               -0.21871619                0.63422832                9.89380636               -0.25702118
               7.96286670                3.85381237               28.92278205                0.00010000               -1.00799258                0.07598588               -0.36220587                0.49997996                9.42473847                0.99746048
               8.95359035                3.71393628               28.89687565                0.00010000               -0.84621149                0.03480901               -0.52238772                0.45512955                9.25123055                2.20721178
               9.94594247                3.57883667               28.87021982                0.00010000               -0.24860827               -0.04607691               -0.70550541                0.17469002                5.09831124                3.65313954
              10.94861819                3.44050300               28.75980439                1.00000000                0.29753011                0.22720086               -0.94374094               -0.01147356                0.53874006                1.21821032
              11.95189307                3.30203475               28.64175942                1.00000000                0.32748807                0.42722142               -1.24585475               -0.03279046                0.15806896               -0.45667913
               2.15543393                5.74941520               29.25615501                1.00000000               -0.14867365               -0.23183602                0.65839539               -0.02549016                0.12888510                1.10874620
               3.15394720                5.59614315               29.13301161                0.00010000               -0.11587851               -0.11048166                0.37902670               -0.00976950                0.28986771               -0.49187692
               4.15311636                5.44236215               29.01302473                0.00010000               -0.11640171                0.00796618                0.11611591               -0.03663527                1.73988231               -1.95859650
               5.15161916                5.28768907               28.91887247                0.00010000               -0.84098859                0.26511014               -0.14714377                0.16593631                8.57724075               -1.40874813
               6.13629659                5.14323823               28.93560008                0.00010000               -1.51042675                0.28298121               -0.16482793                0.45999665               13.53515982               -0.55595712
               7.12141063                4.99885248               28.93978185                0.00010000               -1.44833079                0.29411042               -0.23688911                0.23581692               12.66120244                0.27022642
               8.10732998                4.85560976               28.93790565                0.00010000               -1.34520130                0.24622898               -0.33690237                0.10314381               12.28533010                1.21291268
               9.09450660                4.71488431               28.93313195                0.00010000               -1.18497921                0.12659654               -0.45578745                0.08591220               12.20410961                2.26380052
              10.08363039                4.57800491               28.92796271                0.00010000               -0.43257320               -0.07676525               -0.59418155                0.02432043                6.38788423                3.33831883
              11.08585514                4.44247928               28.80501876                0.00010000                0.26751271                0.18731092               -0.87495801                0.02406495                0.29265630                1.34101080
              12.08898065                4.30640393               28.67767992                1.00000000                0.31255078                0.43419253               -1.20772737               -0.02341217                0.07712203               -0.38620609
               2.30782900                6.74733412               29.21866185                0.00010000               -0.10727304               -0.18253537                0.51581899               -0.02468687                0.06332452                0.94979473
               3.30675627                6.59529599               29.08704927                0.00010000               -0.07342203               -0.06151172                0.22834094               -0.00890914                0.26403538               -0.66139312
               4.30636056                6.44274639               28.95938404                0.00010000               -0.29395284                0.06278075               -0.04674026                0.06766352                3.43144050               -2.29269629
               5.30087721                6.29134239               28.89111658                0.00010000               -1.13461385                0.40710994               -0.24004476                0.02288761               11.25482510                0.24488740
               6.28366828                6.14707064               28.91977157                0.00010000               -1.73910990                0.46676919               -0.20697470                0.19660547               15.70471956                0.17393721
               7.26609501                6.00266727               28.93967628                0.00010000               -1.73852664                0.47568570               -0.24402460               -0.05141378               15.11682085                0.63958914
               8.24889775                5.85873695               28.95525619                0.00010000               -1.65907875                0.39033735               -0.30541928               -0.26217976               14.90256990                1.33634183
               9.23291344                5.71646821               28.96919896                0.00010000               -1.50319208                0.20079450               -0.38229459               -0.35448508               14.92674269                2.17592596
              10.21883391                5.57730136               28.98335574                0.00010000               -0.61064826               -0.05685479               -0.47012474               -0.22068804                7.64111522                3.07549985
              11.22070047                5.44424922               28.84958040                0.00010000                0.23708076                0.16911180               -0.79271715                0.03005228                0.15665497                1.24697458
              12.22357552                5.31071860               28.71377200                0.00010000                0.28750483                0.41926938               -1.14001966               -0.01674868                0.06051916               -0.41627024
               2.45901644                7.74576449               29.17994342                0.00010000               -0.06597064               -0.13191966                0.37436165               -0.02350341                0.02495371                0.86975438
               3.45835674                7.59491292               29.04016915                0.00010000               -0.02966019               -0.01691612                0.08117373               -0.00434450                0.16863624               -0.71119356
               4.45842324                7.44361776               28.90319763                0.00010000               -0.53020334                0.10544044               -0.20808983                0.19590341                5.80766395               -2.45222678
               5.44775267                7.29583127               28.87619981                0.00010000               -1.47597093                0.48842850               -0.20401021                0.12100028               14.36393351                0.78906790
               6.42890382                7.15257361               28.91029937                0.00010000               -1.95183179                0.64175624               -0.22609798                0.11853664               17.38401208                0.55232826
               7.40871604                7.00836620               28.94258815                0.00010000               -2.03091929                0.68977884               -0.24307742               -0.23697899               17.29913827                0.78672032
               8.38828544                6.86341650               28.97341669                0.00010000               -1.99317731                0.57735866               -0.26968451               -0.60197827               17.32255943                1.30570692
               9.36885249                6.71890020               29.00432017                0.00010000               -1.84249091                0.31290863               -0.30908013               -0.82735972               17.48635541                2.00061115
              10.35143562                6.57686782               29.03643226                0.00010000               -0.79067710               -0.02779103               -0.35555164               -0.51052994                8.87093461                2.81143110
              11.35303895                6.44586151               28.89307054                0.00010000                0.21356482                0.15922604               -0.71650071                0.01314629                0.07120208                1.10847194
              12.35570691                6.31478931               28.74890582                0.00010000                0.26679670                0.39122341               -1.07999728               -0.00831716                0.03888321               -0.52616779
               2.60906208                8.74469572               29.14082475                0.00010000               -0.02459718               -0.08305399                0.23515803               -0.02273826                0.00827857                0.85865872
               3.60881611                8.59495767               28.99312891                0.00010000                0.01490948                0.02522825               -0.06345214                0.00009932                0.05143198               -0.71080717
               4.60936027                8.44485520               28.84622039                0.00010000               -0.72373723                0.13835170               -0.36399647                0.34639332                8.12608145               -2.33445131
               5.59434137                8.30111096               28.86000116                0.00010000               -1.79280931                0.61986038               -0.20822336                0.41427783               17.61984061                0.54049014
               6.57350409                8.15990576               28.90259987                0.00010000               -2.19144126                0.85765695               -0.25224479                0.19750572               19.17426886                0.53012390
               7.55051254                8.01646284               28.94604122                0.00010000               -2.35899517                0.92821635               -0.24443028               -0.27887196               19.36883429                0.68587507
               8.52632418                7.87028413               28.99081690                0.00010000               -2.37988064                0.86208780               -0.22654734               -0.81228128               19.62009885                1.07824070
               9.50291493                7.72272638               29.03746619                0.00010000               -2.23310947                0.50831305               -0.23441332               -1.33367696               19.94497637                1.76194214
              10.48166199                7.57674554               29.08682401                0.00010000               -0.99365129                0.00683822               -0.27030976               -0.84522701               10.10622695                2.44790613
              11.48304190                7.44743374               28.93494497                0.00010000                0.19457895                0.16029019               -0.65652275               -0.00998062                0.03581973                0.95372770
              12.48555357                7.31854307               28.78258570                0.00010000                0.25116698                0.35811064               -1.03503086               -0.00129957                0.02239349               -0.67149465
               2.75803779                9.74410341               29.10183310                0.00010000                0.01614603               -0.03732033                0.09863106               -0.02246253               -0.01245396                0.74800516
               3.75819925                9.59541748               28.94617907                0.00010000                0.05800180                0.06661816               -0.20648814                0.00167437                0.07914439               -0.60279196
               4.75919782                9.44638480               28.79227615                0.00010000               -0.86057889                0.16822830               -0.50845601                0.57080512               10.28328815               -1.59072628
               5.74098767                9.30822848               28.84067166                0.00010000               -2.08478854                0.93820568               -0.33562526                0.56905464               20.67767781                0.25829845
               6.71750205                9.16972675               28.89335025                0.00010000               -2.41137185                1.04193892               -0.30646853                0.23403248               21.06498137                0.29204419
               7.69276023                9.02693053               28.94762653                0.00010000               -2.58628903                1.10849026               -0.26021816               -0.16998357               21.39385206                0.39006032
               8.66577627                8.88065826               29.00514153                0.00010000               -2.85213491                1.12843391               -0.19047387               -0.68682323               21.91484876                0.61840133
               9.63571753                8.72906646               29.06831296                0.00010000               -2.79762766                1.02038973               -0.08494253               -1.38211363               22.31556312                1.17659515
              10.60982372                8.57700458               29.13261588                0.00010000               -1.23378615                0.05618692               -0.22070632               -1.22770555               11.37303508                1.57496781
              11.61104181                8.44906732               28.97525896                0.00010000                0.18192766                0.16788542               -0.61675567               -0.03049858                0.14149972                0.72049287
              12.61346227                8.32195153               28.81457224                0.00010000                0.24204604                0.32687773               -1.00647937                0.00047025               -0.01088645               -0.67204721
               2.90598470               10.74394932               29.06042078                0.00010000                0.05835223               -0.01540965               -0.03574552                0.02876279                0.41052511                0.63215244
               3.90656822               10.59629003               28.90123011                0.00010000                0.09903416                0.08725516               -0.34605970                0.05041988                0.81833304               -0.49955163
               4.90796538               10.44821977               28.75010908                0.00010000               -1.20938569                0.18349738               -0.64318231                1.05600765               12.23665825               -0.99948315
               5.88238051               10.31987507               28.81924153                0.00010000               -2.42413447                1.16465913               -0.48156536                0.76552233               23.07798899                0.10897847
               6.85948269               10.18074454               28.88154847                0.00010000               -2.30995715                1.10177903               -0.37871025                0.13594284               22.94451451                0.13382074
               7.83618136               10.03863265               28.94577299                0.00010000               -2.45154521                1.17021217               -0.29974076               -0.05247363               23.32194059                0.19475938
               8.81045179                9.89285281               29.01391597                0.00010000               -2.86275142                1.21945461               -0.19239413               -0.30737189               23.99536065                0.32775849
               9.77892633                9.74313418               29.09032293                0.00010000               -3.66723795                1.40677180                0.01223702               -1.42829602               24.35624223                0.72029999
              10.73710703                9.57786928               29.16529970                0.00010000               -2.07206729                0.08646998               -0.21221327               -1.88880523               12.91622370                0.93988233
              11.73748499                9.45079145               29.01222955                0.00010000                0.13437640                0.17241359               -0.59412262                0.00488491                0.97581555                0.57146877
              12.73979456                9.32508062               28.84798292                0.00010000                0.23095670                0.31290965               -0.98452737                0.06214576                0.43477133               -0.58617156
               1.46296018                0.81335734               30.43998803                1.00000000               -0.34310315               -0.36864869                1.28363230               -0.06226316               -0.90119084                0.92518805
               2.45952915                0.64729554               30.34358593                1.00000000               -0.29448210               -0.29003187                1.03203802               -0.04653328               -1.16644275                0.09876559
               3.45707054                0.48089347               30.24185247                1.00000000               -0.18489745               -0.21273951                0.77103980               -0.04214705               -1.12825514               -0.20934618
               4.45583120                0.31486598               30.14623786                1.00000000                0.15303717               -0.16589046                0.51814070                0.28410071               -0.26974059               -0.79948303
               5.46013128                0.15620715               30.06182682                0.00010000                0.28922920               -0.06666447                0.24029863               -0.06757563                0.09206342                0.25551397
               6.46161579                0.00315122               29.97460725                0.00010000                0.12967875                0.01997116               -0.03609049               -0.02262483               -0.23862073                0.14891253
               7.46272486               -0.14852847               29.88385441                0.00010000                0.13357705                0.09542721               -0.31175474               -0.00640368               -0.46520696               -0.07767351
               8.46428733               -0.29963972               29.79206921                0.00010000                0.17823836                0.18084278               -0.59508116               -0.01080554               -0.72740466                0.10616084
               9.46628963               -0.45113498               29.69579286                1.00000000                0.24537966                0.26344674               -0.87368796               -0.01247469               -1.03267740                0.55185165
              10.46919492               -0.60322426               29.59762366                1.00000000                0.33377745                0.34037977               -1.14206000               -0.03282546               -1.01249066                0.00258856
              11.47296518               -0.75544560               29.50167171                1.00000000                0.37702549                0.42599627               -1.40206097               -0.04136855               -0.90206384               -0.89599129
               1.62839935                1.80967085               30.40025980                1.00000000               -0.31035993               -0.35213704                1.15543468               -0.02124472               -0.13156189                1.26102237
               2.62529575                1.64439522               30.30356885                1.00000000               -0.27677515               -0.26954242                0.90475324               -0.00367231               -0.13804295                0.13722200
               3.62286385                1.47876608               30.20671387                1.00000000               -0.21401916               -0.18803727                0.64317426                0.00264092                0.02440070               -0.54283884
               4.62101537                1.31320708               30.11323089                1.00000000               -0.37754686               -0.14661648                0.38148430                0.40611907                1.62909437               -1.17771257
               5.61531291                1.15554051               30.04839849                0.00010000               -0.36290088                0.03341915                0.15790389               -0.07079136                2.44158966                1.05622360
               6.61375735                1.00335093               29.96983605                0.00010000               -0.06283088                0.07008399               -0.10177765                0.07460413                1.53975159                0.46987891
               7.61405629                0.85242580               29.88659342                0.00010000                0.08625879                0.10080145               -0.36290294                0.12244918                1.45165624               -0.33177377
               8.61548253                0.70216870               29.80628924                0.00010000                0.19504257                0.19612130               -0.62196502                0.09549861                1.47553897                0.57407250
               9.61795715                0.55149948               29.72377643                1.00000000                0.27697230                0.26029022               -0.86454280                0.04276391                0.75300350                0.79836446
              10.62102197                0.40017954               29.62922961                1.00000000                0.34078441                0.33498086               -1.12406065                0.00899265                0.08680885                0.11734888
              11.62477283                0.24881436               29.53339576                1.00000000                0.37508597                0.43078006               -1.38208145                0.00092800                0.02317778               -1.05167206
               1.79308655                2.80631460               30.36722432                1.00000000               -0.27260719               -0.32464396                1.03708425               -0.01374124                0.04498077                1.59989943
               2.79036048                2.64190469               30.26430867                1.00000000               -0.23875256               -0.23344045                0.78181784                0.00911395                0.22103476                0.11645792
               3.78831150                2.47713273               30.16489515                1.00000000               -0.15906642               -0.14592531                0.52760616                0.01140236                0.75104727               -1.32532380
               4.78717915                2.31193365               30.07258517                0.00010000               -0.98699471               -0.11457426                0.24153556                0.56343863                4.64199993               -2.01909376
               5.76857161                2.15687554               30.05107087                0.00010000               -1.04782867                0.05582153                0.07237213                0.97737137                5.51506700               -1.18417086
               6.76622258                2.00455290               29.97152801                0.00010000               -0.11077692               -0.07535085               -0.16935855                0.76699709                2.24613919               -0.18986262
               7.76635607                1.85348756               29.88428570                0.00010000                0.04505180               -0.09323823               -0.39646740                0.59671281                3.49679957                0.64126252
               8.76712362                1.70428270               29.82989656                0.00010000                0.13889982               -0.04786956               -0.67912366                0.38210611                4.15601807                1.20759614
               9.76913407                1.55407082               29.75674153                1.00000000                0.24681390                0.24535732               -0.85348202                0.01965699                2.17353090                1.63364581
              10.77205989                1.40347536               29.66314332                1.00000000                0.32900131                0.31124121               -1.09624534               -0.00567917                0.77513799                0.76517514
              11.77571409                1.25317000               29.56197482                1.00000000                0.36541985                0.44041756               -1.36675056               -0.00421670                0.39896411               -1.03037408
               1.95694434                3.80317797               30.33426739                1.00000000               -0.22844393               -0.30255193                0.91668914               -0.01253792                0.09364552                1.51778968
               2.95465990                3.63972641               30.22386121                1.00000000               -0.19407048               -0.20021150                0.65762804                0.00895562                0.12755465               -0.02675179
               3.95306293                3.47584757               30.11409072                1.00000000               -0.10592855               -0.10297562                0.40697551               -0.02515449                1.07205599               -1.67782650
               4.95254133                3.31091559               30.02256092                0.00010000               -0.54109185               -0.05823470                0.14767126                0.49690243                5.07952091               -2.72681825
               5.94224110                3.15665694               29.99314621                0.00010000               -1.00280291               -0.02053171               -0.02202562                1.31958884                7.74914346               -3.05262114
               6.93248527                3.00184391               29.95367756                0.00010000               -0.79901752               -0.10287989               -0.20091705                1.02049444                6.93265367               -0.82976952
               7.92626075                2.85056103               29.90629392                0.00010000               -0.49719445               -0.16561742               -0.39824608                0.77639936                6.46717018                1.41192287
               8.92254139                2.70121131               29.85660876                0.00010000               -0.35515607               -0.17392379               -0.59639599                0.63186149                6.11103208                1.79838500
               9.91915762                2.55640663               29.80138551                0.00010000               -0.03660885                0.09871114               -0.80081753                0.15323330                3.94746524                3.06315167
              10.92180921                2.40640437               29.70768662                1.00000000                0.30707967                0.27392971               -1.03390281               -0.05322662                1.02976128                1.20431702
              11.92529922                2.25762272               29.59395812                1.00000000                0.34900096                0.43777060               -1.31746634               -0.00856926                0.03750296               -0.67609618
               2.11973892                4.80026356               30.29960019                1.00000000               -0.18689221               -0.27374153                0.78679531               -0.02024953                0.14056642                1.31911914
               3.11787000                4.63790046               30.18170824                1.00000000               -0.15598439               -0.15810290                0.52519509               -0.00197007                0.21112282               -0.24985580
               4.11661923                4.47507322               30.06517144                0.00010000               -0.07810815               -0.04753635                0.27586059               -0.06051823                1.22348453               -1.68576611
               5.11630783                4.31076896               29.96751043                0.00010000               -0.62920821                0.07103419                0.02233043                0.31677871                6.61645283               -2.72069606
               6.10403507                4.15646490               29.95903162                0.00010000               -1.17897299                0.07963614               -0.09774898                0.60575686               10.72730890               -1.40649214
               7.09272837                4.00249530               29.94245768                0.00010000               -1.07592048                0.12842409               -0.23122860                0.47947522               10.04290168               -0.20788050
               8.08251666                3.85017521               29.91907390                0.00010000               -0.94065619                0.05866625               -0.38148413                0.35553511                9.56716633                1.06924230
               9.07391525                3.70080423               29.89154791                0.00010000               -0.77554899                0.01314827               -0.54514667                0.32277326                9.38261189                2.29223364
              10.06700568                3.55604504               29.86302916                0.00010000               -0.20679871               -0.08017696               -0.72906346                0.11085289                5.20408751                3.74541833
              11.06977928                3.40895396               29.75040624                1.00000000                0.30501659                0.22567620               -0.95638162               -0.01726813                0.58994724                1.26804221
              12.07310601                3.26192541               29.62932151                1.00000000                0.33267334                0.43753592               -1.26613661               -0.03049141                0.17544143               -0.44698399
               2.28126555                5.79770314               30.26268637                1.00000000               -0.14547028               -0.23207455                0.64781004               -0.02543477                0.12951947                1.10537649
               3.27981085                5.63656435               30.13676485                0.00010000               -0.11407405               -0.10724607                0.37170121               -0.01036466                0.29899318               -0.51303870
               4.27898407                5.47489684               30.01416717                0.00010000               -0.11628145                0.01386288                0.11269687               -0.03866686                1.76278352               -1.99808462
               5.27748522                5.31233628               29.91751514                0.00010000               -0.81770877                0.24673096               -0.12218275                0.08449676                8.71671187               -1.40590314
               6.26262989                5.15824966               29.93398202                0.00010000               -1.45603728                0.27217116               -0.15978331                0.29801383               13.76841982               -0.51497386
               7.24836447                5.00441239               29.93736362                0.00010000               -1.37836862                0.27476644               -0.24873715                0.09163609               12.86570951                0.32892431
               8.23506252                4.85173436               29.93443270                0.00010000               -1.26187294                0.21934832               -0.36006825               -0.03338555               12.48055452                1.28848049
               9.22312702                4.70147428               29.92843709                0.00010000               -1.09187852                0.09647748               -0.48504150               -0.05131868               12.39363751                2.35608516
              10.21322495                4.55480309               29.92187726                0.00010000               -0.37717702               -0.11260816               -0.62583170               -0.03833316                6.51222188                3.45280332
              11.21558347                4.41091789               29.79619808                0.00010000                0.27607605                0.18202271               -0.88631861                0.02937063                0.32287409                1.39606732
              12.21874647                4.26637343               29.66555334                1.00000000                0.31629982                0.44215284               -1.21492273               -0.02327958                0.07840128               -0.36543494
               2.44150780                6.79562207               30.22375879                0.00010000               -0.10387992               -0.18196723                0.50338143               -0.02478187                0.06247450                0.94383975
               3.44046900                6.63575554               30.08929314                0.00010000               -0.07169156               -0.05748332                0.22037554               -0.01015344                0.26955971               -0.67947053
               4.44007397                6.47535047               29.95890048                0.00010000               -0.29120259                0.07003321               -0.04990854                0.04558514                3.49765630               -2.33010092
               5.43464495                6.31570358               29.88899838                0.00010000               -1.10773717                0.37423963               -0.18348609               -0.08134478               11.45901381                0.34068440
               6.41791923                6.16190833               29.91777528                0.00010000               -1.67842761                0.44285305               -0.19406845                0.03766646               15.98066189                0.23539449
               7.40107640                6.00799063               29.93718924                0.00010000               -1.65660822                0.44739915               -0.25576007               -0.19691924               15.36669013                0.70424164
               8.38478706                5.85456217               29.95208228                0.00010000               -1.56281267                0.35776971               -0.33185816               -0.39880320               15.15036650                1.41463615
               9.36982015                5.70273377               29.96521546                0.00010000               -1.39958312                0.16917554               -0.41662621               -0.49606854               15.17693602                2.27035638
              10.35679540                5.55379288               29.97847575                0.00010000               -0.55119001               -0.07942694               -0.50687082               -0.28882921                7.78563094                3.18981367
              11.35879635                5.41259441               29.84156874                0.00010000                0.24669651                0.16216880               -0.80900435                0.03596097                0.17308398                1.30621752
              12.36172933                5.27076847               29.70231631                0.00010000                0.29329857                0.42865946               -1.15228094               -0.01624416                0.06197203               -0.38493213
               2.60050297                7.79406380               30.18361752                0.00010000               -0.06235960               -0.13002289                0.36015627               -0.02369125                0.02425690                0.86540929
               3.59987938                7.63541469               30.04093871                0.00010000               -0.02776197               -0.01283588                0.07259512               -0.00551898                0.17007317               -0.72591714
               4.59994773                7.47629751               29.90110298                0.00010000               -0.52894533                0.11201358               -0.21078318                0.15052320                5.97319679               -2.48524120
               5.58930047                7.31982107               29.87448440                0.00010000               -1.44257793                0.45513468               -0.14204493                0.00311055               14.64985370                0.90757695
               6.57109618                7.16710672               29.90810939                0.00010000               -1.87641148                0.60914907               -0.21506145               -0.02639875               17.65218437                0.61296796
               7.55177224                7.01336038               29.94010011                0.00010000               -1.93764319                0.65508890               -0.25745873               -0.37532386               17.58874457                0.84902250
               8.53234331                6.85888975               29.97058536                0.00010000               -1.88986514                0.54065814               -0.29929846               -0.73550890               17.61994950                1.38667172
               9.51397494                6.70485779               30.00104807                0.00010000               -1.73777895                0.28411195               -0.34725493               -0.96471594               17.79066783                2.09390936
              10.49758773                6.55321455               30.03267941                0.00010000               -0.73239177               -0.03462548               -0.39535185               -0.58092414                9.02986010                2.90652488
              11.49932710                6.41416127               29.88576808                0.00010000                0.22428674                0.15929098               -0.74444930                0.01696412                0.07317030                1.15564188
              12.50207347                6.27494662               29.73800679                0.00010000                0.27463647                0.40300271               -1.10214881               -0.00678902                0.03873954               -0.50719986
               2.75833220                8.79302161               30.14309860                0.00010000               -0.02072854               -0.07959902                0.21920689               -0.02294396                0.00785045                0.85704119
               3.75812491                8.63549882               29.99244909                0.00010000                0.01729267                0.02892409               -0.07272228               -0.00088377                0.05021391               -0.72336000
               4.75867805                8.47759074               29.84256821                0.00010000               -0.71134833                0.14253251               -0.36683805                0.28351304                8.35942196               -2.35967010
               5.74389795                8.32480627               29.85808305                0.00010000               -1.74130533                0.59487868               -0.18380820                0.30217751               17.98490406                0.56455511
               6.72385195                8.17409131               29.90009372                0.00010000               -2.10555277                0.82341476               -0.25318064                0.07809532               19.46541742                0.56797825
               7.70178689                8.02109241               29.94351421                0.00010000               -2.26362359                0.89399919               -0.26448839               -0.39579160               19.70887935                0.73525392
               8.67857947                7.86537534               29.98841416                0.00010000               -2.27929316                0.82767290               -0.25713591               -0.93028514               19.96907454                1.15535058
               9.65620103                7.70841601               30.03493251                0.00010000               -2.13530173                0.47916292               -0.27445780               -1.46150993               20.28248186                1.89659846
              10.63587344                7.55310037               30.08388508                0.00010000               -0.93987360                0.01352089               -0.31667011               -0.90946994               10.26865890                2.50914245
              11.63740356                7.41578023               29.92818246                0.00010000                0.20746990                0.16888430               -0.69667793               -0.00840685                0.03059369                0.98426307
              12.64002284                7.27882853               29.77208366                0.00010000                0.26192810                0.37142211               -1.06804319                0.00096579                0.02186289               -0.66628536
               2.91508967                9.79247182               30.10273388                0.00010000                0.02028971               -0.03247698                0.08095733               -0.02261338               -0.01340669                0.74934817
               3.91529257                9.63599317               29.94406478                0.00010000                0.06104357                0.06991341               -0.21649255                0.00086516                0.07931063               -0.61284325
               4.91631054                9.47914816               29.78716523                0.00010000               -0.82245562                0.17067057               -0.51463666                0.49701234               10.52175497               -1.60675688
               5.89884346                9.33171864               29.83730289                0.00010000               -1.99692978                0.90457478               -0.34432115                0.48258049               21.09573659                0.21737432
               6.87637195                9.18357502               29.89023010                0.00010000               -2.31355391                1.00904549               -0.32211068                0.15605107               21.43180896                0.30609172
               7.85257238                9.03124036               29.94490674                0.00010000               -2.49789738                1.08017582               -0.28788909               -0.24161209               21.79623808                0.41731891
               8.82641400                8.87544321               30.00309978                0.00010000               -2.77763368                1.10616139               -0.22185538               -0.76612268               22.36562803                0.66832459
               9.79701971                8.71444105               30.06738924                0.00010000               -2.71899416                0.99642017               -0.10237375               -1.47065170               22.66402283                1.32060475
              10.77203412                8.55348497               30.13010760                0.00010000               -1.17944475                0.07260643               -0.27991844               -1.27241319               11.48356119                1.59636422
              11.77343081                8.41753895               29.96882734                0.00010000                0.19810369                0.18344155               -0.67029668               -0.02983062                0.13890971                0.73312890
              12.77599619                8.28237506               29.80429921                0.00010000                0.25653809                0.34157279               -1.05083609                0.00302402               -0.00854631               -0.67645091
               3.07083723               10.79237207               30.05997185                0.00010000                0.06286478               -0.00997460               -0.05486822                0.02725741                0.41072428                0.63513037
               4.07146588               10.63689709               29.89771590                0.00010000                0.10277983                0.09039210               -0.35665492                0.04893479                0.82447387               -0.50799260
               5.07289283               10.48100416               29.74364080                0.00010000               -1.11715898                0.18559967               -0.65025768                0.95826198               12.47673175               -1.01158106
               6.04912270               10.34289777               29.81435448                0.00010000               -2.27207874                1.11791248               -0.49863187                0.69132699               23.53709139                0.05993687
               7.02745125               10.19427222               29.87765402                0.00010000               -2.20181199                1.06971982               -0.40498824                0.09783787               23.38266718                0.13730316
               8.00508646               10.04269592               29.94261867                0.00010000               -2.36974579                1.14555620               -0.33584985               -0.08727486               23.77974847                0.20804484
               8.98005633                9.88749856               30.01183023                0.00010000               -2.81701104                1.20553531               -0.22961984               -0.35334190               24.53728750                0.35688323
               9.94874624                9.72834442               30.09043736                0.00010000               -3.63645326                1.39033711                0.00646351               -1.47465024               24.71946160                0.83319497
              10.90732727                9.55455250               30.16280116                0.00010000               -2.04146939                0.10675297               -0.28728890               -1.91545266               12.99320174                0.94004240
              11.90791685                9.41944906               30.00595142                0.00010000                0.15419112                0.19101086               -0.66298424                0.00397786                0.99221270                0.57612467
              12.91041109                9.28565998               29.83786875                0.00010000                0.24942435                0.32849163               -1.04164067                0.06258207                0.44969073               -0.59210150
               1.55154830                0.86303655               31.45279787                1.00000000               -0.34148966               -0.36750734                1.27837202               -0.06092645               -0.91461526                0.93781639
               2.54813340                0.68896170               31.35388825                1.00000000               -0.29404323               -0.28988023                1.02900816               -0.04322584               -1.18500301                0.10351142
               3.54566743                0.51458003               31.24955298                1.00000000               -0.18933073               -0.21172290                0.76800907               -0.03826758               -1.14895567               -0.21419068
               4.54434678                0.34050602               31.15140457                1.00000000                0.11824866               -0.15775303                0.51279857                0.23745226               -0.29906178               -0.81769592
               5.54803240                0.17267162               31.06423377                0.00010000                0.25243879               -0.07171290                0.24013556               -0.07021395                0.05146276                0.26613038
               6.54939556                0.00976533               30.97426464                0.00010000                0.12447226                0.01758894               -0.03166377               -0.02829317               -0.27499248                0.15334208
               7.55052185               -0.15179635               30.88076870                0.00010000                0.14108396                0.09314237               -0.30331102               -0.01047988               -0.50583910               -0.07764232
               8.55221724               -0.31266996               30.78614866                0.00010000                0.19190546                0.17895308               -0.58643844               -0.01787154               -0.77240221                0.10560577
               9.55435996               -0.47359322               30.68708375                1.00000000                0.25429003                0.26056093               -0.86541698               -0.01772472               -1.07035245                0.56333138
              10.55730304               -0.63491161               30.58623144                1.00000000                0.33532782                0.33974390               -1.13469618               -0.03159141               -1.04159746               -0.00029791
              11.56106652               -0.79635438               30.48767568                1.00000000                0.37634749                0.42807527               -1.39652547               -0.03805167               -0.92790070               -0.92060476
               1.72501389                1.85936148               31.41178603                1.00000000               -0.30844807               -0.35156057                1.14972046               -0.02055068               -0.13441858                1.27830519
               2.72192940                1.68606290               31.31259863                1.00000000               -0.27506450               -0.26920530                0.90114579               -0.00094164               -0.14605367                0.14404230
               3.71951260                1.51246280               31.21313416                1.00000000               -0.21269477               -0.18732743                0.64503505                0.00667589                0.01292138               -0.54420439
               4.71767551                1.33892849               31.11709388                1.00000000               -0.34059923               -0.13470363                0.39572946                0.34146142                1.63452455               -1.20399704
               5.71270061                1.17195449               31.05002643                0.00010000               -0.31644475                0.02299491                0.16193096               -0.06926630                2.45092414                1.05961624
               6.71134661                1.00994122               30.96883563                0.00010000               -0.05329579                0.06594449               -0.09924258                0.06259640                1.53265285                0.46959780
               7.71163469                0.84913508               30.88297720                0.00010000                0.07951744                0.10449370               -0.35954352                0.10861606                1.44653248               -0.32338359
               8.71293696                0.68911957               30.80004949                0.00010000                0.18344220                0.19962120               -0.62522201                0.07530362                1.48193824                0.55636224
               9.71530354                0.52901239               30.71511199                1.00000000                0.27153715                0.26019925               -0.86893619                0.03208397                0.76031279                0.80943108
              10.71836771                0.36848583               30.61796821                1.00000000                0.34126148                0.33556995               -1.12918176                0.00990507                0.08627130                0.11981359
              11.72212877                0.20792637               30.51955074                1.00000000                0.37610627                0.43659205               -1.38902567                0.00420886                0.02366341               -1.07686777
               1.89773445                2.85600534               31.37756671                1.00000000               -0.27211984               -0.32510863                1.03085820               -0.01316644                0.04727782                1.61989356
               2.89501325                2.68357759               31.27211307                1.00000000               -0.23995455               -0.23239090                0.77902500                0.01196020                0.22192252                0.12354973
               3.89293536                2.51083348               31.17010543                1.00000000               -0.16644664               -0.14536985                0.52051936                0.02348307                0.73583362               -1.32182287
               4.89168432                2.33781195               31.07494163                1.00000000               -0.86505033               -0.10365347                0.24203452                0.48554047                4.66990425               -2.02452311
               5.87563435                2.17313152               31.05177743                0.00010000               -0.91087053                0.03279197                0.05636917                0.80417928                5.57573179               -1.19306257
               6.87346691                2.01108422               30.96978943                0.00010000               -0.10592663               -0.07455996               -0.17800899                0.62240875                2.28131441               -0.17464267
               7.87351582                1.85029353               30.88032926                0.00010000                0.01895488               -0.07973891               -0.39641155                0.47486736                3.50998231                0.67098445
               8.87384600                1.69132247               30.82302239                0.00010000                0.10597834               -0.03075488               -0.69548756                0.29688154                4.20082003                1.24604170
               9.87563538                1.53161076               30.74813512                1.00000000                0.23705769                0.24447347               -0.86992407               -0.01257260                2.24423826                1.66926561
              10.87858716                1.37179979               30.65211934                1.00000000                0.33171103                0.31364255               -1.11277429               -0.01478541                0.79844777                0.78841333
              11.88226960                1.21237746               30.54824516                1.00000000                0.36824475                0.45322575               -1.38511430               -0.00332131                0.40928574               -1.03998123
               2.06960605                3.85285931               31.34340123                1.00000000               -0.22655802               -0.30355502                0.90949984               -0.01164885                0.09893152                1.53033638
               3.06734047                3.68141508               31.23041101                1.00000000               -0.19290751               -0.19863662                0.65261087                0.01163248                0.13762304               -0.02516979
               4.06574790                3.50955540               31.11814258                1.00000000               -0.11260989               -0.10190881                0.40413677               -0.00941653                1.08308820               -1.67926080
               5.06508828                3.33685542               31.02405953                0.00010000               -0.51179889               -0.05699557                0.15452445                0.41370324                5.12960748               -2.72661203
               6.05551193                3.17261033               30.99287629                0.00010000               -0.92277458               -0.03430804               -0.03266326                1.05954713                7.84296733               -3.04723076
               7.04663278                3.00845002               30.95161278                0.00010000               -0.73090645               -0.10714165               -0.21520580                0.80145088                7.01968723               -0.78777157
               8.04089380                2.84754030               30.90223139                0.00010000               -0.45377119               -0.16175416               -0.41714901                0.58292152                6.55042813                1.46712274
               9.03755736                2.68850447               30.85055760                0.00010000               -0.31595148               -0.16849213               -0.61712503                0.49014430                6.19896682                1.89381517
              10.03457477                2.53390186               30.79330660                0.00010000               -0.01260294                0.08212629               -0.81578448                0.08923497                4.01916991                3.12742874
              11.03730530                2.37475868               30.69715307                1.00000000                0.31661158                0.27763017               -1.06792810               -0.06866720                1.06590745                1.26119522
              12.04090700                2.21699088               30.58059793                1.00000000                0.36016973                0.45611961               -1.35233124               -0.01169091                0.05501328               -0.66433680
               2.24038993                4.84993424               31.30742480                1.00000000               -0.18401210               -0.27475885                0.77770354               -0.01987305                0.15013819                1.32142285
               3.23854981                4.67960486               31.18693002                1.00000000               -0.15416212               -0.15587983                0.51898308               -0.00165763                0.22708224               -0.26224652
               4.23730668                4.50879530               31.06791259                0.00010000               -0.08231789               -0.04419891                0.27257075               -0.05294922                1.24619682               -1.70924774
               5.23690345                4.33667204               30.96778852                0.00010000               -0.60379954                0.06138217                0.03395325                0.23501678                6.71074128               -2.75527461
               6.22523069                4.17244536               30.95802684                0.00010000               -1.11687450                0.07923801               -0.10371279                0.42869689               10.87344774               -1.37801776
               7.21456596                4.00894139               30.94007349                0.00010000               -1.00554504                0.11246934               -0.24780489                0.31272193               10.18151960               -0.15647063
               8.20511979                3.84705844               30.91515237                0.00010000               -0.86393124                0.04153419               -0.40664688                0.19925163                9.70088830                1.14123358
               9.19728733                3.68795262               30.88597271                0.00010000               -0.69769559               -0.00830057               -0.57340921                0.17861369                9.51329628                2.37548856
              10.19116588                3.53325329               30.85563855                0.00010000               -0.15812750               -0.11437334               -0.75258569                0.04694223                5.31193042                3.82971361
              11.19412478                3.37735239               30.74067676                1.00000000                0.32027451                0.22397266               -0.98625488               -0.02111017                0.63646622                1.34177383
              12.19757137                3.22149985               30.61643669                1.00000000                0.34465879                0.45547703               -1.30024559               -0.03869688                0.18067394               -0.41618802
               2.40986735                5.84736413               31.26911121                1.00000000               -0.14210921               -0.23272391                0.63677764               -0.02567144                0.13042936                1.10005489
               3.40844626                5.67829748               31.14044563                0.00010000               -0.11228044               -0.10360660                0.36437268               -0.01183678                0.30875129               -0.53409563
               4.40762174                5.50867142               31.01527867                0.00010000               -0.11538543                0.02066294                0.10959443               -0.04563295                1.79948162               -2.03574377
               5.40613855                5.33808306               30.91642881                0.00010000               -0.79026153                0.22573925               -0.10062030               -0.00985451                8.85750913               -1.39212305
               6.39181651                5.17419509               30.93240441                0.00010000               -1.39322065                0.26028970               -0.15740905                0.12381519               13.97796615               -0.46488602
               7.37827414                5.01069941               30.93480711                0.00010000               -1.29744606                0.25371092               -0.26540270               -0.06341299               13.05170835                0.39228279
               8.36586759                4.84837098               30.93070429                0.00010000               -1.16696742                0.19092864               -0.38938456               -0.18009355               12.66354421                1.36630157
               9.35493479                4.68833846               30.92343112                0.00010000               -0.98768737                0.06558701               -0.52062807               -0.19926175               12.57639882                2.44842289
              10.34611384                4.53161439               30.91544607                0.00010000               -0.31491282               -0.14789003               -0.66362286               -0.10364837                6.64632769                3.56198643
              11.34863653                4.37923813               30.78729238                0.00010000                0.28621470                0.17255884               -0.89568623                0.03414239                0.36726459                1.46114188
              12.35183814                4.22610043               30.65338147                1.00000000                0.32016046                0.45333310               -1.22278667               -0.02634830                0.08407816               -0.32547795
               2.57800979                6.84527976               31.22872948                0.00010000               -0.10040152               -0.18156287                0.49043055               -0.02511089                0.06167959                0.93626433
               3.57700578                6.67753273               31.09145678                0.00010000               -0.07006748               -0.05294283                0.21225239               -0.01223644                0.27526564               -0.69679518
               4.57660844                6.50920856               30.95838587                0.00010000               -0.29115460                0.07868895               -0.05295859                0.01869170                3.59156584               -2.36496071
               5.57118269                6.34118682               30.88744686                0.00010000               -1.07588946                0.34075394               -0.12839989               -0.19763093               11.66675666                0.45028439
               6.55509066                6.17765116               30.91589020                0.00010000               -1.60304386                0.41597173               -0.18603943               -0.13279679               16.21651155                0.30065801
               7.53912181                6.01401561               30.93456107                0.00010000               -1.56058950                0.41611363               -0.27331400               -0.35166583               15.59171194                0.77222239
               8.52387887                5.85087702               30.94861903                0.00010000               -1.45315584                0.32235369               -0.36474961               -0.54411809               15.38246687                1.49632211
               9.51005869                5.68926436               30.96086643                0.00010000               -1.28428093                0.13614317               -0.45730886               -0.64722643               15.41896912                2.36816136
              10.49819325                5.53029549               30.97321832                0.00010000               -0.48685494               -0.10127032               -0.54861093               -0.36309192                7.93729241                3.30957194
              11.50032159                5.38080357               30.83340031                0.00010000                0.25632842                0.15612457               -0.82723047                0.04047326                0.19871070                1.36296366
              12.50331982                5.23056651               30.69072638                0.00010000                0.29982211                0.43887706               -1.17013815               -0.01539770                0.06283789               -0.35371007
               2.74485920                7.84373287               31.18714654                0.00010000               -0.05864683               -0.12797883                0.34533469               -0.02400877                0.02356459                0.85969224
               3.74427274                7.67723863               31.04162105                0.00010000               -0.02588585               -0.00841657                0.06368594               -0.00713371                0.17163539               -0.73973940
               4.74434149                7.51024520               30.89898197                0.00010000               -0.52646978                0.11954963               -0.21365852                0.09829129                6.16682395               -2.51581381
               5.73374334                7.34489814               30.87335891                0.00010000               -1.40048460                0.41983706               -0.08807837               -0.11997098               14.93741886                1.00692918
               6.71633179                7.18251453               30.90599814                0.00010000               -1.78641896                0.57467328               -0.21142326               -0.17929249               17.87714922                0.66930163
               7.69801496                7.01902168               30.93743897                0.00010000               -1.82976613                0.61728417               -0.27886055               -0.52242993               17.85232040                0.91246667
               8.67973647                6.85481806               30.96743072                0.00010000               -1.77215838                0.49998475               -0.33576059               -0.87759230               17.90024647                1.47262699
               9.66257179                6.69106133               30.99737507                0.00010000               -1.62118343                0.25264050               -0.39088248               -1.10970602               18.08619765                2.19335820
              10.64731280                6.52958898               31.02852522                0.00010000               -0.66984095               -0.03976438               -0.43745478               -0.65543639                9.19025827                3.00908585
              11.64917497                6.38236062               30.87818155                0.00010000                0.23457447                0.16280904               -0.77540718                0.02112962                0.07863695                1.20278269
              12.65200429                6.23487797               30.72686284                0.00010000                0.28293191                0.41792157               -1.13171363               -0.00483442                0.03874563               -0.48539009
               2.91051811                8.84272019               31.14520889                0.00010000               -0.01673364               -0.07578742                0.20251977               -0.02314662                0.00737047                0.85407952
               3.91035078                8.67736440               30.99167447                0.00010000                0.01983202                0.03275909               -0.08246188               -0.00196318                0.04860720               -0.73488226
               4.91091475                8.51159955               30.83888363                0.00010000               -0.69184181                0.14659320               -0.37145799                0.21362428                8.59860218               -2.38411942
               5.89651394                8.34958356               30.85632500                0.00010000               -1.67667420                0.57031926               -0.17659807                0.18196311               18.34381493                0.55555232
               6.87738127                8.18914462               30.89753626                0.00010000               -2.00721287                0.78868749               -0.26330470               -0.05098452               19.72946798                0.59731999
               7.85636968                8.02636129               30.94075145                0.00010000               -2.15469487                0.85753809               -0.29285641               -0.52337811               20.02675388                0.78426314
               8.83428737                7.86087671               30.98567418                0.00010000               -2.16380179                0.78953148               -0.29583332               -1.05871279               20.30127709                1.23881782
               9.81309365                7.69431717               31.03197704                0.00010000               -2.02510740                0.44561928               -0.32048177               -1.59790684               20.60799033                2.05026635
              10.79378522                7.52950020               31.08049061                0.00010000               -0.88192228                0.02134028               -0.36202073               -0.97566920               10.42617749                2.57382970
              11.79545520                7.38405975               30.92101141                0.00010000                0.22016066                0.18001587               -0.73896958               -0.00609142                0.02481568                1.01610765
              12.79818844                7.23892494               30.76122484                0.00010000                0.27332355                0.38797247               -1.10758722                0.00368548                0.02130675               -0.65644121
               3.07510785                9.84221713               31.10345225                0.00010000                0.02462569               -0.02721017                0.06228857               -0.02268294               -0.01451428                0.74927843
               4.07535411                9.67789381               30.94184922                0.00010000                0.06434795                0.07317758               -0.22677050               -0.00010464                0.07677185               -0.62150942
               5.07639481                9.51317707               30.78198342                0.00010000               -0.77582856                0.17187264               -0.52076351                0.41786974               10.74915018               -1.62029767
               6.05983753                9.35630453               30.83378524                0.00010000               -1.89302145                0.86935326               -0.36449675                0.38531908               21.49700968                0.16318065
               7.03853438                9.19828828               30.88690804                0.00010000               -2.20111141                0.97490630               -0.34756538                0.06792425               21.77975455                0.31363880
               8.01581531                9.03617244               30.94186875                0.00010000               -2.39640240                1.05041973               -0.32524148               -0.32245744               22.18046450                0.44387489
               8.99060633                8.87060869               31.00070442                0.00010000               -2.69125688                1.08264316               -0.26378114               -0.85536231               22.81199292                0.72301928
               9.96199017                8.69997371               31.06626549                0.00010000               -2.62747428                0.96923389               -0.13006123               -1.56709573               22.99288321                1.49035371
              10.93805685                8.53001579               31.12701751                0.00010000               -1.11808841                0.08914046               -0.33668566               -1.31704984               11.56968320                1.61562455
              11.93962840                8.38596094               30.96185302                0.00010000                0.21453821                0.20030201               -0.72529139               -0.02859605                0.13453867                0.74547010
              12.94234761                8.24263742               30.79355552                0.00010000                0.27192089                0.35872777               -1.10095932                0.00591071               -0.00628300               -0.67665823
               3.23871109               10.84217598               31.05932342                0.00010000                0.06776553               -0.00411413               -0.07534197                0.02552058                0.41036714                0.63660207
               4.23938874               10.67882795               30.89409702                0.00010000                0.10751699                0.09341417               -0.36727830                0.04651491                0.82697614               -0.51466833
               5.24086143               10.51503701               30.73710393                0.00010000               -1.01398170                0.18599403               -0.65537173                0.85379596               12.70039909               -1.01834454
               6.21910911               10.36697063               30.80926890                0.00010000               -2.09947932                1.06660995               -0.52172938                0.60744454               23.97228954                0.01049310
               7.19887184               10.20864275               30.87344871                0.00010000               -2.07544916                1.03544681               -0.44136459                0.05369906               23.79772919                0.13694818
               8.17760013               10.04736968               30.93905599                0.00010000               -2.27464936                1.11972416               -0.38291902               -0.12717654               24.21905685                0.22148689
               9.15337886                9.88252958               31.00932358                0.00010000               -2.76277475                1.19208889               -0.27962678               -0.40613918               25.08175370                0.39017862
              10.12234463                9.71370185               31.09045220                0.00010000               -3.59609272                1.37281388               -0.01550030               -1.52688207               25.05596354                0.96898187
              11.08145700                9.53128301               31.15955392                0.00010000               -2.00414895                0.12672205               -0.36122686               -1.94178766               13.03078691                0.93571155
              12.08226165                9.38806579               30.99896986                0.00010000                0.17483488                0.21048482               -0.73426579                0.00414977                1.00625706                0.57894361
              13.08495370                9.24609950               30.82715011                0.00010000                0.26920453                0.34620831               -1.10527074                0.06398003                0.46475033               -0.59473671
               1.64248712                0.91413735               32.46555548                1.00000000               -0.34131361               -0.36692340                1.27425258               -0.05936907               -0.92950498                0.95166732
               2.63907398                0.73194501               32.36416609                1.00000000               -0.29560023               -0.28937565                1.02746724               -0.03924563               -1.20846660                0.10701236
               3.63657511                0.54944731               32.25721265                1.00000000               -0.19524009               -0.21177650                0.76664704               -0.03538746               -1.17958593               -0.21594444
               4.63516918                0.36713343               32.15649383                1.00000000                0.08626767               -0.15433579                0.51246377                0.18929688               -0.33356095               -0.82629637
               5.63830047                0.18994443               32.06662953                0.00010000                0.22059124               -0.07552619                0.23919508               -0.07395029                0.01994153                0.27077013
               6.63958101                0.01707607               31.97397398                0.00010000                0.12117939                0.01420234               -0.02540551               -0.03427493               -0.30154606                0.15701369
               7.64072406               -0.15449833               31.87778819                0.00010000                0.14716102                0.08958910               -0.29096607               -0.01536470               -0.53840234               -0.07539539
               8.64252423               -0.32532928               31.78034044                0.00010000                0.20378705                0.17514920               -0.57143865               -0.02509652               -0.81267754                0.10494127
               9.64479980               -0.49592482               31.67848452                1.00000000                0.26234086                0.25615635               -0.84972093               -0.02423497               -1.10586808                0.57323116
              10.64777104               -0.66670375               31.57492973                1.00000000                0.33594404                0.33916609               -1.12248678               -0.03038933               -1.07031783               -0.00426764
              11.65151868               -0.83760781               31.47374120                1.00000000                0.37476336                0.43153456               -1.38835900               -0.03417039               -0.95420351               -0.94688762
               1.82408578                1.91046812               32.42325421                1.00000000               -0.30592240               -0.35200410                1.14418257               -0.01907321               -0.13812374                1.29629476
               2.82102655                1.72905125               32.32159177                1.00000000               -0.27293738               -0.26908497                0.89790738                0.00238244               -0.15189430                0.15155687
               3.81862703                1.54732954               32.21961458                1.00000000               -0.21064821               -0.18797288                0.64850536                0.00816615                0.00968120               -0.55154100
               4.81681359                1.36559008               32.12114548                1.00000000               -0.30186910               -0.13279417                0.40222787                0.27978430                1.63947531               -1.24557757
               5.81258965                1.18918917               32.05163711                0.00010000               -0.26769745                0.01099965                0.15298896               -0.07170009                2.45013587                1.04548632
               6.81145964                1.01721810               31.96785120                0.00010000               -0.04082815                0.06034106               -0.10069551                0.04622099                1.52631239                0.46552671
               7.81177308                0.84639756               31.87940255                0.00010000                0.07634350                0.10756935               -0.35594142                0.09014090                1.43912839               -0.31235632
               8.81298651                0.67642222               31.79378480                0.00010000                0.17358011                0.20123501               -0.62529614                0.05245572                1.48598736                0.53759982
               9.81524468                0.50663674               31.70639770                1.00000000                0.26610689                0.25931717               -0.87372932                0.01938872                0.76870129                0.81879203
              10.81830865                0.33668791               31.60664598                1.00000000                0.34181755                0.33812608               -1.13612467                0.01092787                0.08666415                0.12054282
              11.82208104                0.16670753               31.50561525                1.00000000                0.37723899                0.44655010               -1.40040680                0.00843734                0.02441161               -1.10482792
               2.00493939                2.90709727               32.38784148                1.00000000               -0.26791816               -0.32707547                1.02372593               -0.01251464                0.05097949                1.64011826
               3.00226021                2.72656331               32.27988917                1.00000000               -0.23698895               -0.23225920                0.77449824                0.01175192                0.22441855                0.13129277
               4.00019961                2.54568785               32.17530554                1.00000000               -0.16774868               -0.14371736                0.52558811                0.01816988                0.73240304               -1.32825581
               4.99890524                2.36447755               32.07742586                1.00000000               -0.74805841               -0.10268066                0.25900717                0.40313804                4.70500020               -2.07228017
               5.98523845                2.19016443               32.05219826                0.00010000               -0.78041015                0.01368751                0.02209471                0.63814423                5.61892435               -1.20630996
               6.98329704                2.01828289               31.96796783                0.00010000               -0.09578467               -0.07068400               -0.18995902                0.47764578                2.32173072               -0.16443440
               7.98332275                1.84765306               31.87635747                0.00010000                0.00185633               -0.06585879               -0.40277728                0.34819686                3.51454541                0.69654311
               8.98333416                1.67869542               31.81598680                0.00010000                0.07995624               -0.01424620               -0.70996811                0.20337343                4.23786928                1.28508974
               9.98492188                1.50926152               31.73934305                1.00000000                0.22923240                0.24075150               -0.89260148               -0.04678894                2.31488784                1.71190864
              10.98791881                1.34005877               31.64088784                1.00000000                0.33631507                0.31914743               -1.13756249               -0.02054753                0.82250203                0.81227374
              11.99164818                1.17132319               31.53427253                1.00000000                0.37293693                0.47184571               -1.41569914               -0.00212217                0.42104170               -1.04918732
               2.18490341                3.90392661               32.35245739                1.00000000               -0.22323965               -0.30576145                0.90083723               -0.01246152                0.10492703                1.54251780
               3.18267101                3.72440607               32.23691342                1.00000000               -0.19136130               -0.19711981                0.64760124                0.00961108                0.14913923               -0.02470260
               4.18107618                3.54445519               32.12217346                1.00000000               -0.11356214               -0.09678364                0.40257673               -0.01922773                1.10033184               -1.68300005
               5.18039977                3.36353646               32.02565141                0.00010000               -0.47644988               -0.05916840                0.15731243                0.32554531                5.18750288               -2.75624926
               6.17154719                3.18946292               31.99249294                0.00010000               -0.84379248               -0.03939969               -0.04302613                0.81242791                7.92362603               -3.02601967
               7.16352392                3.01580442               31.94937344                0.00010000               -0.66113492               -0.10556650               -0.23581612                0.57768319                7.09688233               -0.74555914
               8.15832449                2.84508039               31.89795094                0.00010000               -0.40392040               -0.15630382               -0.44250609                0.38226638                6.62464097                1.51757462
               9.15544551                2.67613729               31.84426626                0.00010000               -0.26894642               -0.16274723               -0.64707248                0.33661077                6.28324827                1.98943816
              10.15294556                2.51145177               31.78506982                0.00010000                0.01952569                0.06191607               -0.83107410                0.02759658                4.08329866                3.19253769
              11.15583603                2.34307086               31.68632806                1.00000000                0.32820979                0.27956714               -1.09716331               -0.07578356                1.09713842                1.32254470
              12.15950976                2.17614445               31.56691150                1.00000000                0.36737286                0.47474621               -1.38480766               -0.01506912                0.07324653               -0.63883367
               2.36373125                4.90098204               32.31515426                1.00000000               -0.18073992               -0.27635202                0.76759919               -0.02101930                0.15991832                1.32263805
               3.36192385                4.72262091               32.19208791                1.00000000               -0.15232922               -0.15251920                0.51230735               -0.00412340                0.24338808               -0.27483892
               4.36068467                4.54375218               32.07062286                0.00010000               -0.07577165               -0.03732476                0.26921446               -0.07061965                1.27508398               -1.73191429
               5.36040842                4.36329418               31.96818950                0.00010000               -0.57328073                0.06495095                0.03615350                0.13670724                6.79511025               -2.78979814
               6.34921905                4.18937643               31.95695736                0.00010000               -1.05875918                0.08128294               -0.11111186                0.25705598               10.99914874               -1.34016420
               7.33923323                4.01617156               31.93750158                0.00010000               -0.92919237                0.09830268               -0.26957206                0.13626947               10.30469354               -0.09939749
               8.33063520                3.84452698               31.91094096                0.00010000               -0.77691212                0.02566734               -0.44016600                0.03269112                9.82328772                1.21658094
               9.32369499                3.67544048               31.88007972                0.00010000               -0.60474801               -0.02941384               -0.61288877                0.02202781                9.64095690                2.46063570
              10.31854024                3.51049984               31.84797744                0.00010000               -0.09922644               -0.14943596               -0.78262069               -0.02228430                5.42378301                3.89946215
              11.32171046                3.34565011               31.73068115                1.00000000                0.33296885                0.21731563               -1.00376084               -0.02621935                0.68532256                1.42710424
              12.32519962                3.18081811               31.60331660                1.00000000                0.34891573                0.47148681               -1.31594062               -0.04619455                0.18483448               -0.36424432
               2.54120529                5.89839957               32.27542192                1.00000000               -0.13868729               -0.23350123                0.62497134               -0.02661182                0.13131520                1.09357672
               3.53981841                5.72135568               32.14405231                0.00010000               -0.11073822               -0.09883489                0.35682088               -0.01483983                0.31855204               -0.55441615
               4.53899052                5.54370870               32.01635906                0.00010000               -0.11543769                0.02978901                0.10634256               -0.06448299                1.84365961               -2.07088232
               5.53750966                5.36483548               31.91550274                0.00010000               -0.75897987                0.22424956               -0.08919426               -0.12763933                8.99658263               -1.35463849
               6.52381092                5.19108858               31.93083384                0.00010000               -1.32054493                0.24756614               -0.15949774               -0.05744100               14.16481578               -0.40541131
               7.51109876                5.01777047               31.93205556                0.00010000               -1.20507656                0.23158222               -0.28868141               -0.22731352               13.21603385                0.46142589
               8.49970939                4.84559373               31.92664500                0.00010000               -1.05927765                0.16176030               -0.42791738               -0.33628071               12.83209898                1.44965523
               9.48991321                4.67554902               31.91802453                0.00010000               -0.87095765                0.03562866               -0.56804355               -0.36127185               12.75338878                2.54476891
              10.48229024                4.50846305               31.90860480                0.00010000               -0.24599196               -0.17973354               -0.71351138               -0.18323592                6.79475084                3.66985614
              11.48499337                4.34741717               31.77828435                0.00010000                0.29798123                0.16572005               -0.91086397                0.03315833                0.42449687                1.53580287
              12.48824986                4.18557418               31.64109761                1.00000000                0.32564961                0.46973909               -1.24302819               -0.02758224                0.08955717               -0.27681734
               2.71728679                6.89631202               32.23356740                0.00010000               -0.09688615               -0.18106685                0.47689982               -0.02578252                0.06083460                0.92764965
               3.71631793                6.72064421               32.09353819                0.00010000               -0.06857895               -0.04767351                0.20384313               -0.01529084                0.28097439               -0.71313924
               4.71591521                6.54434796               31.95784130                0.00010000               -0.29210877                0.08873853               -0.05611613               -0.01546017                3.71125713               -2.39703830
               5.71047575                6.36777917               31.88643038                0.00010000               -1.03899827                0.31230166               -0.07660068               -0.32485920               11.87443519                0.57827711
               6.69513524                6.19432775               31.91405449                0.00010000               -1.51469699                0.38790589               -0.18492888               -0.31138983               16.41050004                0.37025950
               7.68018181                6.02080321               31.93172296                0.00010000               -1.45021001                0.38244303               -0.29892337               -0.51391285               15.79095313                0.84467465
               8.66613104                5.84776219               31.94478729                0.00010000               -1.32907877                0.28467031               -0.40718041               -0.69736999               15.59838056                1.58404432
               9.65360023                5.67615305               31.95606928                0.00010000               -1.15618367                0.10326658               -0.50877818               -0.80829167               15.65391742                2.47422113
              10.64300737                5.50690517               31.96750353                0.00010000               -0.41688686               -0.11695365               -0.60181767               -0.44461831                8.10049652                3.44168925
              11.64526250                5.34896451               31.82502413                0.00010000                0.26632911                0.15943231               -0.85547281                0.04382861                0.23698819                1.42352062
              12.64833395                5.19021290               31.67891355                0.00010000                0.30714535                0.45830912               -1.20309439               -0.01336529                0.06405690               -0.31891438
               2.89202524                7.89477823               32.19052421                0.00010000               -0.05485846               -0.12572583                0.33001602               -0.02451888                0.02282153                0.85294932
               3.89147666                7.72040221               32.04221243                0.00010000               -0.02394421               -0.00356012                0.05429714               -0.00951874                0.17309015               -0.75254259
               4.89154636                7.54548347               31.89682981                0.00010000               -0.52219915                0.12794748               -0.21769754                0.03818285                6.38343312               -2.54455825
               5.88103268                7.37108151               31.87272283                0.00010000               -1.34936336                0.38559076               -0.04580308               -0.24954529               15.22259487                1.08158785
               6.86455909                7.19884670               31.90388092                0.00010000               -1.68233027                0.54000288               -0.21705785               -0.33912890               18.05989622                0.72178378
               7.84738607                7.02541933               31.93452290                0.00010000               -1.70734727                0.57723434               -0.30958507               -0.67786611               18.09038158                0.97815441
               8.83041215                6.85128714               31.96387014                0.00010000               -1.63908408                0.45578999               -0.38207557               -1.02782950               18.16478930                1.56534214
               9.81460439                6.67761435               31.99323042                0.00010000               -1.49128674                0.21889341               -0.44364821               -1.26094937               18.37697771                2.30252867
              10.80058641                6.50612398               32.02393031                0.00010000               -0.60210864               -0.04102490               -0.48584881               -0.73266434                9.35713619                3.12748656
              11.80256222                6.35060582               31.87025994                0.00010000                0.24496924                0.17331992               -0.81279584                0.02597663                0.08969807                1.25607493
              12.80548580                6.19474037               31.71537251                0.00010000                0.29235805                0.43970645               -1.17270095               -0.00213628                0.03931403               -0.45548587
               3.06554845                8.89379750               32.14714899                0.00010000               -0.01261344               -0.07176884                0.18534092               -0.02343940                0.00673093                0.84986171
               4.06542231                8.72057301               31.99079985                0.00010000                0.02255573                0.03691091               -0.09278661               -0.00352124                0.04532192               -0.74505433
               5.06599956                8.54690691               31.83513905                0.00010000               -0.66503494                0.15192176               -0.37815379                0.13645725                8.83478658               -2.40549662
               6.05212162                8.37549099               31.85455108                0.00010000               -1.59923575                0.54784222               -0.18678471                0.05236329               18.69131053                0.51435887
               7.03401485                8.20512781               31.89482762                0.00010000               -1.89687849                0.75443233               -0.28418589               -0.19093281               19.97057394                0.61878539
               8.01418405                8.03234789               31.93765708                0.00010000               -2.03177074                0.81969969               -0.33189563               -0.66253079               20.32315652                0.83361147
               8.99337943                7.85687799               31.98249750                0.00010000               -2.03198197                0.74835312               -0.34657885               -1.19859991               20.61913523                1.32885632
               9.97354441                7.68053092               32.02852288                0.00010000               -1.90084113                0.40793029               -0.37618519               -1.74167091               20.92921819                2.22131660
              10.95536261                7.50608467               32.07664467                0.00010000               -0.81893820                0.03050833               -0.40797318               -1.04230876               10.58548726                2.64815487
              11.95716564                7.35243091               31.91340307                0.00010000                0.23297587                0.19420426               -0.78432410               -0.00281463                0.01927579                1.05381955
              12.96002213                7.19900702               31.74993192                0.00010000                0.28564859                0.40881318               -1.15472818                0.00659800                0.02077813               -0.63694109
               3.23800544                9.89334286               32.10397965                0.00010000                0.02913954               -0.02178660                0.04305086               -0.02279626               -0.01565194                0.74771577
               4.23829683                9.72114043               31.93952937                0.00010000                0.06760464                0.07675608               -0.23758565               -0.00091903                0.07247508               -0.62838660
               5.23935753                9.54852190               31.77674996                0.00010000               -0.72188980                0.17446701               -0.52529519                0.33136450               10.96024762               -1.62777868
               6.22385904                9.38203836               31.83001296                0.00010000               -1.77369996                0.83246643               -0.39446313                0.27577661               21.87536599                0.10200867
               7.20388353                9.21393534               31.88327879                0.00010000               -2.07368775                0.94010112               -0.38406901               -0.03105714               22.10931653                0.31537180
               8.18238528                9.04181332               31.93840191                0.00010000               -2.28132042                1.02016424               -0.37481342               -0.41362314               22.54620319                0.47000238
               9.15825712                8.86625420               31.99782416                0.00010000               -2.59104980                1.05929229               -0.32178933               -0.95623044               23.25386909                0.78190538
              10.13056428                8.68577295               32.06478802                0.00010000               -2.52084378                0.94098499               -0.17966407               -1.67146510               23.31440382                1.68038959
              11.10784025                8.50673415               32.12337389                0.00010000               -1.04903555                0.10546149               -0.39068505               -1.36101579               11.64275057                1.63570791
              12.10958357                8.35448990               31.95432151                0.00010000                0.23126443                0.21816675               -0.78143082               -0.02686760                0.12847603                0.75991464
              13.11246553                8.20291663               31.78228002                0.00010000                0.28819612                0.37845260               -1.15671477                0.00884701               -0.00434244               -0.66999865
               3.40949737               10.89336177               32.05846501                0.00010000                0.07275125                0.00189135               -0.09641090                0.02383011                0.40952341                0.63643529
               4.41022489               10.72210813               31.89037033                0.00010000                0.11157765                0.09677019               -0.37874674                0.04452923                0.82745770               -0.51922263
               5.41172893               10.55039625               31.73053337                0.00010000               -0.90005889                0.18743410               -0.65955112                0.73874892               12.90457161               -1.01736010
               6.39222371               10.39214032               31.80391989                0.00010000               -1.90550929                1.01019581               -0.55125587                0.51314674               24.37783690               -0.03445965
               7.37361874               10.22392983               31.86882673                0.00010000               -1.93154912                0.99944905               -0.48844850                0.00406424               24.18734126                0.13338227
               8.35359273               10.05275118               31.93496029                0.00010000               -2.16617731                1.09378559               -0.44374901               -0.17255552               24.63805145                0.23497701
               9.33029520                9.87806383               32.00623769                0.00010000               -2.69787829                1.18096316               -0.34891417               -0.46622054               25.62487260                0.42678499
              10.29963516                9.69935062               32.09012735                0.00010000               -3.54349246                1.35776683               -0.07114233               -1.58640888               25.37955046                1.12228720
              11.25942535                9.50819390               32.15557663                0.00010000               -1.95946768                0.14597579               -0.43262987               -1.96930869               13.04476410                0.92806087
              12.26044581                9.35679425               31.99126610                0.00010000                0.19601350                0.23043450               -0.80656019                0.00533197                1.01845143                0.58111468
              13.26334562                9.20657608               31.81576334                0.00010000                0.28998091                0.36594468               -1.17448705                0.06619095                0.47981193               -0.59287331
               1.73573697                0.96667244               33.47828293                1.00000000               -0.34300773               -0.36710673                1.27282195               -0.05825235               -0.94393754                0.96412795
               2.73230689                0.77625059               33.37443760                1.00000000               -0.29944954               -0.28796380                1.02718490               -0.03833103               -1.23084444                0.11041677
               3.72974798                0.58545729               33.26488592                1.00000000               -0.20241007               -0.21181995                0.76904773               -0.03823713               -1.20524988               -0.21246063
               4.72825869                0.39467679               33.16165384                1.00000000                0.06015547               -0.15918780                0.51974103                0.14910916               -0.36747004               -0.83431282
               5.73095108                0.20807188               33.06901767                0.00010000                0.19736487               -0.07763824                0.23720221               -0.07162930               -0.01256159                0.27423293
               6.73220598                0.02515116               32.97375653                0.00010000                0.12181300                0.01067452               -0.01894808               -0.04010040               -0.31894586                0.16015539
               7.73338734               -0.15653299               32.87494938                0.00010000                0.15306830                0.08516522               -0.27672707               -0.02091896               -0.56018420               -0.07173471
               8.73526735               -0.33745986               32.77471989                0.00010000                0.21329784                0.16850630               -0.54841992               -0.03167745               -0.84199365                0.10492595
               9.73765330               -0.51795496               32.67008934                1.00000000                0.26863289                0.24846610               -0.82427179               -0.03217114               -1.13617284                0.57952148
              10.74064001               -0.69842946               32.56378170                1.00000000                0.33531040                0.33680358               -1.10321838               -0.02992065               -1.09749069               -0.00888907
              11.74435951               -0.87904023               32.45990850                1.00000000                0.37195010                0.43387154               -1.37485171               -0.02918282               -0.97915974               -0.97393177
               1.92557629                1.96300137               33.43466968                1.00000000               -0.30451381               -0.35339546                1.13991855               -0.01695710               -0.14292080                1.31293114
               2.92253115                1.77337095               33.33055678                1.00000000               -0.27118907               -0.26843981                0.89573516                0.00342006               -0.15889461                0.15783503
               3.92015251                1.58333909               33.22610427                1.00000000               -0.20443320               -0.18739071                0.64354399                0.00063556                0.00032247               -0.54599435
               4.91844249                1.39308491               33.12513844                1.00000000               -0.25774497               -0.14081835                0.38621068                0.22946593                1.63016711               -1.25780149
               5.91499761                1.20729550               33.05308621                0.00010000               -0.21675359                0.00388026                0.13380020               -0.06536138                2.45005100                1.02367535
               6.91410741                1.02525790               32.96682172                0.00010000               -0.02569716                0.05610686               -0.10967887                0.02797435                1.53081342                0.46201395
               7.91448366                0.84431867               32.87585837                0.00010000                0.07770733                0.11044951               -0.35601528                0.06838538                1.43658905               -0.30071648
               8.91566156                0.66422520               32.78754357                0.00010000                0.16663619                0.20013309               -0.62034956                0.02807525                1.48852662                0.52005390
               9.91781639                0.48452971               32.69763740                1.00000000                0.26109404                0.25658871               -0.87616142                0.00460927                0.77623008                0.82537934
              10.92088344                0.30493858               32.59524572                1.00000000                0.34310352                0.33963210               -1.14374259                0.01182400                0.08742506                0.11984059
              11.92467846                0.12529848               32.49154261                1.00000000                0.37950166                0.45688497               -1.41430710                0.01406737                0.02531883               -1.13629872
               2.11465866                2.95960453               33.39804123                1.00000000               -0.26210914               -0.33022424                1.01667659               -0.01146147                0.05110376                1.65973076
               3.11203756                2.77088180               33.28760303                1.00000000               -0.23059625               -0.23243287                0.76920322                0.00904946                0.22808370                0.14014596
               4.11004673                2.58170948               33.18061719                1.00000000               -0.15729812               -0.13805080                0.53089727               -0.00786631                0.72903253               -1.32498438
               5.10889160                2.39186042               33.08012177                1.00000000               -0.62879333               -0.10590562                0.26183384                0.32581843                4.68996345               -2.07509564
               6.09747086                2.20814949               33.05221933                0.00010000               -0.65746494                0.00176670               -0.01741699                0.48388388                5.64768899               -1.20199137
               7.09574230                2.02627329               32.96599025                0.00010000               -0.08415564               -0.06264067               -0.21208156                0.32657688                2.37904538               -0.14926052
               8.09578775                1.84567600               32.87227372                0.00010000               -0.00622440               -0.05051824               -0.42092761                0.21398186                3.52063050                0.72073934
               9.09561782                1.66654280               32.80882303                0.00010000                0.06221785               -0.00124411               -0.72003041                0.09713506                4.26511700                1.32122214
              10.09703211                1.48717682               32.73028309                1.00000000                0.22449486                0.22942525               -0.92408364               -0.09085277                2.38168102                1.76905466
              11.10010771                1.30836318               32.62936809                1.00000000                0.34444710                0.32388418               -1.17058318               -0.02782022                0.84751049                0.84072093
              12.10392105                1.13009746               32.51993117                1.00000000                0.38133382                0.49358330               -1.45759807               -0.00024253                0.43303767               -1.05605704
               2.30279252                3.95639688               33.36141798                1.00000000               -0.21853362               -0.30910290                0.89165812               -0.01434135                0.10979752                1.55513719
               3.30060719                3.76872230               33.24336304                1.00000000               -0.18879835               -0.19562979                0.64217137                0.00462993                0.15827616               -0.02108161
               4.29901656                3.58057808               33.12619412                1.00000000               -0.10441690               -0.08690310                0.40214704               -0.05477304                1.11189621               -1.68678244
               5.29851885                3.39096680               33.02720577                0.00010000               -0.43770723               -0.04178380                0.15368972                0.21661496                5.22024440               -2.75352133
               6.29026241                3.20733083               32.99201577                0.00010000               -0.77032077               -0.04241506               -0.05565715                0.57345065                7.98346622               -2.98113322
               7.28311243                3.02400509               32.94689646                0.00010000               -0.58843086               -0.10009892               -0.26237204                0.34556983                7.16004187               -0.69611948
               8.27849379                2.84330830               32.89338127                0.00010000               -0.35044934               -0.14900027               -0.47377126                0.17074418                6.68985594                1.56829985
               9.27610345                2.66420032               32.83761615                0.00010000               -0.21574236               -0.15678648               -0.68744073                0.16310423                6.36348772                2.08948096
              10.27417895                2.48911821               32.77668512                0.00010000                0.06514720                0.02653650               -0.84299075               -0.03880230                4.11607836                3.23927965
              11.27740639                2.31141626               32.67520980                1.00000000                0.35130494                0.27874971               -1.14235861               -0.07818463                1.12177269                1.40478681
              12.28120505                2.13517015               32.55290178                1.00000000                0.37986553                0.49656936               -1.43125991               -0.02080583                0.10324241               -0.58977571
               2.48972101                4.95342247               33.32277679                1.00000000               -0.17720370               -0.27871793                0.75704695               -0.02330889                0.16839624                1.32463515
               3.48794897                4.76696920               33.19717617                1.00000000               -0.15071182               -0.14817081                0.50540730               -0.00890362                0.25792650               -0.28572676
               4.48670677                4.57997142               33.07329688                0.00010000               -0.07389109               -0.02713725                0.26516827               -0.09582529                1.29846298               -1.75165011
               5.48647115                4.39102474               32.96851159                0.00010000               -0.54025921                0.08913085                0.02763252                0.02031720                6.85883420               -2.78201772
               6.47590159                4.20730118               32.95580460                0.00010000               -0.98974587                0.08294567               -0.12320817                0.07720811               11.10848747               -1.29212923
               7.46667623                4.02427131               32.93468205                0.00010000               -0.84470911                0.08507280               -0.29781008               -0.04669859               10.40781588               -0.03494400
               8.45900740                3.84269600               32.90634905                0.00010000               -0.68031203                0.01047292               -0.48342102               -0.14087167                9.92922290                1.29749862
               9.45306999                3.66340707               32.87371494                0.00010000               -0.49836423               -0.04780157               -0.66804576               -0.15245625                9.76584785                2.55570870
              10.44904012                3.48770755               32.83998614                0.00010000               -0.02889534               -0.18163935               -0.84358696               -0.09493988                5.55312387                3.96358761
              11.45249208                3.31393818               32.72060154                1.00000000                0.34785219                0.20974731               -1.01235921               -0.02257121                0.74538089                1.53032335
              12.45599716                3.14002885               32.59011788                1.00000000                0.35050799                0.48984901               -1.33191879               -0.05104652                0.19723639               -0.29084953
               2.67523289                5.95082253               33.28161063                1.00000000               -0.13527192               -0.23460005                0.61288313               -0.02816913                0.13174928                1.08730350
               3.67388017                5.76575888               33.14758205                0.00010000               -0.10941896               -0.09296859                0.34904674               -0.01923987                0.32773448               -0.57326491
               4.67304451                5.58003533               33.01740552                0.00010000               -0.11423698                0.04128110                0.10287271               -0.08874224                1.89016996               -2.10248375
               5.67159543                5.39274941               32.91464493                0.00010000               -0.72422517                0.22537645               -0.08054616               -0.25292653                9.12829451               -1.27142592
               6.65856000                5.20898974               32.92921445                0.00010000               -1.24058895                0.23540365               -0.16764801               -0.24681909               14.32973940               -0.33515100
               7.64678365                5.02570654               32.92903348                0.00010000               -1.10096986                0.20852238               -0.32036443               -0.39700738               13.35577978                0.53699933
               8.63654061                4.84351776               32.92214594                0.00010000               -0.93704382                0.13183830               -0.47851845               -0.49847500               12.98166962                1.54084674
               9.62804277                4.66324429               32.91207025                0.00010000               -0.73957825                0.00679154               -0.63320054               -0.53407623               12.91956401                2.65333929
              10.62174904                4.48548542               32.90117584                0.00010000               -0.17045541               -0.19518953               -0.78436151               -0.27124344                6.96131871                3.78691771
              11.62463366                4.31561121               32.76907510                0.00010000                0.31268636                0.16801067               -0.94552741                0.03204816                0.50116059                1.62449386
              12.62800277                4.14496713               32.62852091                1.00000000                0.33691050                0.49422328               -1.29176660               -0.02316060                0.09351029               -0.21876142
               2.85928492                6.94873047               33.23826747                0.00010000               -0.09335519               -0.18061279                0.46321165               -0.02674808                0.05982388                0.91881206
               3.85835137                6.76510983               33.09553364                0.00010000               -0.06717625               -0.04163835                0.19494906               -0.01923292                0.28649354               -0.72836276
               4.85794139                6.58079704               32.95726354                0.00010000               -0.29465796                0.10104785               -0.06008392               -0.05611579                3.85477591               -2.42602875
               5.85245821                6.39553227               32.88591484                0.00010000               -0.99666590                0.28298923               -0.02648132               -0.46195414               12.07672177                0.72646884
               6.83800807                6.21200926               32.91219162                0.00010000               -1.41250685                0.35936617               -0.19234455               -0.49604328               16.56041675                0.44498026
               7.82420807                6.02844176               32.92858261                0.00010000               -1.32539570                0.34720520               -0.33457431               -0.68133841               15.96289668                0.92274218
               8.81150016                5.84533276               32.94047542                0.00010000               -1.18936338                0.24484669               -0.46232388               -0.85573621               15.79566764                1.68085003
               9.80042080                5.66354290               32.95069087                0.00010000               -1.01259151                0.07070067               -0.57621623               -0.97602997               15.88000246                2.59527450
              10.79124833                5.48380376               32.96118197                0.00010000               -0.33847292               -0.12439242               -0.67498019               -0.52837721                8.27843974                3.59838890
              11.79365134                5.31729839               32.81629086                0.00010000                0.27868913                0.17459839               -0.89861477                0.05013148                0.29094911                1.50091887
              12.79682211                5.14991332               32.66666449                0.00010000                0.31707697                0.48913765               -1.25613764               -0.01037482                0.06625220               -0.26632589
               3.04193921                7.94721027               33.19374686                0.00010000               -0.05102689               -0.12342421                0.31460547               -0.02511073                0.02191758                0.84566075
               4.04142894                7.76492611               33.04270700                0.00010000               -0.02197300                0.00182706                0.04421320               -0.01190941                0.17379637               -0.76429293
               5.04149975                7.58205629               32.89462802                0.00010000               -0.51424051                0.13862173               -0.22415804               -0.02995286                6.61678479               -2.57136771
               6.03114413                7.39840920               32.87244285                0.00010000               -1.28850488                0.35241700               -0.01830588               -0.38429254               15.50186752                1.12681333
               7.01572965                7.21617707               32.90165698                0.00010000               -1.56553771                0.50566036               -0.23323264               -0.50399380               18.20267341                0.77074084
               7.99983337                7.03265065               32.93124727                0.00010000               -1.57024527                0.53563712               -0.35166862               -0.84037523               18.30281561                1.04761260
               8.98432474                6.84841469               32.95978921                0.00010000               -1.48910972                0.40835293               -0.44142638               -1.18441130               18.41376329                1.66657193
               9.97005118                6.66465830               32.98850210                0.00010000               -1.34493688                0.18215011               -0.50994254               -1.41535396               18.66566072                2.42585190
              10.95742600                6.48299758               33.01880824                0.00010000               -0.52622225               -0.03920192               -0.54573259               -0.80943390                9.53587715                3.27120758
              11.95952673                6.31910318               32.86192564                0.00010000                0.25697073                0.18880867               -0.85751181                0.03272168                0.10941187                1.32515981
              12.96256542                6.15474988               32.70340883                0.00010000                0.30386866                0.46826498               -1.22464745                0.00088038                0.04079229               -0.40603373
               3.22335102                8.94626198               33.14891570                0.00010000               -0.00838611               -0.06774232                0.16809768               -0.02375329                0.00590377                0.84472549
               4.22326716                8.76514637               32.98981873                0.00010000                0.02541159                0.04147418               -0.10388330               -0.00440749                0.04011199               -0.75386402
               5.22385925                8.58356947               32.83132055                0.00010000               -0.63077900                0.15854428               -0.38600439                0.05253354                9.06012677               -2.42258309
               6.21065158                8.40258061               32.85258930                0.00010000               -1.50862506                0.52833470               -0.21393095               -0.08875546               19.02451229                0.44423647
               7.19368675                8.22212246               32.89185254                0.00010000               -1.77443188                0.72097690               -0.31609539               -0.34120016               20.19219756                0.63331264
               8.17516294                8.03915450               32.93411354                0.00010000               -1.89412339                0.78093158               -0.38371740               -0.81310071               20.59795421                0.88445880
               9.15580428                7.85349982               32.97874260                0.00010000               -1.88160499                0.70459529               -0.41351692               -1.34978679               20.92449815                1.42495155
              10.13753084                7.66718590               33.02445333                0.00010000               -1.75947520                0.36593666               -0.44563521               -1.89013828               21.25472312                2.40402852
              11.12061478                7.48301972               33.07233115                0.00010000               -0.74886842                0.04002069               -0.45675390               -1.10794888               10.75466659                2.73884652
              12.12255347                7.32107457               32.90532493                0.00010000                0.24657670                0.20965132               -0.83288596                0.00119780                0.01532035                1.10208945
              13.12554631                7.15927862               32.73813027                0.00010000                0.29928396                0.43280701               -1.20821921                0.00932142                0.02029117               -0.60250283
               3.40369537                9.94585542               33.10431326                0.00010000                0.03379264               -0.01640064                0.02380558               -0.02298788               -0.01675954                0.74508923
               4.40403330                9.76575560               32.93709751                0.00010000                0.07104010                0.08076046               -0.24941323               -0.00129326                0.06774609               -0.63381137
               5.40511617                9.58522718               32.77147752                0.00010000               -0.66086349                0.17767588               -0.53073108                0.23821705               11.15205106               -1.63075961
               6.39081603                9.40897589               32.82589598                0.00010000               -1.63922096                0.79434743               -0.43365006                0.15451675               22.22875005                0.03918639
               7.37233175                9.23059661               32.87922666                0.00010000               -1.93110138                0.90460194               -0.43131415               -0.14075467               22.41986324                0.31294292
               8.35219400                9.04826928               32.93437248                0.00010000               -2.15170725                0.98989797               -0.43881062               -0.51513764               22.89174623                0.49610509
               9.32929761                8.86250660               32.99426864                0.00010000               -2.47327419                1.03691916               -0.40150843               -1.06936378               23.68693636                0.84365126
              10.30272852                8.67197703               33.06267221                0.00010000               -2.39596218                0.91415151               -0.26475960               -1.78213708               23.64420182                1.87812628
              11.28137836                8.48379799               33.11920381                0.00010000               -0.97183622                0.12095156               -0.44218893               -1.40410389               11.72065449                1.66005557
              12.28329179                8.32329620               32.94622441                0.00010000                0.24826895                0.23621672               -0.83800988               -0.02507352                0.12098424                0.77862788
              13.28634374                8.16340602               32.77042123                0.00010000                0.30519525                0.39983888               -1.21674684                0.01143944               -0.00291529               -0.65478274
               3.58309092               10.94593397               33.05739520                0.00010000                0.07786239                0.00785473               -0.11744495                0.02231528                0.40802787                0.63519163
               4.58386954               10.76676158               32.88652208                0.00010000                0.11561896                0.10059818               -0.39170210                0.04307539                0.82645020               -0.52246219
               5.58540330               10.58712299               32.72391291                0.00010000               -0.77485292                0.18958159               -0.66647345                0.61401150               13.09025096               -1.01429170
               6.56837248               10.41846756               32.79824378                0.00010000               -1.69125137                0.94916696               -0.58645190                0.41022107               24.74959495               -0.07218840
               7.55157827               10.24021450               32.86367974                0.00010000               -1.77111436                0.96178967               -0.54639999               -0.05110337               24.54867940                0.12824795
               8.53295019               10.05895246               32.93018101                0.00010000               -2.04345088                1.06831847               -0.52050734               -0.22319528               25.03294960                0.24821643
               9.51070925                9.87423821               33.00234529                0.00010000               -2.61767433                1.17316076               -0.44404093               -0.53301227               26.15598984                0.46500552
              10.48059671                9.68546893               33.08902936                0.00010000               -3.47478598                1.34918991               -0.17989965               -1.65315348               25.70906131                1.28155777
              11.44121353                9.48543875               33.15090133                0.00010000               -1.90763692                0.16407620               -0.50035521               -1.99998498               13.06140052                0.91880031
              12.44244397                9.32579890               32.98283866                0.00010000                0.21709660                0.25026977               -0.87785767                0.00705009                1.02945681                0.58380320
              13.44555546                9.16727540               32.80366037                0.00010000                0.31114934                0.38693746               -1.24714258                0.06882150                0.49468969               -0.58624676
               1.83129902                1.02064640               34.49101191                1.00000000               -0.34449270               -0.36779610                1.27394474               -0.05772860               -0.95689840                0.97418961
               2.82785410                0.82191498               34.38470979                1.00000000               -0.30225752               -0.28724608                1.02728340               -0.03825183               -1.24888894                0.11623046
               3.82525387                0.62276141               34.27259361                1.00000000               -0.20830314               -0.20830235                0.76917929               -0.04205534               -1.22225643               -0.21108901
               4.82368803                0.42347798               34.16688865                1.00000000                0.03463384               -0.15118662                0.51929236                0.10122494               -0.39842587               -0.85167912
               5.82594655                0.22729201               34.07137358                0.00010000                0.17911738               -0.08309852                0.23171529               -0.07037595               -0.04529026                0.28008588
               6.82727038                0.03414879               33.97359502                0.00010000                0.13052313                0.00758620               -0.01684422               -0.04881517               -0.32614518                0.16272216
               7.82855701               -0.15775102               33.87225365                0.00010000                0.16370063                0.08099100               -0.26596337               -0.02874554               -0.56639531               -0.06772625
               8.83054439               -0.34887812               33.76937204                0.00010000                0.22287544                0.15982755               -0.52140088               -0.04061319               -0.85261560                0.10571788
               9.83301452               -0.53943052               33.66199909                1.00000000                0.27288349                0.23810981               -0.79410907               -0.04130961               -1.15633444                0.58329969
              10.83600206               -0.72980955               33.55286536                1.00000000                0.33336831                0.33078859               -1.07782504               -0.03121873               -1.11925140               -0.01075209
              11.83968189               -0.92035465               33.44624417                1.00000000                0.36798236                0.43135407               -1.35537192               -0.02333577               -0.99806852               -0.99419146
               2.02945316                2.01696844               34.44605258                1.00000000               -0.30390861               -0.35514021                1.13803743               -0.01565053               -0.14741526                1.32731869
               3.02641408                1.81904252               34.33950647                1.00000000               -0.27006714               -0.26775020                0.89366734                0.00508846               -0.17050496                0.16537568
               4.02405182                1.62067838               34.23248546                1.00000000               -0.19895457               -0.18315478                0.63426448               -0.00343748               -0.02184289               -0.53094287
               5.02243498                1.42196611               34.12886970                1.00000000               -0.20722170               -0.12848385                0.36655060                0.15984893                1.61028176               -1.25432654
               6.01990738                1.22646102               34.05431311                0.00010000               -0.15656203               -0.00484833                0.11059018               -0.06821288                2.45489899                1.00362213
               7.01930374                1.03422465               33.96565763                0.00010000               -0.00621846                0.05370759               -0.12694779                0.00755185                1.54665956                0.46005846
               8.01978302                0.84305889               33.87228225                0.00010000                0.08371354                0.11479851               -0.36464641                0.04205333                1.44729216               -0.28967736
               9.02097801                0.65272015               33.78137781                0.00010000                0.16420627                0.19627035               -0.61572833               -0.00127890                1.49534494                0.50801689
              10.02306714                0.46295058               33.68887447                1.00000000                0.25869644                0.25127106               -0.87504457               -0.01129547                0.78231228                0.83027721
              11.02615194                0.27349833               33.58377113                1.00000000                0.34632455                0.33593292               -1.15056851                0.01135901                0.08799933                0.12254994
              12.02999363                0.08395889               33.47732911                1.00000000                0.38416889                0.45987661               -1.42684662                0.02109946                0.02673188               -1.16336680
               2.22683786                3.01354360               34.40817501                1.00000000               -0.25919379               -0.33373202                1.01163801               -0.01055854                0.04962450                1.67822852
               3.22424592                2.81655997               34.29527324                1.00000000               -0.22881668               -0.23156061                0.76545915                0.01005180                0.22958343                0.15040715
               4.22226153                2.61909831               34.18592348                1.00000000               -0.15717734               -0.13192637                0.52715350               -0.01160583                0.71275228               -1.30690269
               5.22110238                2.42090830               34.08266254                1.00000000               -0.49688872               -0.09449483                0.24549919                0.23223746                4.64016912               -2.03720024
               6.21232375                2.22719504               34.05184992                0.00010000               -0.51394125               -0.01030188               -0.05428911                0.29665412                5.66290208               -1.18385877
               7.21082355                2.03522294               33.96372620                0.00010000               -0.07105851               -0.05172166               -0.24411684                0.17027136                2.44437272               -0.12500052
               8.21090258                1.84454495               33.86793892                0.00010000               -0.00982094               -0.03439182               -0.45208682                0.07216191                3.53906604                0.74986525
               9.21062713                1.65504728               33.80158620                0.00010000                0.05539254                0.01574249               -0.73312959               -0.02583234                4.28381362                1.35362504
              10.21201043                1.46559490               33.72086137                1.00000000                0.22969012                0.17918700               -0.96219393               -0.17659197                2.44140587                1.85751033
              11.21522093                1.27690911               33.61747617                1.00000000                0.35861692                0.32174088               -1.21055759               -0.04245710                0.87272910                0.87447050
              12.21918277                1.08884288               33.50512057                1.00000000                0.39618370                0.51016725               -1.50216999                0.00322812                0.44005041               -1.05839071
               2.42320924                4.01029380               34.37029055                1.00000000               -0.21488410               -0.31307533                0.88428428               -0.01512172                0.11299558                1.56809281
               3.42106040                3.81441130               34.24975685                1.00000000               -0.18689326               -0.19363038                0.63689460                0.00312099                0.16590294               -0.01495490
               4.41947137                3.61803986               34.13021640                1.00000000               -0.10386955               -0.07952697                0.40133141               -0.06390566                1.11843008               -1.68598923
               5.41898300                3.42007622               34.02872520                0.00010000               -0.39727731               -0.03468145                0.15184890                0.10950692                5.22992041               -2.71885110
               6.41152583                3.22625498               33.99137980                0.00010000               -0.68118724               -0.04299383               -0.07686678                0.30042965                8.02491426               -2.91549099
               7.40535926                3.03319022               33.94412600                0.00010000               -0.50619558               -0.09436394               -0.29500154                0.10688113                7.21300187               -0.63613303
               8.40140191                2.84237105               33.88847551                0.00010000               -0.29739203               -0.14163345               -0.51202361               -0.04355126                6.75134162                1.62443197
               9.39941142                2.65303500               33.83051745                0.00010000               -0.18642166               -0.14733625               -0.73034811               -0.05445059                6.47122430                2.17971153
              10.39767348                2.46653432               33.76821000                0.00010000                0.13217011               -0.01570155               -0.93429085               -0.11980827                4.20296933                3.36278473
              11.40205482                2.27993315               33.66348088                1.00000000                0.42585846                0.27410851               -1.23800475               -0.05533382                1.13084607                1.53609314
              12.40619065                2.09416223               33.53828630                1.00000000                0.41358281                0.52695580               -1.52029808               -0.03064694                0.15034038               -0.50988776
               2.61830042                5.00728209               34.33029520                1.00000000               -0.17381308               -0.28194212                0.74770306               -0.02506236                0.17551719                1.32745831
               3.61656228                4.81268736               34.20219605                1.00000000               -0.14909577               -0.14391962                0.49876879               -0.01282477                0.27017411               -0.29455793
               4.61531850                4.61750777               34.07592623                0.00010000               -0.07424492               -0.01737457                0.26018805               -0.11065095                1.31600798               -1.76883613
               5.61507739                4.42021467               33.96874215                0.00010000               -0.50500797                0.09637466                0.02286486               -0.09444999                6.91672416               -2.75499354
               6.60521834                4.22633516               33.95449320                0.00010000               -0.91161417                0.08717766               -0.14205585               -0.11938356               11.20299547               -1.23150698
               7.59684510                4.03333567               33.93154538                0.00010000               -0.75157824                0.07098398               -0.33377082               -0.23496361               10.49205908                0.03617985
               8.59018678                3.84171228               33.90127254                0.00010000               -0.57351223               -0.00433783               -0.53690658               -0.31655023               10.01839793                1.37966587
               9.58537486                3.65210056               33.86671881                0.00010000               -0.37353281               -0.06975658               -0.74266782               -0.32841242                9.86647698                2.65671040
              10.58271612                3.46528087               33.83110570                0.00010000                0.05557418               -0.17643683               -0.94002527               -0.14355036                5.69522507                4.05754789
              11.58648634                3.28239128               33.71043396                1.00000000                0.36977759                0.21422908               -1.05565601               -0.01410880                0.84509195                1.67433017
              12.59011167                3.09938199               33.57667822                1.00000000                0.36253294                0.52450542               -1.40039308               -0.04903724                0.22185043               -0.18925355
               2.81189744                6.00465496               34.28767959                1.00000000               -0.13192203               -0.23650306                0.60160672               -0.02967895                0.13153962                1.08163561
               3.81057822                5.81153291               34.15103324                0.00010000               -0.10831973               -0.08676767                0.34120575               -0.02365751                0.33633009               -0.59087797
               4.80973104                5.61769236               34.01841651                0.00010000               -0.11558021                0.05485540                0.09899703               -0.11090889                1.94165579               -2.13154650
               5.80826661                5.42200371               33.91389181                0.00010000               -0.68569405                0.21479787               -0.06927455               -0.38445535                9.25021746               -1.15036720
               6.79601716                5.22799854               33.92748088                0.00010000               -1.14918720                0.22248336               -0.18225774               -0.44681668               14.46827638               -0.25417872
               7.78528287                5.03460990               33.92564828                0.00010000               -0.98555736                0.18542952               -0.36173696               -0.57016974               13.46903568                0.61823720
               8.77630602                4.84228430               33.91707464                0.00010000               -0.80041423                0.10118205               -0.54320681               -0.66103360               13.10635270                1.63890217
               9.76927459                4.65163987               33.90536052                0.00010000               -0.58971289               -0.02369356               -0.72020278               -0.70799200               13.06596585                2.77855393
              10.76451176                4.46300558               33.89291757                0.00010000               -0.08015329               -0.20201580               -0.88859470               -0.35810408                7.14757305                3.94055585
              11.76767152                4.28421773               33.75937380                0.00010000                0.33583557                0.18705428               -1.01064701                0.03796858                0.60326486                1.73623804
              12.77122847                4.10465234               33.61526228                1.00000000                0.35569495                0.53082325               -1.37128698               -0.01653681                0.09491864               -0.13685436
               3.00395093                7.00255203               34.24283163                0.00010000               -0.08992002               -0.18058703                0.45012319               -0.02770704                0.05841885                0.91016642
               4.00305173                6.81095201               34.09743717                0.00010000               -0.06607015               -0.03508243                0.18540830               -0.02269664                0.29169976               -0.74282609
               5.00262952                6.61860488               33.95663963                0.00010000               -0.29848094                0.11533700               -0.06588905               -0.10131079                4.02379022               -2.45556369
               5.99708211                6.42451063               33.88590075                0.00010000               -0.94768536                0.24698057                0.02099276               -0.60228003               12.27552493                0.88405450
               6.98367582                6.23078483               33.91020760                0.00010000               -1.29630797                0.33010292               -0.20901811               -0.68377017               16.66270952                0.52352581
               7.97115595                6.03704426               33.92503148                0.00010000               -1.18698411                0.31153725               -0.38167992               -0.85108084               16.10553548                1.00666264
               8.95993613                5.84373592               33.93554081                0.00010000               -1.03311055                0.20335472               -0.53303533               -1.01455002               15.96960614                1.78835862
               9.95049374                5.65162669               33.94454495                0.00010000               -0.84799785                0.03645251               -0.66524226               -1.14356938               16.09111066                2.73665584
              10.94297618                5.46124055               33.95400393                0.00010000               -0.24473918               -0.13033138               -0.77825480               -0.60628307                8.47474105                3.78805618
              11.94559895                5.28613236               33.80705183                0.00010000                0.29677719                0.19286028               -0.95281691                0.06181303                0.36790915                1.60753053
              12.94891172                5.10999846               33.65379079                0.00010000                0.33127677                0.52507865               -1.32067906               -0.00805041                0.07045935               -0.17655862
               3.19454333                8.00104322               34.19681632                0.00010000               -0.04718974               -0.12132067                0.29970508               -0.02571822                0.02077071                0.83814499
               4.19407143                7.81083126               34.04309669                0.00010000               -0.01985613                0.00766051                0.03319871               -0.01380650                0.17309001               -0.77516938
               5.19414621                7.61999910               33.89234665                0.00010000               -0.50151853                0.15004331               -0.23389486               -0.10429672                6.86021054               -2.59769599
               6.18404106                7.42694332               33.87235671                0.00010000               -1.21690367                0.32059777               -0.00965621               -0.52003705               15.77382161                1.13622819
               7.16980813                7.23460060               33.89921627                0.00010000               -1.43654508                0.47197813               -0.26022260               -0.67219644               18.30839876                0.81777449
               8.15531016                7.04084065               33.92748953                0.00010000               -1.41877758                0.49338034               -0.40689019               -1.00760419               18.48846002                1.12175807
               9.14143258                6.84635139               33.95504162                0.00010000               -1.32057963                0.35808322               -0.51687234               -1.34391257               18.64546374                1.77717913
              10.12889857                6.65236892               33.98303156                0.00010000               -1.17760797                0.14073511               -0.59471985               -1.56979243               18.95221124                2.56727897
              11.11788042                6.46039895               34.01301566                0.00010000               -0.43743479               -0.03872566               -0.62401969               -0.88429080                9.73242241                3.45088315
              12.12014987                6.28807494               33.85310970                0.00010000                0.27274211                0.20207856               -0.90832625                0.04144661                0.14256948                1.41466264
              13.12333527                6.11515391               33.69087957                0.00010000                0.31853929                0.49730545               -1.28208618                0.00317507                0.04249636               -0.33049313
               3.38386047                9.00012561               34.15051095                0.00010000               -0.00407608               -0.06390343                0.15132671               -0.02411805                0.00496363                0.83898923
               4.38381971                8.81110522               33.98872218                0.00010000                0.02855311                0.04647969               -0.11605324               -0.00519010                0.03357877               -0.76153806
               5.38443153                8.62160575               33.82741896                0.00010000               -0.58699157                0.16576265               -0.39570122               -0.03643805                9.26797331               -2.43632048
               6.37207987                8.43092259               33.85027247                0.00010000               -1.40484835                0.51121448               -0.25227533               -0.23687589               19.33439693                0.34992541
               7.35633456                8.24022439               33.88850572                0.00010000               -1.64134038                0.68832040               -0.35939572               -0.50072835               20.39557838                0.64348842
               8.33925307                8.04691186               33.92998274                0.00010000               -1.74024777                0.74136557               -0.45020607               -0.97293719               20.84921210                0.93783260
               9.32152961                7.85089759               33.97422716                0.00010000               -1.71013695                0.65865725               -0.50033681               -1.51034653               21.21816155                1.52583848
              10.30505033                7.65444139               34.01961017                0.00010000               -1.59726314                0.31952667               -0.53270917               -2.04084832               21.59269167                2.58810773
              11.28958434                7.46046604               34.06750959                0.00010000               -0.66887024                0.04830624               -0.51223642               -1.17233729               10.94191149                2.85391385
              12.29167292                7.29017393               33.89674535                0.00010000                0.26164641                0.22368969               -0.88427610                0.00572496                0.01433785                1.16307032
              13.29481727                7.11994457               33.72576753                0.00010000                0.31443488                0.45684844               -1.26491874                0.01097978                0.01972047               -0.55212003
               3.57210176                9.99976515               34.10445576                0.00010000                0.03857444               -0.01119428                0.00502648               -0.02324404               -0.01787231                0.74168527
               4.57248750                9.81176086               33.93454111                0.00010000                0.07491632                0.08522604               -0.26260462               -0.00171567                0.06240318               -0.63812085
               5.57360008                9.62331436               33.76613534                0.00010000               -0.59013010                0.18169415               -0.53957115                0.13937372               11.32170943               -1.63081324
               6.56068490                9.43716761               33.82133996                0.00010000               -1.48978952                0.75391786               -0.47825032                0.02107736               22.55001905               -0.01929003
               7.54380429                9.24836700               33.87465251                0.00010000               -1.77533373                0.86821168               -0.48898847               -0.25895583               22.70945181                0.30691810
               8.52517822                9.05566796               33.92962570                0.00010000               -2.00540835                0.95932936               -0.51885596               -0.62546848               23.21316206                0.52296913
               9.50369612                8.85952454               33.98979399                0.00010000               -2.33325364                1.01565229               -0.50732724               -1.19357323               24.10192150                0.90637800
              10.47851315                8.65875945               34.05949283                0.00010000               -2.24974943                0.89130422               -0.39788674               -1.89747172               24.00020360                2.06399672
              11.45870114                8.46136508               34.11453011                0.00010000               -0.88636540                0.13544188               -0.49214606               -1.44755075               11.82748121                1.69276694
              12.46078584                8.29254873               33.93756131                0.00010000                0.26562273                0.25339350               -0.89438490               -0.02356070                0.11220306                0.80318079
              13.46401359                8.12429088               33.75794508                0.00010000                0.32277479                0.42141471               -1.27918045                0.01315144               -0.00234760               -0.63169907
               3.75940417               10.99990173               34.05611611                0.00010000                0.08320149                0.01365821               -0.13811995                0.02104254                0.40589646                0.63311730
               4.76023618               10.81280974               33.88253629                0.00010000                0.12040408                0.10488860               -0.40621981                0.04176325                0.82365217               -0.52473234
               5.76181225               10.62523963               33.71720390                0.00010000               -0.63937029                0.19252715               -0.67675252                0.48077678               13.25633815               -1.00958789
               6.74744878               10.44600094               33.79219086                0.00010000               -1.45785748                0.88333328               -0.62768195                0.29383775               25.08660653               -0.09881134
               7.73265510               10.25758863               33.85789873                0.00010000               -1.59313060                0.92216232               -0.61497228               -0.11004390               24.87799774                0.12054505
               8.71558616               10.06609845               33.92455015                0.00010000               -1.90442271                1.04304925               -0.61458711               -0.27810558               25.39818367                0.26124223
               9.69456665                9.87121063               33.99735688                0.00010000               -2.51629049                1.16860959               -0.56988719               -0.60449669               26.65715046                0.50230754
              10.66526035                9.67226747               34.08652936                0.00010000               -3.38612964                1.35080200               -0.35873720               -1.72706742               26.06760418                1.42956620
              11.62684405                9.46317488               34.14556952                0.00010000               -1.84922252                0.18097999               -0.56417160               -2.03699196               13.11726505                0.91015848
              12.62827590                9.29524180               33.97370895                0.00010000                0.23759746                0.26930707               -0.94605288                0.00890547                1.04043756                0.58824188
              13.63159600                9.12837286               33.79082049                0.00010000                0.33200974                0.40819805               -1.32057049                0.07134708                0.50950682               -0.57581756
               1.92920325                1.07607490               35.50376182                1.00000000               -0.34558343               -0.36902572                1.27679825               -0.05761214               -0.96891423                0.98360640
               2.92574742                0.86898183               35.39498327                1.00000000               -0.30396317               -0.28668157                1.02723448               -0.03707837               -1.26664493                0.12291504
               3.92312399                0.66145182               35.28026951                1.00000000               -0.21186069               -0.20614565                0.76466909               -0.04219231               -1.24064569               -0.20937485
               4.92151020                0.45368111               35.17203969                1.00000000                0.01074621               -0.14566201                0.50941749                0.04816218               -0.42794619               -0.86803849
               5.92333891                0.24779453               35.07365198                0.00010000                0.16464050               -0.09029306                0.22031398               -0.07316181               -0.06749863                0.28470971
               6.92480301                0.04428038               34.97341964                0.00010000                0.14717531                0.00475044               -0.02423327               -0.06011684               -0.31994744                0.16531096
               7.92628242               -0.15794472               34.86963011                0.00010000                0.18332915                0.07845597               -0.26601889               -0.03918102               -0.55136425               -0.06359546
               8.92846959               -0.35935705               34.76429187                0.00010000                0.23754344                0.15284283               -0.50372049               -0.05408699               -0.84162726                0.10663229
               9.93103329               -0.56003973               34.65420715                1.00000000                0.27701543                0.23126974               -0.77155027               -0.05134564               -1.16192225                0.59122908
              10.93400990               -0.76045602               34.54222520                1.00000000                0.33036256                0.32347916               -1.05211966               -0.03482175               -1.12907563               -0.00714368
              11.93764054               -0.96109395               34.43280106                1.00000000                0.36306333                0.42486890               -1.33409954               -0.01813282               -1.00548588               -0.99878773
               2.13572020                2.07238464               35.45743043                1.00000000               -0.30320227               -0.35718877                1.13844753               -0.01439007               -0.15254381                1.34084473
               3.13268817                1.86611502               35.34843013                1.00000000               -0.26838853               -0.26711373                0.89114361                0.00695337               -0.18392676                0.17500202
               4.13035243                1.65939036               35.23878956                1.00000000               -0.19338529               -0.18056683                0.62688242               -0.00510180               -0.04689434               -0.51493484
               5.12882047                1.45222449               35.13246945                1.00000000               -0.15223842               -0.12101010                0.35503878                0.08797944                1.58570799               -1.25638541
               6.12730766                1.24689160               35.05529802                0.00010000               -0.08745002               -0.01944559                0.08586606               -0.07851362                2.45772934                0.98617545
               7.12707147                1.04432789               34.96428277                0.00010000                0.02008327                0.05122623               -0.15141123               -0.01570074                1.57248652                0.46105656
               8.12770932                0.84283984               34.86856545                0.00010000                0.09523829                0.12123789               -0.38400355                0.01350763                1.47612030               -0.27862069
               9.12897623                0.64217138               34.77522900                0.00010000                0.16799972                0.19163554               -0.62173168               -0.03324188                1.51897505                0.50179960
              10.13106932                0.44227297               34.68013651                1.00000000                0.26062806                0.25156139               -0.87597475               -0.02278234                0.79360335                0.83592729
              11.13418879                0.24277877               34.57223434                1.00000000                0.35139083                0.32994305               -1.15677967                0.00874852                0.08987215                0.13276780
              12.13809713                0.04315474               34.46300567                1.00000000                0.39083391                0.45332038               -1.43665203                0.02723379                0.02935287               -1.17082817
               2.34145470                3.06893113               35.41827399                1.00000000               -0.25739354               -0.33730449                1.00959424               -0.00917474                0.04830470                1.69584647
               3.33888076                2.86363956               35.30291222                1.00000000               -0.22711107               -0.23073171                0.76219096                0.01102901                0.23046769                0.16262757
               4.33691248                2.65784048               35.19116026                1.00000000               -0.15561062               -0.12674053                0.51918754               -0.01571345                0.69412784               -1.28527907
               5.33576855                2.45126091               35.08503176                1.00000000               -0.36236183               -0.08571650                0.22935656                0.13492635                4.58890816               -2.00870151
               6.32966524                2.24740562               35.05113354                0.00010000               -0.36138991               -0.02569372               -0.08800913                0.10481195                5.67036088               -1.15331224
               7.32854075                2.04530491               34.96110791                0.00010000               -0.04780829               -0.04323199               -0.28113214                0.01398560                2.51562782               -0.09027534
               8.32870908                1.84448004               34.86323198                0.00010000               -0.00845593               -0.01882631               -0.49163655               -0.07046936                3.57750269                0.78326176
               9.32837164                1.64447566               34.79416044                0.00010000                0.06305869                0.02452782               -0.76266481               -0.13356673                4.32415684                1.40047595
              10.32997025                1.44499150               34.71103921                1.00000000                0.24657315                0.19283036               -0.99650196               -0.20636209                2.49470818                1.89561067
              11.33330310                1.24614284               34.60515694                1.00000000                0.37315085                0.32007835               -1.25164486               -0.06304069                0.89662334                0.89573840
              12.33743327                1.04797246               34.48988777                1.00000000                0.41301685                0.51300001               -1.53887962                0.00815670                0.44173917               -1.05762629
               2.54611983                4.06563855               35.37910366                1.00000000               -0.21204373               -0.31742622                0.87991645               -0.01506950                0.11580357                1.58054446
               3.54399940                3.86150038               35.25610093                1.00000000               -0.18515135               -0.19189551                0.63204992                0.00288307                0.17448061               -0.00805339
               4.54241681                3.65685555               35.13422074                1.00000000               -0.10227699               -0.07229496                0.39797340               -0.07109350                1.12663513               -1.68253624
               5.54195386                3.45051016               35.03024275                0.00010000               -0.35284548               -0.02513244                0.14674100               -0.00038611                5.23559860               -2.69272916
               6.53535990                3.24637773               34.99047843                0.00010000               -0.58385502               -0.04178255               -0.10481959                0.02230551                8.05191601               -2.83300482
               7.53027676                3.04346325               34.94099643                0.00010000               -0.41153590               -0.09161350               -0.33455408               -0.13585455                7.26203478               -0.56703076
               8.52712918                2.84246332               34.88314080                0.00010000               -0.22416564               -0.13949239               -0.55916609               -0.26542267                6.81973945                1.68481503
               9.52579344                2.64266194               34.82300919                0.00010000               -0.09271403               -0.13887280               -0.78628720               -0.20695059                6.54628312                2.25397772
              10.52527490                2.44612957               34.75799930                0.00010000                0.20767863               -0.04202781               -1.10508365               -0.21111908                4.32179694                3.55626579
              11.52994702                2.24918034               34.65044970                1.00000000                0.46630620                0.26945120               -1.37595040               -0.10982608                1.17855132                1.71329600
              12.53460102                2.05341474               34.52249581                1.00000000                0.46540064                0.56476716               -1.64342483               -0.05093985                0.20169162               -0.41388319
               2.74942965                5.06258260               35.33773085                1.00000000               -0.17082221               -0.28598748                0.74090360               -0.02626883                0.18213616                1.32989604
               3.74772143                4.85980165               35.20715154                1.00000000               -0.14744091               -0.14000898                0.49237626               -0.01587869                0.28134003               -0.30231550
               4.74648083                4.65639458               35.07850064                0.00010000               -0.07413864               -0.00822742                0.25355413               -0.12205731                1.33425386               -1.78393398
               5.74623866                4.45075826               34.96896889                0.00010000               -0.46612833                0.10366518                0.01952547               -0.21215295                6.96781911               -2.72786493
               6.73715827                4.24656997               34.95296348                0.00010000               -0.82502919                0.09070242               -0.16637976               -0.32382253               11.27833753               -1.15941355
               7.72973807                4.04347264               34.92800664                0.00010000               -0.64781661                0.05609718               -0.37840693               -0.42929646               10.55912305                0.11203680
               8.72420193                3.84169019               34.89561092                0.00010000               -0.45858519               -0.02178933               -0.60136649               -0.49740970               10.08800398                1.45838110
               9.72056637                3.64169821               34.85886158                0.00010000               -0.24862323               -0.08363578               -0.83757704               -0.49067718                9.94686094                2.74635966
              10.71922947                3.44415094               34.82118563                0.00010000                0.16275201               -0.23656277               -1.05320743               -0.23770123                5.84259798                4.22035712
              11.72382141                3.25153186               34.69948842                1.00000000                0.43580945                0.22688821               -1.19605173               -0.02379500                0.95841581                1.91037494
              12.72794566                3.05926780               34.56211002                1.00000000                0.41242495                0.58513619               -1.56129411               -0.05024731                0.23539342               -0.03274660
               2.95115636                6.05991880               35.29364277                1.00000000               -0.12865210               -0.23927702                0.59224893               -0.03123109                0.13103611                1.07582048
               3.94986984                5.85870020               35.15440616                0.00010000               -0.10686560               -0.08058951                0.33300228               -0.02859294                0.34496958               -0.60770626
               4.94901905                5.65669100               35.01938546                0.00010000               -0.11672145                0.06805212                0.09346618               -0.13219814                2.00050790               -2.15810988
               5.94753541                5.45258346               34.91325944                0.00010000               -0.64249902                0.19951030               -0.05904185               -0.51685755                9.36596563               -1.00682980
               6.93616907                5.24819177               34.92556930                0.00010000               -1.04824052                0.20872047               -0.20346432               -0.65124981               14.57684897               -0.16580417
               7.92657060                5.04458519               34.92179874                0.00010000               -0.86068270                0.16305627               -0.41354877               -0.74583766               13.55335974                0.70304353
               8.91895542                4.84202753               34.91128181                0.00010000               -0.65257237                0.07213809               -0.62311785               -0.82095487               13.20104184                1.73921366
               9.91351915                4.64098922               34.89766619                0.00010000               -0.41340987               -0.05466173               -0.83143116               -0.87078401               13.17889045                2.91443523
              10.91068722                4.44139832               34.88340395                0.00010000                0.04175494               -0.23420750               -1.04465926               -0.41321572                7.34241587                4.11803936
              11.91435425                4.25371810               34.74886216                0.00010000                0.37184878                0.20906207               -1.09474994                0.05601999                0.73638974                1.88925306
              12.91812419                4.06511747               34.60109517                1.00000000                0.37699408                0.57485260               -1.45461354               -0.01967760                0.10294385                0.00068464
               3.15124223                7.05779706               35.24726994                0.00010000               -0.08648585               -0.18124726                0.43854721               -0.02884422                0.05654178                0.90154297
               4.15037737                6.85818986               35.09924181                0.00010000               -0.06443097               -0.02812474                0.17491739               -0.02754357                0.29645550               -0.75680658
               5.14995361                6.65775563               34.95594576                0.00010000               -0.29883188                0.13160149               -0.07519928               -0.15082545                4.21711276               -2.48476807
               6.14440073                6.45474847               34.88633470                0.00010000               -0.89110334                0.20892936                0.06010021               -0.73978599               12.46816290                1.03764811
               7.13213154                6.25074438               34.90801126                0.00010000               -1.17075855                0.30213318               -0.23505873               -0.87094830               16.71488300                0.60375450
               8.12098556                6.04673376               34.92094901                0.00010000               -1.03763687                0.27746799               -0.44134422               -1.02023979               16.21575635                1.09480650
               9.11137881                5.84313296               34.92981471                0.00010000               -0.86028305                0.16221992               -0.62155337               -1.16961128               16.11331021                1.90503324
              10.10377990                5.64060497               34.93738602                0.00010000               -0.65712653               -0.00252805               -0.78187300               -1.30319811               16.27415320                2.89856703
              11.09823628                5.43946679               34.94561687                0.00010000               -0.12786205               -0.14443717               -0.92215556               -0.67913851                8.69288003                4.01602954
              12.10122266                5.25571310               34.79723452                0.00010000                0.32585496                0.19924036               -1.01589132                0.07290148                0.47982297                1.74620584
              13.10475337                5.07076486               34.64025091                0.00010000                0.35307142                0.55229071               -1.38508789               -0.00725359                0.07399636               -0.04842695
               3.34979388                8.05629386               35.19974097                0.00010000               -0.04334765               -0.11973661                0.28602729               -0.02633562                0.01933515                0.83046140
               4.34936041                7.85813771               35.04337097                0.00010000               -0.01749736                0.01406669                0.02101856               -0.01587403                0.17060466               -0.78535922
               5.34944393                7.65932303               34.88995012                0.00010000               -0.48047327                0.16493765               -0.24735948               -0.18304168                7.10529622               -2.62228839
               6.33975094                7.45676205               34.87224972                0.00010000               -1.13395637                0.29237055               -0.02120814               -0.66182828               16.03318561                1.10919509
               7.32676481                7.25423444               34.89645253                0.00010000               -1.29868560                0.44058104               -0.29889755               -0.84354988               18.38190879                0.86169238
               8.31377723                7.05013455               34.92310947                0.00010000               -1.25364134                0.45206103               -0.47655960               -1.17611661               18.64492615                1.20014414
               9.30169198                6.84527193               34.94945176                0.00010000               -1.13279349                0.30656310               -0.61109309               -1.50173116               18.85560194                1.89672363
              10.29112136                6.64093866               34.97660771                0.00010000               -0.98478320                0.09409119               -0.70363838               -1.72200071               19.23149071                2.73060098
              11.28199632                6.43850957               35.00632785                0.00010000               -0.33035704               -0.04416217               -0.73022660               -0.95770988                9.95116603                3.67652694
              12.28451422                6.25770291               34.84375911                0.00010000                0.29396508                0.20856285               -0.96408129                0.05066672                0.19596215                1.52174263
              13.28787562                6.07616328               34.67776710                0.00010000                0.33614007                0.52029224               -1.33816287                0.00318667                0.04426544               -0.23428911
               3.54702782                9.05540233               35.15194224                0.00010000                0.00028997               -0.06049472                0.13554654               -0.02444584                0.00397659                0.83268893
               4.54703072                8.85847119               34.98749767                0.00010000                0.03203090                0.05206826               -0.12963518               -0.00532864                0.02604792               -0.76824353
               5.54766843                8.66105438               34.82340653                0.00010000               -0.53889771                0.17514713               -0.40902606               -0.12838705                9.45821066               -2.44639581
               6.53625276                8.46059588               34.84754380                0.00010000               -1.28901941                0.49548242               -0.29423444               -0.39750388               19.61787347                0.24131741
               7.52188805                8.25955600               34.88466463                0.00010000               -1.49135117                0.65537568               -0.41618412               -0.66753283               20.57970465                0.64992128
               8.50642574                8.05577498               34.92510942                0.00010000               -1.56739867                0.70133499               -0.53240270               -1.13766267               21.07501743                0.99467845
               9.49054007                7.84926422               34.96873587                0.00010000               -1.51617483                0.61162570               -0.60948846               -1.67556273               21.49954143                1.63000029
              10.47610224                7.64248680               35.01379915                0.00010000               -1.41111215                0.26995633               -0.64091561               -2.19027808               21.94832950                2.76081838
              11.46231783                7.43858355               35.06208642                0.00010000               -0.57599766                0.05419113               -0.58058377               -1.23696246               11.15438108                3.00392794
              12.46458229                7.25988436               34.88763941                0.00010000                0.27892661                0.23466575               -0.93874582                0.00969083                0.01921086                1.23626845
              13.46789636                7.08117070               34.71283190                0.00010000                0.33140733                0.47779021               -1.32193573                0.01131573                0.01917718               -0.49138678
               3.74316724               10.05508397               35.10441379                0.00010000                0.04345459               -0.00633544               -0.01293689               -0.02345532               -0.01895795                0.73747960
               4.74360178                9.85917907               34.93184542                0.00010000                0.07921364                0.09026868               -0.27734603               -0.00169546                0.05640943               -0.64136666
               5.74475151                9.66282598               34.76068609                0.00010000               -0.51512706                0.18698690               -0.55260420                0.03498402               11.47119297               -1.62776251
               6.73329924                9.46667170               34.81633097                0.00010000               -1.32582327                0.70968287               -0.52351506               -0.11635040               22.83918715               -0.07304345
               7.71823504                9.26734195               34.86944689                0.00010000               -1.59917433                0.82884750               -0.55784338               -0.38097814               22.97485135                0.29956336
               8.70131576                9.06416125               34.92399536                0.00010000               -1.83830658                0.92767172               -0.61542223               -0.74037607               23.50676515                0.55184577
               9.68146891                8.85750444               34.98412209                0.00010000               -2.16596438                0.99471850               -0.64079804               -1.32452432               24.48521694                0.96839499
              10.65799647                8.64633779               35.05471447                0.00010000               -2.08047053                0.87502004               -0.58580594               -2.01385720               24.40008829                2.21385751
              11.63985950                8.43959340               35.10936089                0.00010000               -0.79377936                0.14897750               -0.54265322               -1.49400765               11.99134861                1.74002120
              12.64212088                8.26239622               34.92833671                0.00010000                0.28348752                0.26920535               -0.95062360               -0.02274224                0.10239592                0.83423174
              13.64552925                8.08571908               34.74483762                0.00010000                0.34083724                0.44187678               -1.34262047                0.01359423               -0.00287509               -0.60505577
               3.93836849               11.05527562               35.05463280                0.00010000                0.08863054                0.01916548               -0.15808185                0.02022005                0.40320464                0.63015079
               4.93925480               10.86027657               34.87839769                0.00010000                0.12534994                0.10974917               -0.42226777                0.04122617                0.81937856               -0.52600463
               5.94087549               10.66479412               34.71037786                0.00010000               -0.49225093                0.19681406               -0.69084729                0.33804638               13.40174232               -1.00207590
               6.92940978               10.47478953               34.78569014                0.00010000               -1.20482784                0.81178343               -0.67603475                0.17799523               25.38769582               -0.11904820
               7.91677893               10.27613295               34.85138029                0.00010000               -1.39770259                0.87909968               -0.69382499               -0.16866697               25.17398403                0.11205372
               8.90145573               10.07432842               34.91788927                0.00010000               -1.74529414                1.01671671               -0.72599738               -0.33472096               25.72807441                0.27435025
               9.88187305                9.86915859               34.99094755                0.00010000               -2.38597906                1.16541446               -0.72743124               -0.67664730               27.10497560                0.53594978
              10.85373614                9.65998720               35.08185461                0.00010000               -3.27469046                1.36494101               -0.61565422               -1.80580683               26.47944667                1.54503821
              11.81637924                9.44156310               35.13961789                0.00010000               -1.78671939                0.19697001               -0.62532120               -2.08396258               13.25638852                0.90521994
              12.81800176                9.26526847               34.96391760                0.00010000                0.25716409                0.28722454               -1.00990329                0.01034461                1.05359386                0.59584197
              13.82152252                9.09000824               34.77724896                0.00010000                0.35207659                0.42891519               -1.39292051                0.07330385                0.52496827               -0.56434269
               2.02947785                1.13298131               36.51654788                1.00000000               -0.34643382               -0.37081428                1.28162068               -0.05767103               -0.98198702                0.99337010
               3.02601351                0.91747955               36.40525448                1.00000000               -0.30466556               -0.28659484                1.02731181               -0.03608400               -1.28670027                0.12984003
               4.02338454                0.70153382               36.28788699                1.00000000               -0.21334329               -0.20448840                0.75808389               -0.04208637               -1.26242360               -0.20832537
               5.02174664                0.48525768               36.17707700                1.00000000               -0.00839567               -0.14113463                0.49668757               -0.00258071               -0.45971092               -0.88466848
               6.02321662                0.26969412               36.07577986                0.00010000                0.15733275               -0.09911586                0.19937431               -0.07324234               -0.08260724                0.28685289
               7.02489330                0.05572877               35.97311035                0.00010000                0.17204394                0.00287509               -0.04633122               -0.07011190               -0.30074464                0.16675511
               8.02665750               -0.15689360               35.86693327                0.00010000                0.21207525                0.07782075               -0.28294892               -0.04725753               -0.51521179               -0.06005157
               9.02913480               -0.36861975               35.75929763                0.00010000                0.25926196                0.15073223               -0.50672231               -0.06338760               -0.80954118                0.10722828
              10.03184274               -0.57946465               35.64656808                1.00000000                0.28459192                0.23017171               -0.76419265               -0.05843576               -1.14789177                0.60553526
              11.03482664               -0.78997071               35.53182297                1.00000000                0.32888544                0.31926594               -1.03467557               -0.03839077               -1.12186020                0.00072707
              12.03842045               -1.00073963               35.41956218                1.00000000                0.35938078                0.41952391               -1.31851563               -0.01513358               -0.99956385               -0.98622434
               2.24440289                2.12927316               36.46882153                1.00000000               -0.30264757               -0.35970053                1.14095892               -0.01347330               -0.15851349                1.35467279
               3.24137642                1.91461360               36.35732934                1.00000000               -0.26641416               -0.26689150                0.88908238                0.00856302               -0.19888642                0.18530235
               4.23907461                1.69948893               36.24502310                1.00000000               -0.18678654               -0.17861370                0.61913089               -0.00636304               -0.07322099               -0.49924753
               5.23764068                1.48384634               36.13597047                1.00000000               -0.09129748               -0.11483555                0.34366738                0.01873224                1.55559413               -1.26083934
               6.23724866                1.26870296               36.05603043                0.00010000               -0.00773212               -0.03728725                0.05840302               -0.08253131                2.45637482                0.96795480
               7.23748604                1.05575752               35.96262940                0.00010000                0.05552627                0.04875031               -0.18290791               -0.03369948                1.60643907                0.46333675
               8.23835918                0.84388460               35.86460218                0.00010000                0.11502048                0.12642197               -0.41232858               -0.00636673                1.52163937               -0.26823876
               9.23978645                0.63288758               35.76894318                0.00010000                0.17873411                0.19481804               -0.63815916               -0.04396512                1.56298172                0.49357717
              10.24193387                0.42283707               35.67135498                1.00000000                0.26468854                0.25544866               -0.88302379               -0.03001390                0.81633866                0.84520876
              11.24508022                0.21322195               35.56063553                1.00000000                0.35520837                0.32896113               -1.16312216                0.00483699                0.09588038                0.14856466
              12.24903803                0.00345561               35.44859607                1.00000000                0.39578104                0.44699186               -1.44452697                0.03013803                0.03338985               -1.15395590
               2.45852750                3.12578730               36.42836690                1.00000000               -0.25584974               -0.34126666                1.01033294               -0.00816326                0.04694267                1.71347611
               3.45596900                2.91214172               36.31051706                1.00000000               -0.22514781               -0.23013469                0.75894037                0.01153774                0.23023032                0.17579769
               4.45402454                2.69796154               36.19630723                1.00000000               -0.15308719               -0.12200904                0.50968445               -0.01965536                0.67240872               -1.26033356
               5.45290726                2.48296097               36.08724967                1.00000000               -0.21848637               -0.07809177                0.21388572                0.03917178                4.52794688               -1.97696305
               6.44965482                2.26894838               36.05008973                0.00010000               -0.19347954               -0.04690064               -0.12369025               -0.08476941                5.67974376               -1.11221619
               7.44903767                2.05670377               35.95810356                0.00010000               -0.01273534               -0.04033185               -0.32088166               -0.14309944                2.59538893               -0.04975933
               8.44940011                1.84563484               35.85810619                0.00010000                0.01326860               -0.00980915               -0.53297482               -0.20012006                3.63053916                0.81569795
               9.44930304                1.63527662               35.78633290                0.00010000                0.07539904                0.02629177               -0.78993928               -0.21491938                4.38638610                1.44294154
              10.45090809                1.42564432               35.70093133                1.00000000                0.25008981                0.23380717               -1.01869509               -0.19665310                2.54335072                1.87182608
              11.45430484                1.21660851               35.59244328                1.00000000                0.38238994                0.33228219               -1.28656829               -0.06975007                0.91279083                0.88878082
              12.45855589                1.00820021               35.47434298                1.00000000                0.42510529                0.51033575               -1.56665603                0.01388097                0.44119635               -1.05660444
               2.67153077                4.12244783               36.38788888                1.00000000               -0.20978469               -0.32231960                0.87866609               -0.01497946                0.11868607                1.59241012
               3.66943292                3.91001091               36.26239785                1.00000000               -0.18342600               -0.19029518                0.62749052                0.00256034                0.18408488               -0.00048713
               4.66786225                3.69704875               36.13817587                1.00000000               -0.09978189               -0.06485818                0.39136892               -0.07823612                1.13414425               -1.67600403
               5.66743729                3.48228450               36.03166002                0.00010000               -0.30258912               -0.01601407                0.13374730               -0.11100649                5.22985383               -2.65879601
               6.66181047                3.26776495               35.98928341                0.00010000               -0.47498465               -0.04461741               -0.13650706               -0.26205458                8.06603497               -2.74131315
               7.65793759                3.05495088               35.93743492                0.00010000               -0.30132639               -0.09648408               -0.38027921               -0.38670336                7.30647979               -0.49297283
               8.65578394                2.84368842               35.87729219                0.00010000               -0.12295075               -0.14479702               -0.61457275               -0.49228347                6.88066609                1.74085962
               9.65547858                2.63341341               35.81479170                0.00010000                0.04424824               -0.14529322               -0.86241356               -0.33704458                6.56654450                2.32042614
              10.65666891                2.42751321               35.74610833                0.00010000                0.28253775               -0.06804811               -1.21957147               -0.27563335                4.34875527                3.65354976
              11.66112933                2.21986759               35.63596188                1.00000000                0.47316778                0.27889000               -1.47963597               -0.17127216                1.23179369                1.84596231
              12.66613226                2.01366233               35.50541780                1.00000000                0.50029278                0.59637501               -1.73069133               -0.06950395                0.23231871               -0.34433360
               2.88310175                5.11934090               36.34511327                1.00000000               -0.16824607               -0.29077758                0.73720514               -0.02747873                0.18879806                1.33136318
               3.88141929                4.90833582               36.21204358                1.00000000               -0.14577596               -0.13611946                0.48602223               -0.01872661                0.29223067               -0.30955572
               4.88018623                4.69666438               36.08099731                0.00010000               -0.07241790                0.00181494                0.24499040               -0.13347248                1.35312493               -1.79634513
               5.87997093                4.48264069               35.96913266                0.00010000               -0.42194427                0.11084010                0.00951796               -0.33217761                7.00938499               -2.68864045
               6.87174734                4.26805603               35.95116561                0.00010000               -0.72954007                0.09348635               -0.19680046               -0.53311140               11.33496552               -1.08015479
               7.86538013                4.05477409               35.92397724                0.00010000               -0.53277178                0.03887587               -0.43148338               -0.63085835               10.60688845                0.18916110
               8.86109191                3.84273889               35.88924521                0.00010000               -0.33213845               -0.04118228               -0.67765450               -0.68639421               10.13268358                1.52972954
               9.85873736                3.63237075               35.84996727                0.00010000               -0.10753339               -0.10046393               -0.94480903               -0.66019327               10.00819467                2.82038912
              10.85894124                3.42428336               35.81004156                0.00010000                0.29964574               -0.32890398               -1.21637882               -0.33446204                5.97053274                4.37567069
              11.86473028                3.22218631               35.68651293                1.00000000                0.53175519                0.21945501               -1.38677558               -0.02884423                1.02668793                2.20859839
              12.86957635                3.02012771               35.54545234                1.00000000                0.48460703                0.64314047               -1.72450055               -0.07140633                0.20815588                0.17501183
               3.09299137                6.11663228               36.29952456                1.00000000               -0.12564473               -0.24281079                0.58580132               -0.03256227                0.13027118                1.06920026
               4.09173492                5.90728852               36.15769329                0.00010000               -0.10517176               -0.07423733                0.32369793               -0.03307541                0.35407761               -0.62419713
               5.09088793                5.69708505               36.02028584                0.00010000               -0.11664163                0.08402386                0.08408841               -0.15472812                2.06697328               -2.18080296
               6.08940209                5.48450130               35.91271098                0.00010000               -0.59365450                0.18163084               -0.05280697               -0.65207186                9.47237973               -0.84031281
               7.07901484                5.26963468               35.92341159                0.00010000               -0.93822631                0.19603304               -0.23282308               -0.85805411               14.65379944               -0.07342168
               8.07063756                5.05572840               35.91737730                0.00010000               -0.72777209                0.14277815               -0.47608047               -0.92412041               13.60596460                0.78843431
               9.06445940                4.84286477               35.90461228                0.00010000               -0.49536551                0.04638686               -0.71789662               -0.98254258               13.25989566                1.83619930
              10.06073025                4.63140413               35.88873190                0.00010000               -0.21476479               -0.08571182               -0.96933283               -1.02461821               13.23688653                3.04467587
              11.06016410                4.42093513               35.87202438                0.00010000                0.19889247               -0.28230580               -1.26013382               -0.45516991                7.54054603                4.29348823
              12.06470810                4.22425669               35.73747880                0.00010000                0.43286201                0.19866088               -1.19700127                0.07105510                0.91262022                2.11848902
              13.06882134                4.02652514               35.58617001                1.00000000                0.41132443                0.61151373               -1.53689757               -0.03403020                0.11444037                0.21288831
               3.30113802                7.11448469               36.25160258                0.00010000               -0.08330086               -0.18260692                0.42936665               -0.02942861                0.05400324                0.89250724
               4.30030501                6.90685107               36.10093552                0.00010000               -0.06295662               -0.02101525                0.16324814               -0.03001896                0.30041694               -0.77047484
               5.29987889                6.69834486               35.95513564                0.00010000               -0.29625712                0.15037600               -0.08958911               -0.20461560                4.43253306               -2.51345639
               6.29437987                6.48627331               35.88710276                0.00010000               -0.82598591                0.17084110                0.08977212               -0.87839439               12.65033113                1.17994702
               7.28335917                6.27197669               35.90550642                0.00010000               -1.03561224                0.27732000               -0.27199773               -1.05359650               16.71709798                0.68193434
               8.27366762                6.05762966               35.91620459                0.00010000               -0.87969223                0.24773587               -0.51409668               -1.18690796               16.29032999                1.18458866
               9.26576532                5.84366663               35.92310975                0.00010000               -0.67464901                0.12499665               -0.72900528               -1.31930773               16.21755093                2.02676213
              10.26017464                5.63065651               35.92890749                0.00010000               -0.43900200               -0.04181596               -0.93026551               -1.45536721               16.40936897                3.07654780
              11.25698528                5.41863724               35.93556082                0.00010000                0.01933640               -0.17375932               -1.12117419               -0.74543732                8.92973652                4.29218202
              12.26056137                5.22615953               35.78673400                0.00010000                0.36867879                0.19241014               -1.08882591                0.08212532                0.63776929                1.90808264
              13.26435886                5.03235798               35.62608904                0.00010000                0.37974885                0.56810044               -1.44137587               -0.01099214                0.07531082                0.09614116
               3.50767002                8.11298014               36.20253687                0.00010000               -0.03956519               -0.11890601                0.27425471               -0.02663627                0.01767185                0.82225494
               4.50727437                7.90686822               36.04351706                0.00010000               -0.01483203                0.02074173                0.00756060               -0.01581024                0.16654857               -0.79505989
               5.50737338                7.70009257               35.88739946                0.00010000               -0.45360033                0.17985013               -0.26499027               -0.26396811                7.34639471               -2.64646102
               6.49820236                7.48791813               35.87193255                0.00010000               -1.03934098                0.26971890               -0.05212769               -0.80560568               16.28041255                1.04932957
               7.48658656                7.27518108               35.89323832                0.00010000               -1.14964545                0.41258878               -0.34978187               -1.01155723               18.42775685                0.89888406
               8.47520946                7.06068312               35.91795834                0.00010000               -1.07700894                0.41449420               -0.56122413               -1.34009080               18.76983893                1.28164587
               9.46504638                6.84536471               35.94281975                0.00010000               -0.92785811                0.25803135               -0.72586017               -1.65249587               19.03666281                2.02369456
              10.45665229                6.63056781               35.96895880                0.00010000               -0.76470224                0.04472395               -0.84240185               -1.87065191               19.49092302                2.92014332
              11.44975234                6.41745994               35.99841113                0.00010000               -0.20112149               -0.05628425               -0.87805146               -1.03082476               10.19406575                3.96183477
              12.45262986                6.22810490               35.83382808                0.00010000                0.32261271                0.20810865               -1.02568699                0.05887462                0.27934125                1.64370459
              13.45620459                6.03788714               35.66411631                0.00010000                0.35747300                0.53441662               -1.38974055                0.00107388                0.04611313               -0.13057456
               3.71282914                9.11210657               36.15322188                0.00010000                0.00472354               -0.05779813                0.12119081               -0.02459968                0.00303010                0.82550095
               4.71287637                8.90726591               35.98612948                0.00010000                0.03602372                0.05826451               -0.14495065               -0.00478472                0.01759508               -0.77418936
               5.71354961                8.70194186               35.81923844                0.00010000               -0.48485639                0.18476044               -0.42685469               -0.22166087                9.63363335               -2.45460747
               6.70317925                8.49166769               35.84438778                0.00010000               -1.15932909                0.48211369               -0.34543342               -0.56039554               19.88640717                0.12686402
               7.69036303                8.28022846               35.88018203                0.00010000               -1.32485364                0.62307633               -0.48498395               -0.83488912               20.74358034                0.65351971
               8.67668217                8.06591954               35.91933468                0.00010000               -1.37661625                0.66209548               -0.63037917               -1.29861704               21.27385671                1.05559547
               9.66283071                7.84882726               35.96203739                0.00010000               -1.30079026                0.56580230               -0.74132339               -1.83667877               21.76570753                1.73668041
              10.65066637                7.63155099               36.00679186                0.00010000               -1.19995011                0.22066633               -0.77339462               -2.33459363               22.32198002                2.91205513
              11.63883170                7.41751156               36.05589792                0.00010000               -0.46773543                0.05870399               -0.67042157               -1.30378791               11.39715495                3.20432171
              12.64131166                7.23032170               35.87797044                0.00010000                0.29920684                0.24251376               -0.99768080                0.01309637                0.03420349                1.31962164
              13.64481584                7.04304632               35.69932882                0.00010000                0.35041811                0.49427813               -1.37808085                0.00994518                0.01869922               -0.43147569
               3.91685935               10.11182418               36.10419702                0.00010000                0.04840367               -0.00199198               -0.03003097               -0.02359952               -0.01988370                0.73206759
               4.91734339                9.90803351               35.92899418                0.00010000                0.08395182                0.09596013               -0.29373777               -0.00170387                0.04981764               -0.64337857
               5.91853839                9.70378778               35.75508326                0.00010000               -0.43177694                0.19363628               -0.57065432               -0.07340403               11.60418603               -1.62264839
               6.90870785                9.49756040               35.81086966                0.00010000               -1.14507295                0.66169771               -0.57127213               -0.25620832               23.10103902               -0.12430709
               7.89563693                9.28764260               35.86349564                0.00010000               -1.40347642                0.78672113               -0.63766687               -0.50313765               23.21412293                0.29491988
               8.88063832                9.07392503               35.91731726                0.00010000               -1.64777866                0.89390519               -0.72756100               -0.85318132               23.76973591                0.58411685
               9.86268135                8.85668075               35.97697803                0.00010000               -1.96810988                0.97257280               -0.79899410               -1.45368900               24.82189751                1.02916020
              10.84127612                8.63498114               36.04777671                0.00010000               -1.88877418                0.86684806               -0.82402658               -2.12670784               24.85781491                2.30503747
              11.82490587                8.41863402               36.10367705                0.00010000               -0.69595447                0.16268520               -0.59767281               -1.54744208               12.23970053                1.81097742
              12.82735703                8.23295517               35.91854884                0.00010000                0.30242007                0.28375732               -1.00816971               -0.02281279                0.09211686                0.87249467
              13.83095427                8.04777271               35.73109267                0.00010000                0.35972394                0.46085065               -1.40726209                0.01259454               -0.00461256               -0.58165936
               4.11993849               11.11206673               36.05295447                0.00010000                0.09402060                0.02425507               -0.17688977                0.01975224                0.39948873                0.62583699
               5.12087870               10.90918511               35.87409093                0.00010000                0.13080751                0.11516032               -0.43993433                0.04092374                0.81315511               -0.52570792
               6.12255464               10.70581458               35.70338695                0.00010000               -0.33392199                0.20268049               -0.71056031                0.18745196               13.52740359               -0.99284638
               7.11420026               10.50490164               35.77867016                0.00010000               -0.93094940                0.73412409               -0.73148453                0.05665602               25.65285573               -0.13889210
               8.10393565               10.29596289               35.84402223                0.00010000               -1.18099300                0.83202837               -0.78278517               -0.22532733               25.43678238                0.10545740
               9.09058040               10.08379764               35.91003020                0.00010000               -1.56174204                0.98726170               -0.85279922               -0.39000083               26.01873064                0.28833324
              10.07270081                9.86827872               35.98280825                0.00010000               -2.22007264                1.15979612               -0.91100495               -0.74353863               27.47565146                0.56398227
              11.04617894                9.64888795               36.07421627                0.00010000               -3.13959899                1.39068135               -0.94234900               -1.88539044               26.96453510                1.60578309
              12.00990883                9.42076526               36.13306310                0.00010000               -1.72311119                0.21312398               -0.68716618               -2.14425904               13.52340720                0.90841824
              13.01171672                9.23599685               35.95351088                0.00010000                0.27619155                0.30416782               -1.07027411                0.01087215                1.07252162                0.60867379
              14.01543266                9.05226333               35.76296208                0.00010000                0.37159430                0.44906227               -1.46467934                0.07448705                0.54243530               -0.55608243
               2.13215031                1.19139500               37.52939423                1.00000000               -0.34760128               -0.37359237                1.28984505               -0.05821179               -0.99744980                1.00416518
               3.12867430                0.96742890               37.41552950                1.00000000               -0.30486590               -0.28704155                1.02855588               -0.03563904               -1.31077956                0.13697202
               4.12605299                0.74301308               37.29543119                1.00000000               -0.21255910               -0.20279151                0.74991612               -0.04201693               -1.28925087               -0.20771734
               5.12442312                0.51820080               37.18197344                1.00000000               -0.01997909               -0.13657606                0.48009249               -0.04894157               -0.49865028               -0.90114328
               6.12565341                0.29303044               37.07763946                0.00010000                0.16057949               -0.10896203                0.16476243               -0.06888936               -0.10098723                0.28573248
               7.12763471                0.06857739               36.97249302                0.00010000                0.20687459                0.00240295               -0.08751175               -0.07632073               -0.27456413                0.16518077
               8.12979090               -0.15448356               36.86397113                0.00010000                0.25046239                0.07857123               -0.31938240               -0.05030532               -0.46234009               -0.05927502
               9.13264396               -0.37650358               36.75415742                0.00010000                0.28796014                0.15112300               -0.52913100               -0.06705163               -0.75496817                0.10898556
              10.13555011               -0.59750282               36.63892330                1.00000000                0.29673265                0.23167079               -0.77037336               -0.06278872               -1.11147224                0.62182621
              11.13857861               -0.81806660               36.52153169                1.00000000                0.33103730                0.31963622               -1.03082851               -0.04049954               -1.09842422                0.01072400
              12.14217085               -1.03888622               36.40643075                1.00000000                0.35922446                0.41810398               -1.31399772               -0.01466041               -0.98216329               -0.96174765
               2.35553430                2.18765908               37.48024961                1.00000000               -0.30254264               -0.36308532                1.14658831               -0.01291303               -0.16579954                1.36938321
               3.35250887                1.96455849               37.36621178                1.00000000               -0.26437086               -0.26709473                0.88800822                0.00984122               -0.21621956                0.19604222
               4.35024688                1.74098517               37.25117217                1.00000000               -0.17919230               -0.17660178                0.60967234               -0.00742020               -0.10160156               -0.48386158
               5.34892502                1.51683503               37.13934280                1.00000000               -0.02353276               -0.10843493                0.32825418               -0.04612379                1.51863821               -1.26646076
               6.34977622                1.29194082               37.05646608                0.00010000                0.08517395               -0.05610607                0.02476405               -0.07404023                2.44773973                0.94429386
               7.35062850                1.06860142               36.96062461                0.00010000                0.10260551                0.04634076               -0.22271922               -0.04206514                1.64502243                0.46229447
               8.35182833                0.84630215               36.86031888                0.00010000                0.14272811                0.12937752               -0.44686458               -0.01470762                1.58151266               -0.26261939
               9.35348306                0.62500765               36.76246582                1.00000000                0.19376996                0.19947722               -0.65607496               -0.04289994                1.62193961                0.48873066
              10.35570373                0.40481389               36.66247603                1.00000000                0.26911244                0.25887419               -0.89260575               -0.03505559                0.84713071                0.85539171
              11.35886531                0.18512976               36.54897190                1.00000000                0.35700648                0.33293587               -1.16944595                0.00247968                0.10508462                0.16301043
              12.36284386               -0.03470518               36.43411513                1.00000000                0.39785486                0.44524276               -1.45092282                0.03085335                0.03881141               -1.12406852
               2.57809324                3.18413330               37.43848065                1.00000000               -0.25482024               -0.34593488                1.01424800               -0.00756297                0.04500291                1.73182998
               3.57554504                2.96208701               37.31809103                1.00000000               -0.22325979               -0.22971828                0.75622587                0.01164934                0.22828507                0.18977124
               4.57362804                2.73948105               37.20135395                1.00000000               -0.15000228               -0.11698854                0.49888439               -0.02321348                0.64857478               -1.23368226
               5.57254499                2.51603210               37.08930947                1.00000000               -0.06109078               -0.06918933                0.19657120               -0.05271797                4.45718335               -1.94598151
               6.57240623                2.29190832               37.04865974                0.00010000               -0.00564568               -0.07326145               -0.16613382               -0.26992098                5.68205441               -1.07085759
               7.57243208                2.06950420               36.95469028                0.00010000                0.03421447               -0.04356547               -0.36396136               -0.30176338                2.67922631               -0.01383593
               8.57309052                1.84810399               36.85257249                0.00010000                0.04210678               -0.00803305               -0.56971627               -0.32304265                3.69785299                0.83830068
               9.57327421                1.62748597               36.77836165                0.00010000                0.08181862                0.02142197               -0.79305960               -0.28020933                4.44061186                1.44967536
              10.57472689                1.40767467               36.69066531                1.00000000                0.24365296                0.26382273               -1.02926522               -0.17588762                2.57474723                1.82821505
              11.57814727                1.18859211               36.57942558                1.00000000                0.38654514                0.34500864               -1.30691353               -0.06239626                0.91660065                0.86896108
              12.58245779                0.97001864               36.45855465                1.00000000                0.43105201                0.50619440               -1.58157115                0.01723652                0.43770872               -1.04441841
               2.79947562                4.18074038               37.39667698                1.00000000               -0.20815097               -0.32795584                0.88080467               -0.01503781                0.12144027                1.60438888
               3.79739411                3.95996412               37.26865074                1.00000000               -0.18190479               -0.18859562                0.62329073                0.00209931                0.19381912                0.00753210
               4.79583752                3.73864540               37.14204812                1.00000000               -0.09753565               -0.05616676                0.38148079               -0.08433337                1.14034760               -1.66734455
               5.79544339                3.51545125               37.03291770                0.00010000               -0.24659105               -0.00488013                0.11489630               -0.22283701                5.21637075               -2.62253222
               6.79090570                3.29047559               36.98774829                0.00010000               -0.35229126               -0.05348135               -0.17376292               -0.55571874                8.06835892               -2.64366130
               7.78839757                3.06773011               36.93339084                0.00010000               -0.17599913               -0.10953617               -0.43117418               -0.64849735                7.34158929               -0.42236619
               8.78738572                2.84614149               36.87084934                0.00010000               -0.00446859               -0.15696432               -0.67486336               -0.72594772                6.92263448                1.78314876
               9.78830820                2.62543609               36.80576092                0.00010000                0.18470584               -0.16600845               -0.93875593               -0.46957175                6.56236609                2.34886828
              10.79107983                2.41009035               36.73360787                0.00010000                0.34826111               -0.09631836               -1.23116454               -0.30192922                4.31122616                3.60995611
              11.79527342                2.19202993               36.62085699                1.00000000                0.46278553                0.27973942               -1.51067386               -0.19372611                1.25759247                1.90415847
              12.80033554                1.97541871               36.48788199                1.00000000                0.50621253                0.59985996               -1.74938938               -0.07251387                0.24640950               -0.28925241
               3.01934500                5.17757418               37.35247495                1.00000000               -0.16629974               -0.29634393                0.73681450               -0.02847252                0.19555713                1.33249376
               4.01768201                4.95831510               37.21687199                1.00000000               -0.14453781               -0.13198992                0.47995547               -0.02102265                0.30379998               -0.31761797
               5.01645425                4.73835771               37.08340045                0.00010000               -0.07119752                0.01456076                0.23470222               -0.14386474                1.37303421               -1.80964096
               6.01625806                4.51593449               36.96915925                0.00010000               -0.37206272                0.11779299               -0.00836966               -0.45525804                7.04366098               -2.63777181
               7.00901299                4.29083869               36.94902747                0.00010000               -0.62309114                0.09534670               -0.23431427               -0.74739893               11.37437676               -0.99657143
               8.00379623                4.06731348               36.91937697                0.00010000               -0.40737082                0.01982096               -0.49218226               -0.83911779               10.63320100                0.26290034
               9.00086558                3.84496470               36.88205783                0.00010000               -0.19311581               -0.06272516               -0.76295440               -0.88673326               10.14956793                1.58882440
               9.99993392                3.62416580               36.83996540                0.00010000                0.06144435               -0.12467892               -1.05817599               -0.83399080               10.00773723                2.86617649
              11.00209446                3.40574830               36.79685806                0.00010000                0.45052339               -0.41707619               -1.42767376               -0.41537487                6.05608760                4.44118977
              12.00894439                3.19418690               36.67175291                1.00000000                0.60677456                0.19184365               -1.51790298               -0.02724230                1.09359894                2.47142219
              13.01422996                2.98201584               36.52762000                1.00000000                0.52855701                0.66599118               -1.79611589               -0.08235373                0.17388381                0.37550603
               3.23742434                6.17481350               37.30535879                1.00000000               -0.12342145               -0.24696391                0.58259899               -0.03334727                0.12856475                1.06191792
               4.23619012                5.95732432               37.16088012                0.00010000               -0.10417547               -0.06792531                0.31354821               -0.03531246                0.36397825               -0.64169027
               5.23534083                5.73893661               37.02106723                0.00010000               -0.11664342                0.10075790                0.07037219               -0.17672181                2.14563596               -2.20806405
               6.23385725                5.51780711               36.91220330                0.00010000               -0.53810450                0.15956702               -0.05237097               -0.78877862                9.57584596               -0.65379803
               7.22457874                5.29238252               36.92091284                0.00010000               -0.81840242                0.18588212               -0.27120354               -1.06609534               14.69961652                0.02047006
               8.21748920                5.06812653               36.91227713                0.00010000               -0.58900020                0.12655106               -0.54857795               -1.10514687               13.62620898                0.87085832
               9.21279873                4.84488698               36.89692387                0.00010000               -0.33222127                0.02480119               -0.82529994               -1.15113343               13.27492633                1.92422762
              10.21084478                4.62294251               36.87827954                0.00010000               -0.00237507               -0.11283848               -1.13013385               -1.17779341               13.21605233                3.15421113
              11.21275123                4.40174882               36.85820127                0.00010000                0.38081284               -0.34123071               -1.52712694               -0.50828388                7.73228431                4.46760322
              12.21846104                4.19586680               36.72492214                0.00010000                0.51396835                0.16692917               -1.31142936                0.07475759                1.12846890                2.40195060
              13.22303060                3.98873853               36.57035722                1.00000000                0.45695622                0.63627696               -1.61208928               -0.04684842                0.10728897                0.45294456
               3.45365642                7.17263490               37.25585727                0.00010000               -0.08037721               -0.18469216                0.42303995               -0.02970161                0.05109144                0.88256799
               4.45285265                6.95695659               37.10250677                0.00010000               -0.06096969               -0.01408876                0.15054780               -0.03116863                0.30374389               -0.78408607
               5.45243703                6.74037287               36.95415398                0.00010000               -0.29080384                0.16771991               -0.11003288               -0.26076201                4.67164094               -2.54702238
               6.44703657                6.51912583               36.88813014                0.00010000               -0.75326791                0.13282588                0.10922109               -1.00767280               12.82621112                1.30311498
               7.43737167                6.29455633               36.90257130                0.00010000               -0.89238672                0.25769917               -0.32070957               -1.22829573               16.67022887                0.75732334
               8.42918884                6.06984450               36.91066707                0.00010000               -0.71723736                0.22554266               -0.59938704               -1.34961217               16.32775394                1.27289754
               9.42302692                5.84546072               36.91523461                0.00010000               -0.48363136                0.09655967               -0.85418317               -1.46547149               16.27262067                2.14821766
              10.41951621                5.62190903               36.91878071                0.00010000               -0.20112132               -0.07426772               -1.10992902               -1.60166861               16.47041713                3.26411312
              11.41900450                5.39892369               36.92319339                0.00010000                0.19668078               -0.21698261               -1.38716249               -0.80632103                9.18197251                4.62232098
              12.42344983                5.19752548               36.77545800                0.00010000                0.42725161                0.17368820               -1.16937217                0.08762581                0.85867270                2.09922041
              13.42754953                4.99474138               36.61142339                0.00010000                0.40997014                0.57867371               -1.48876487               -0.01887004                0.07518217                0.25127598
               3.66818693                8.17111966               37.20522606                0.00010000               -0.03581492               -0.11913557                0.26476613               -0.02687172                0.01601938                0.81302764
               4.66782878                7.95704255               37.04352218                0.00010000               -0.01152945                0.02768465               -0.00713704               -0.01576229                0.16132070               -0.80442533
               5.66795634                7.74229101               36.88465032                0.00010000               -0.41542236                0.19527833               -0.28672135               -0.34665724                7.57765607               -2.67198159
               6.65952033                7.52046363               36.87120717                0.00010000               -0.93310919                0.25351082               -0.09978101               -0.93768812               16.51035173                0.95376635
               7.64929416                7.29753651               36.88945689                0.00010000               -0.99638807                0.39063709               -0.41288917               -1.16925839               18.44935845                0.93146693
               8.63959257                7.07263738               36.91188499                0.00010000               -0.89346910                0.38417360               -0.66049135               -1.49298264               18.85988882                1.36433985
               9.63142478                6.84681818               36.93493456                0.00010000               -0.71220642                0.21894140               -0.86125725               -1.79050502               19.17892629                2.15559418
              10.62534844                6.62145716               36.95975967                0.00010000               -0.52082112                0.00004805               -1.01509108               -2.01219500               19.70942790                3.13871356
              11.62100835                6.39740917               36.98876682                0.00010000               -0.04762907               -0.07598111               -1.08531250               -1.10193650               10.46165396                4.32884127
              12.62439586                6.19934057               36.82324537                0.00010000                0.36065311                0.20152718               -1.09401159                0.06442344                0.40826263                1.77753645
              13.62822142                6.00031201               36.64997229                0.00010000                0.38255526                0.54117233               -1.43688332               -0.00265318                0.04693781               -0.03611975
               3.88127321                9.17025219               37.15436606                0.00010000                0.00928404               -0.05634702                0.10851932               -0.02477531                0.00191251                0.81700173
               4.88136605                8.95751028               36.98459866                0.00010000                0.04047961                0.06537514               -0.16216076               -0.00453152                0.00844929               -0.77927367
               5.88208280                8.74427844               36.81486943                0.00010000               -0.41643702                0.19667432               -0.44916745               -0.31554061                9.78988261               -2.46109330
               6.87303731                8.52419605               36.84063513                0.00010000               -1.01350283                0.47197734               -0.40860585               -0.72610276               20.12808194                0.01440816
               7.86181275                8.30236908               36.87496495                0.00010000               -1.14948981                0.59318214               -0.56418147               -0.99461678               20.88712701                0.65442218
               8.85004752                8.07752797               36.91250184                0.00010000               -1.17078530                0.62553452               -0.74339758               -1.44470079               21.44098774                1.12061265
               9.83839704                7.84983955               36.95390940                0.00010000               -1.06830996                0.52493056               -0.89373999               -1.97976732               22.01111756                1.84644138
              10.82868132                7.62190999               36.99833126                0.00010000               -0.96573432                0.17784840               -0.93306378               -2.46650908               22.70662398                3.03962077
              11.81908236                7.39740406               37.04867799                0.00010000               -0.34229298                0.06192964               -0.79389997               -1.37404665               11.67383541                3.47800542
              12.82183546                7.20155603               36.86768579                0.00010000                0.32356142                0.24825508               -1.06321027                0.01562433                0.06711232                1.41147273
              13.82555358                7.00556482               36.68527028                0.00010000                0.37181265                0.50703151               -1.43457629                0.00727553                0.01874647               -0.38479099
               4.09317524               10.16999272               37.10381317                0.00010000                0.05366632                0.00126348               -0.04650884               -0.02366020               -0.01980876                0.72603521
               5.09371190                9.95835005               36.92597066                0.00010000                0.08922594                0.10293152               -0.31253607               -0.00244280                0.04298080               -0.64409182
               6.09495976                9.74622450               36.74927301                0.00010000               -0.34021324                0.20256789               -0.59409561               -0.18426754               11.72272698               -1.61561213
               7.08690764                9.52990317               36.80490553                0.00010000               -0.94449293                0.61073138               -0.62597363               -0.40150239               23.33463312               -0.16885831
               8.07606990                9.30940015               36.85669355                0.00010000               -1.18397792                0.74099150               -0.72815871               -0.62066541               23.42475202                0.29159337
               9.06322808                9.08514807               36.90944414                0.00010000               -1.43112447                0.85706129               -0.85362201               -0.95432791               23.99957918                0.62075614
              10.04744741                8.85731679               36.96814221                0.00010000               -1.73871659                0.94691207               -0.97487443               -1.56654895               25.10078979                1.09078327
              11.02845375                8.62501413               37.03823394                0.00010000               -1.67830163                0.86568705               -1.09112870               -2.22891716               25.38147165                2.32399837
              12.01388138                8.39864776               37.09740743                0.00010000               -0.59530795                0.17776468               -0.66373499               -1.61190186               12.59221012                1.91885268
              13.01654759                8.20430567               36.90817331                0.00010000                0.32339790                0.29809166               -1.07017535               -0.02386858                0.08299603                0.91857012
              14.02034934                8.01045264               36.71669237                0.00010000                0.38017470                0.47914794               -1.47540100                0.01045967               -0.00761381               -0.57018214
               4.30408535               11.17027746               37.05109500                0.00010000                0.10000720                0.02847404               -0.19522884                0.02015587                0.39583184                0.62195564
               5.30508542               10.95956891               36.86959900                0.00010000                0.13794922                0.12188621               -0.46122113                0.03996825                0.80557558               -0.52384166
               6.30684433               10.74832979               36.69616665                0.00010000               -0.16269043                0.21052974               -0.73669265                0.03054551               13.63416131               -0.98205107
               7.30183161               10.53641068               36.77106045                0.00010000               -0.63448946                0.65075064               -0.79468418               -0.06464728               25.88444032               -0.16044078
               8.29415454               10.31718891               36.83572459                0.00010000               -0.93936450                0.77887549               -0.88193161               -0.27860991               25.66658260                0.10076499
               9.28304432               10.09466920               36.90083328                0.00010000               -1.34772684                0.95211279               -0.99230279               -0.43893166               26.26901068                0.30364392
              10.26720001                9.86877779               36.97272745                0.00010000               -2.01361613                1.14610045               -1.10887350               -0.79701398               27.75306246                0.58702885
              11.24277200                9.63922373               37.06300763                0.00010000               -2.98236155                1.42096029               -1.30445352               -1.95909682               27.53755305                1.59274509
              12.20755278                9.40095936               37.12587457                0.00010000               -1.66093938                0.23115944               -0.75649281               -2.21815379               13.95329328                0.92650475
              13.20955321                9.20751786               36.94251212                0.00010000                0.29580325                0.32121922               -1.13058725                0.00998326                1.10202876                0.62904898
              14.21346884                9.01514778               36.74795537                0.00010000                0.39156291                0.46951433               -1.53873074                0.07494226                0.56320814               -0.55670755
               2.23725832                1.25135386               38.54234478                1.00000000               -0.34973497               -0.37794462                1.30367198               -0.05951598               -1.01607121                1.01640113
               3.23376097                1.01885445               38.42582560                1.00000000               -0.30513670               -0.28815199                1.03208745               -0.03596877               -1.34007432                0.14443604
               4.23115558                0.78589749               38.30288531                1.00000000               -0.20978011               -0.20085610                0.74025298               -0.04232022               -1.32277581               -0.20741169
               5.22956536                0.55249610               38.18667885                1.00000000               -0.02391406               -0.13150086                0.45810719               -0.09167933               -0.55098087               -0.91801968
               6.23067730                0.31775554               38.07907510                0.00010000                0.17524917               -0.11869799                0.11424279               -0.06191016               -0.13454922                0.28149572
               7.23307035                0.08276921               37.97136012                0.00010000                0.25344982                0.00369432               -0.14972252               -0.08017229               -0.24872383                0.15922713
               8.23574630               -0.15077459               37.86054562                0.00010000                0.30064613                0.08054536               -0.37533930               -0.05110899               -0.39521562               -0.06253216
               9.23908327               -0.38305683               37.74871501                0.00010000                0.32463649                0.15147901               -0.56449514               -0.06946847               -0.67622380                0.11168785
              10.24223903               -0.61413359               37.63116062                1.00000000                0.31337194                0.23364853               -0.78654273               -0.06585389               -1.05418930                0.63497824
              11.24535071               -0.84463665               37.51120640                1.00000000                0.33700201                0.32249230               -1.03973895               -0.04127693               -1.06278629                0.02024717
              12.24897907               -1.07534335               37.39328222                1.00000000                0.36283584                0.41936832               -1.32079603               -0.01579662               -0.95629585               -0.93196306
               2.46916257                2.24757441               38.49175330                1.00000000               -0.30331080               -0.36786678                1.15709882               -0.01272402               -0.17487523                1.38543845
               3.46612946                2.01597293               38.37508951                1.00000000               -0.26255075               -0.26781310                0.88848977                0.01074779               -0.23678514                0.20726977
               4.46391155                1.78388893               38.25721655                1.00000000               -0.17049566               -0.17427736                0.59779743               -0.00849124               -0.13304515               -0.46843258
               5.46271955                1.55118109               38.14253555                1.00000000                0.05050462               -0.10148277                0.30646316               -0.10702977                1.47412952               -1.27273010
               6.46492165                1.31656856               38.05652571                0.00010000                0.19070724               -0.07532679               -0.01839510               -0.05685714                2.42943556                0.91226168
               7.46653369                1.08280615               37.95817502                0.00010000                0.16132895                0.04458056               -0.27362357               -0.04493006                1.68606769                0.45364737
               8.46814822                0.85003086               37.85566488                0.00010000                0.17671967                0.13224876               -0.48852371               -0.02043447                1.65679895               -0.26306056
               9.47006809                0.61845796               37.75582168                1.00000000                0.21110866                0.20159255               -0.67307747               -0.04443918                1.69431639                0.48929335
              10.47237040                0.38820289               37.65350286                1.00000000                0.27373654                0.26051890               -0.90046531               -0.03848020                0.88219018                0.86211061
              11.47554282                0.15858828               37.53724661                1.00000000                0.35787002                0.33696500               -1.17409009                0.00221199                0.11560552                0.17415498
              12.47952780               -0.07114966               37.41957761                1.00000000                0.39849824                0.44441659               -1.45445501                0.02984832                0.04514412               -1.08861009
               2.70020681                3.24399652               38.44865186                1.00000000               -0.25454065               -0.35165529                1.02258964               -0.00735912                0.04194955                1.75161680
               3.69766140                3.01349818               38.32564157                1.00000000               -0.22146071               -0.22961677                0.75437636                0.01120655                0.22438180                0.20458487
               4.69577759                2.78241195               38.20628492                1.00000000               -0.14581301               -0.11167865                0.48583481               -0.02705244                0.62339732               -1.20585458
               5.69474514                2.55046644               38.09118109                1.00000000                0.10687531               -0.05985050                0.17443373               -0.14089788                4.37663883               -1.91665750
               6.69791510                2.31624901               38.04676706                0.00010000                0.19821535               -0.10222864               -0.21685661               -0.45113857                5.66953377               -1.03753333
               7.69870945                2.08366082               37.95082433                0.00010000                0.08853483               -0.04946412               -0.41288110               -0.46219923                2.76653917                0.00851460
               8.69968580                1.85187038               37.84671186                0.00010000                0.06565037               -0.00824027               -0.60449032               -0.44837320                3.78381660                0.84130126
               9.70002245                1.62097502               37.77047171                0.00010000                0.08266570                0.01645335               -0.78647391               -0.34471554                4.49252963                1.41468543
              10.70133911                1.39107679               37.68034603                1.00000000                0.23625244                0.26583451               -1.02852111               -0.17227024                2.58932414                1.80190285
              11.70474750                1.16210265               37.56630501                1.00000000                0.38563991                0.35175790               -1.30781273               -0.05337747                0.91256788                0.84723637
              12.70905191                0.93354499               37.44271155                1.00000000                0.43044044                0.49807952               -1.57749380                0.01836575                0.43190614               -1.02205788
               2.93001206                4.24054131               38.40550497                1.00000000               -0.20738962               -0.33437772                0.88710965               -0.01547092                0.12373232                1.61708005
               3.92793817                4.01138059               38.27486366                1.00000000               -0.18049090               -0.18720540                0.61965466                0.00112205                0.20317816                0.01633642
               4.92640224                3.78165536               38.14580548                1.00000000               -0.09368177               -0.04797462                0.36822565               -0.09072249                1.14515872               -1.65659213
               5.92606453                3.54998408               38.03395795                0.00010000               -0.18488720                0.00666062                0.08872285               -0.33296910                5.19641923               -2.58649116
               6.92270450                3.31452399               37.98580815                0.00010000               -0.21981000               -0.06444760               -0.21890340               -0.85325759                8.06146483               -2.54303064
               7.92166833                3.08181687               37.92881144                0.00010000               -0.04189725               -0.12575013               -0.48824802               -0.91767924                7.36792310               -0.36211547
               8.92186656                2.84986606               37.86379492                0.00010000                0.11495201               -0.17147652               -0.73653237               -0.96103994                6.94953387                1.79895907
               9.92396737                2.61878703               37.79601659                0.00010000                0.29654039               -0.18996789               -0.99941498               -0.61385262                6.58451286                2.31391918
              10.92779736                2.39351958               37.72148504                0.00010000                0.40198470               -0.12815171               -1.19065606               -0.31136090                4.27957817                3.45534577
              11.93200707                2.16562343               37.60574840                1.00000000                0.46065406                0.27234756               -1.49494003               -0.18074261                1.24181776                1.91799546
              12.93701044                1.93881193               37.47043001                1.00000000                0.50033794                0.58088086               -1.72727118               -0.06775454                0.25380582               -0.23950048
               3.15821882                5.23730897               38.35984956                1.00000000               -0.16490325               -0.30264934                0.74027196               -0.03009231                0.20303603                1.33366115
               4.15656979                5.00975408               38.22164269                1.00000000               -0.14295833               -0.12803286                0.47400640               -0.02443150                0.31679428               -0.32638179
               5.15535965                4.78145245               38.08569135                0.00010000               -0.06763285                0.02574405                0.22105313               -0.15395946                1.39295331               -1.82339055
               6.15521713                4.55059966               37.96896527                0.00010000               -0.31712462                0.12351844               -0.03510663               -0.57417695                7.06940462               -2.57316282
               7.14901716                4.31496005               37.94647932                0.00010000               -0.51016670                0.09881281               -0.27945769               -0.96125019               11.39950606               -0.91086056
               8.14501380                4.08114582               37.91413360                0.00010000               -0.27611627                0.00192957               -0.55964967               -1.05184147               10.63979168                0.32957452
               9.14349484                3.84844085               37.87398612                0.00010000               -0.04609607               -0.08467540               -0.85210442               -1.09405940               10.13885262                1.62786294
              10.14409187                3.61717566               37.82880375                0.00010000                0.23903259               -0.15569921               -1.17122873               -1.00602891                9.93107581                2.86996981
              11.14827549                3.38851375               37.78148808                0.00010000                0.58742157               -0.47838596               -1.61762865               -0.46281202                6.10972706                4.34411566
              12.15584031                3.16754960               37.65615487                1.00000000                0.65221698                0.14835907               -1.55518666               -0.01183387                1.20457708                2.67141388
              13.16131983                2.94516260               37.50953002                1.00000000                0.54795208                0.64843545               -1.78782546               -0.08437370                0.15162366                0.55676356
               3.38452000                6.23448832               38.31117654                1.00000000               -0.12139507               -0.25200939                0.58280054               -0.03473737                0.12631056                1.05434089
               4.38330605                6.00881993               38.16396425                0.00010000               -0.10212624               -0.06133928                0.30283223               -0.04023444                0.37500215               -0.66033250
               5.38247748                5.78217024               38.02169328                0.00010000               -0.11163283                0.11844315                0.05103738               -0.20184024                2.23663494               -2.24062105
               6.38107339                5.55245445               37.91166356                0.00010000               -0.47720686                0.13660402               -0.05800369               -0.92001811                9.67655582               -0.44760825
               7.37293334                5.31650025               37.91798752                0.00010000               -0.69613446                0.18095222               -0.31770461               -1.26946697               14.71606864                0.11314295
               8.36715070                5.08185546               37.90640574                0.00010000               -0.44889102                0.11669668               -0.62917639               -1.28910469               13.61568149                0.94685784
               9.36395552                4.84817255               37.88810628                0.00010000               -0.16884050                0.00897246               -0.94071578               -1.32865757               13.24337002                1.99723775
              10.36377389                4.61567304               37.86612922                0.00010000                0.21058335               -0.13585107               -1.30078642               -1.33441768               13.09862469                3.23231256
              11.36816718                4.38395186               37.84148185                0.00010000                0.56738208               -0.39978171               -1.81397441               -0.57052352                7.92225608                4.61067964
              12.37512154                4.16859061               37.71125022                0.00010000                0.59648927                0.11355520               -1.39490012                0.07466416                1.40778016                2.68498371
              13.38009697                3.95178064               37.55392822                1.00000000                0.49754347                0.63029125               -1.64753733               -0.05040349                0.08787083                0.68631200
               3.60886084                7.23226878               38.26006338                0.00010000               -0.07776678               -0.18782066                0.41965157               -0.03024076                0.04790685                0.87186204
               4.60808318                7.00852729               38.10394647                0.00010000               -0.05862559               -0.00660548                0.13715653               -0.03384912                0.30562286               -0.79732983
               5.60768833                6.78382132               37.95293498                0.00010000               -0.27982060                0.18836204               -0.13579193               -0.32157547                4.93170495               -2.58255356
               6.60248676                6.55333174               37.88928718                0.00010000               -0.67307599                0.10170082                0.11158783               -1.13563959               12.99791405                1.40465684
               7.59422681                6.31857910               37.89909223                0.00010000               -0.74636821                0.24582635               -0.37982460               -1.39447066               16.57926108                0.82716313
               8.58755940                6.08347975               37.90421685                0.00010000               -0.55613571                0.21398461               -0.69508272               -1.50899655               16.32885071                1.35574918
               9.58310410                5.84862030               37.90602608                0.00010000               -0.29675976                0.08146251               -0.99273032               -1.61131981               16.27251542                2.26278413
              10.58162420                5.61445864               37.90670891                0.00010000                0.04216742               -0.09407513               -1.31351509               -1.74337450               16.43238999                3.44992939
              11.58394745                5.38051812               37.90781757                0.00010000                0.39403056               -0.26998477               -1.71519922               -0.86527022                9.45410373                4.99477322
              12.58950482                5.16982071               37.76334656                0.00010000                0.49921324                0.14186085               -1.24637182                0.08592111                1.16578233                2.30967806
              13.59393171                4.95776843               37.59631374                0.00010000                0.44268956                0.57686133               -1.52556180               -0.02560082                0.06919100                0.40205895
               3.83139816                8.23073191               38.20783219                0.00010000               -0.03216347               -0.12046450                0.25770726               -0.02734101                0.01455724                0.80277348
               4.83107653                8.00868782               38.04337432                0.00010000               -0.00783221                0.03523336               -0.02312490               -0.01678095                0.15554687               -0.81300621
               5.83124152                7.78593748               37.88166504                0.00010000               -0.37368542                0.21379913               -0.31216559               -0.42884485                7.79597494               -2.69344918
               6.82360282                7.55448847               37.86993693                0.00010000               -0.81728034                0.24628763               -0.16080262               -1.06810503               16.72306625                0.82648214
               7.81489591                7.32141677               37.88498054                0.00010000               -0.83366256                0.37505771               -0.48859078               -1.31706316               18.45067016                0.95862997
               8.80692957                7.08613515               37.90474851                0.00010000               -0.70728432                0.36464443               -0.77225847               -1.63084490               18.91372683                1.44465589
               9.80075023                6.84980180               37.92559461                0.00010000               -0.49604909                0.19640654               -1.01491223               -1.91120342               19.27270185                2.28774573
              10.79700859                6.61379154               37.94865698                0.00010000               -0.26252552               -0.02947520               -1.22236683               -2.14217853               19.85938535                3.38360084
              11.79549972                6.37855217               37.97670488                0.00010000                0.12905290               -0.10435308               -1.36938080               -1.16786404               10.75842603                4.79428459
              12.79958965                6.17142783               37.81194784                0.00010000                0.40948975                0.19012545               -1.16655722                0.06612459                0.60883035                1.91898878
              13.80368951                5.96331786               37.63537864                0.00010000                0.40998655                0.54309922               -1.48127054               -0.00649241                0.04632987                0.03776464
               4.05240219                9.22985949               38.15539226                0.00010000                0.01397928               -0.05579873                0.09757787               -0.02525146                0.00053411                0.80714521
               5.05254198                9.00923196               37.98288626                0.00010000                0.04543025                0.07317517               -0.18131462               -0.00477757               -0.00100494               -0.78346295
               6.05331079                8.78809730               37.81025509                0.00010000               -0.34483036                0.21204185               -0.47615661               -0.40789651                9.92813734               -2.46389785
               7.04564537                8.55825749               37.83621566                0.00010000               -0.85359645                0.46347234               -0.47384039               -0.88199504               20.33861074               -0.09342329
               8.03623886                8.32608025               37.86889840                0.00010000               -0.95439487                0.56490272               -0.65570482               -1.13937057               21.00773718                0.65245725
               9.02655748                8.09077264               37.90446673                0.00010000               -0.95076128                0.59367761               -0.86974065               -1.56400748               21.57317217                1.18752547
              10.01722364                7.85254843               37.94416259                0.00010000               -0.82636066                0.49382852               -1.06259457               -2.08731860               22.22682185                1.95905076
              11.01003026                7.61386914               37.98813059                0.00010000               -0.71348814                0.14965955               -1.12299429               -2.57428150               23.08677044                3.15383225
              12.00295388                7.37843106               38.04001992                0.00010000               -0.19843254                0.06311612               -0.96875522               -1.44674708               11.98798911                3.85450772
              13.00606161                7.17362322               37.85670623                0.00010000                0.35339613                0.25362080               -1.13718315                0.01708608                0.13144983                1.50902950
              14.01002180                6.96863041               37.67063729                0.00010000                0.39601862                0.51830559               -1.49490342                0.00443777                0.01940909               -0.36309181
               4.27214820               10.22961593               38.10326685                0.00010000                0.05949680                0.00413428               -0.06237098               -0.02421285               -0.01848799                0.71983859
               5.27274317               10.01015133               37.92274346                0.00010000                0.09549292                0.11098208               -0.33478636               -0.00305159                0.03659091               -0.64468107
               6.27405806                9.79017832               37.74320134                0.00010000               -0.23815997                0.21444866               -0.62362459               -0.29638958               11.82782968               -1.60673473
               7.26797997                9.56375791               37.79835018                0.00010000               -0.72323521                0.55627459               -0.68973555               -0.53888713               23.54040305               -0.20738577
               8.25959335                9.33271483               37.84893246                0.00010000               -0.93993639                0.69179255               -0.82913523               -0.72468013               23.60491393                0.28863963
               9.24918124                9.09800870               37.90024482                0.00010000               -1.18430008                0.81598006               -0.99226739               -1.03180926               24.19422112                0.66094788
              10.23590735                8.85967837               37.95748054                0.00010000               -1.47704531                0.91501906               -1.16014926               -1.64299488               25.31970222                1.15610053
              11.21964033                8.61678473               38.02595413                0.00010000               -1.45483273                0.86631649               -1.34935719               -2.30556275               25.96499756                2.27766307
              12.20681070                8.37981449               38.09040235                0.00010000               -0.49541623                0.19650122               -0.75094236               -1.68840761               13.05028932                2.08059980
              13.20973201                8.17650025               37.89714533                0.00010000                0.34765879                0.31384996               -1.14100228               -0.02578153                0.07844035                0.97306905
              14.21376387                7.97368398               37.70158465                0.00010000                0.40318637                0.49863891               -1.55103648                0.00779943               -0.01178730               -0.57802724
               4.49084714               11.22994218               38.04904990                0.00010000                0.10714218                0.03262443               -0.21457547                0.02083634                0.39261410                0.61955595
               5.49191856               11.01145160               37.86486651                0.00010000                0.14646383                0.13002720               -0.48794267                0.03974427                0.79859511               -0.52283194
               6.49377642               10.79238627               37.68865310                0.00010000                0.02062813                0.22079545               -0.77017802               -0.13159511               13.72451828               -0.97008688
               7.49233112               10.56938298               37.76277648                0.00010000               -0.31409725                0.56250685               -0.86639926               -0.18839295               26.08299117               -0.18335561
               8.48749447               10.33991610               37.82638360                0.00010000               -0.66866872                0.72012771               -0.99148325               -0.32442541               25.86297399                0.09753092
               9.47895775               10.10709224               37.89018414                0.00010000               -1.09533799                0.90835354               -1.14263008               -0.47571362               26.47976171                0.32026002
              10.46558771                9.87084881               37.96063078                0.00010000               -1.75874322                1.11704451               -1.30893265               -0.82680256               27.93840564                0.60912776
              11.44378289                9.63119547               38.04812720                0.00010000               -2.80587512                1.44107366               -1.63700376               -2.01013160               28.19377648                1.50081646
              12.40947021                9.38236108               38.11793324                0.00010000               -1.60531941                0.25465887               -0.84344764               -2.29881156               14.55311920                0.96660566
              13.41167650                9.17990022               37.93089914                0.00010000                0.31700608                0.33999681               -1.19647534                0.00655428                1.14851418                0.65956089
              14.41581033                8.97860319               37.73218746                0.00010000                0.41338337                0.49192154               -1.62010169                0.07494326                0.58841422               -0.57067529
               2.34486726                1.31290600               39.55546767                1.00000000               -0.35349770               -0.38452262                1.32554816               -0.06190930               -1.03809543                1.03017455
               3.34133228                1.07178980               39.43617125                1.00000000               -0.30615160               -0.29018933                1.03903255               -0.03741824               -1.37489546                0.15238425
               4.33874423                0.83020237               39.31023625                1.00000000               -0.20592864               -0.19854651                0.72957224               -0.04357004               -1.36375372               -0.20732770
               5.33721371                0.58812699               39.19113558                1.00000000               -0.02315332               -0.12487989                0.43039799               -0.13368708               -0.62126997               -0.93537558
               6.33828116                0.34375914               39.07992432                0.00010000                0.19880038               -0.12650392                0.04758057               -0.05531161               -0.19289626                0.27513886
               7.34118972                0.09813213               38.96949857                0.00010000                0.31252703                0.00780199               -0.23335774               -0.08449719               -0.22846485                0.14862844
               8.34453170               -0.14597274               38.85646434                0.00010000                0.36573834                0.08474308               -0.45144601               -0.05216928               -0.31236416               -0.07109517
               9.34850448               -0.38848316               38.74286752                0.00010000                0.37216140                0.15199776               -0.61078997               -0.07305730               -0.57093755                0.11299801
              10.35197493               -0.62948775               38.62319245                1.00000000                0.33483981                0.23584374               -0.81104708               -0.06817929               -0.97808591                0.64417939
              11.35520128               -0.86974209               38.50073691                1.00000000                0.34591847                0.32563402               -1.05740087               -0.04128574               -1.01782313                0.02896208
              12.35889330               -1.11011626               38.38001483                1.00000000                0.36920190                0.42095459               -1.33549520               -0.01827181               -0.92407005               -0.89882611
               2.58536436                2.30906077               39.50339159                1.00000000               -0.30544538               -0.37460205                1.17472130               -0.01300962               -0.18599537                1.40294506
               3.58230991                2.06888790               39.38398157                1.00000000               -0.26122174               -0.26926237                0.89132306                0.01117324               -0.26132225                0.21910255
               4.58013993                1.82821691               39.26312812                1.00000000               -0.16057287               -0.17136744                0.58295335               -0.00987341               -0.16869358               -0.45256496
               5.57909845                1.58687819               39.14547206                1.00000000                0.12927715               -0.09252174                0.27685924               -0.16704413                1.42133057               -1.27889286
               6.58272547                1.34249410               39.05609817                0.00010000                0.30561148               -0.09419631               -0.07394311               -0.03977683                2.40115812                0.87243082
               7.58521068                1.09821015               38.95515214                0.00010000                0.22960894                0.04529723               -0.33993562               -0.04955354                1.73013306                0.43645213
               8.58731765                0.85487469               38.85054840                0.00010000                0.21603652                0.13863546               -0.54344291               -0.02927806                1.75259848               -0.27228701
               9.58953141                0.61303682               38.74900427                1.00000000                0.23024737                0.20339626               -0.69424806               -0.05089223                1.78627837                0.48888813
              10.59192260                0.37287069               38.64446673                1.00000000                0.27856320                0.26091479               -0.90508109               -0.04087093                0.92349024                0.86428081
              11.59510268                0.13351425               38.52549010                1.00000000                0.35810763                0.33885717               -1.17513060                0.00272110                0.12753914                0.18321656
              12.59908475               -0.10590671               38.40502603                1.00000000                0.39820743                0.44206678               -1.45313227                0.02737931                0.05231203               -1.04915219
               2.82495280                3.30541396               39.45893244                1.00000000               -0.25531902               -0.35882457                1.03720143               -0.00751482                0.03738604                1.77307476
               3.82239961                3.06640455               39.33317855                1.00000000               -0.21981637               -0.22990831                0.75371206                0.01041580                0.21787398                0.22056736
               4.82055647                2.82677502               39.21107065                1.00000000               -0.14019886               -0.10548914                0.46867869               -0.03107574                0.59658816               -1.17627681
               5.81959563                2.58627655               39.09279815                1.00000000                0.27985956               -0.04704699                0.14319711               -0.23145757                4.28778581               -1.88938729
               6.82615366                2.34187521               39.04432261                0.00010000                0.41112108               -0.12956935               -0.27834463               -0.63412224                5.64421385               -1.01417537
               7.82781805                2.09903807               38.94643266                0.00010000                0.14829035               -0.05158092               -0.47403722               -0.62583358                2.86192627                0.01402788
               8.82911947                1.85679997               38.84048268                0.00010000                0.08362930               -0.00141428               -0.65279305               -0.57998579                3.89746218                0.81914301
               9.82949064                1.61558477               38.76263217                0.00010000                0.07803024                0.01728077               -0.78845931               -0.41462477                4.56448138                1.34463048
              10.83068007                1.37573055               38.67009489                1.00000000                0.22712326                0.25922596               -1.01495899               -0.17663623                2.59945798                1.78319068
              11.83403310                1.13703506               38.55326932                1.00000000                0.38013711                0.35128619               -1.29179031               -0.04716759                0.90532453                0.82860178
              12.83828282                0.89872508               38.42700478                1.00000000                0.42497123                0.48584741               -1.55606580                0.01718578                0.42590368               -0.99103372
               3.06323288                4.30188428               39.41441918                1.00000000               -0.20757214               -0.34190613                0.89872887               -0.01612017                0.12558754                1.63089026
               4.06115716                4.06428974               39.28104383                1.00000000               -0.17932347               -0.18588395                0.61658230               -0.00003300                0.21207337                0.02619985
               5.05964641                3.82610712               39.14941264                1.00000000               -0.08940236               -0.03864591                0.35082844               -0.09591125                1.14804289               -1.64355388
               6.05936911                3.58593725               39.03469216                0.00010000               -0.11824517                0.02445366                0.05221071               -0.44709309                5.17310196               -2.55274016
               7.05728151                3.33990271               38.98337023                0.00010000               -0.07999285               -0.07165513               -0.27458600               -1.15387984                8.05060907               -2.44022905
               8.05776925                3.09717853               38.92362588                0.00010000                0.09448682               -0.13637055               -0.55470983               -1.18945485                7.39268516               -0.31502227
               9.05917124                2.85484641               38.85611869                0.00010000                0.22695423               -0.17946838               -0.80114441               -1.19715450                6.97982926                1.78397555
              10.06230834                2.61338243               38.78577262                0.00010000                0.38841700               -0.20661036               -1.04648679               -0.76141794                6.65166820                2.21234928
              11.06693958                2.37805521               38.70979475                0.00010000                0.44282297               -0.15483710               -1.14424463               -0.32923224                4.29279402                3.22159533
              12.07116480                2.14053998               38.59095818                1.00000000                0.45544220                0.25391516               -1.45380465               -0.16420453                1.20957910                1.91895450
              13.07604843                1.90381023               38.45333656                1.00000000                0.48836292                0.54639128               -1.68219375               -0.06150874                0.25600747               -0.18380838
               3.29981948                5.29857583               39.36728039                1.00000000               -0.16433754               -0.30988863                0.74838888               -0.03178383                0.21080970                1.33506555
               4.29817610                5.06268687               39.22635212                1.00000000               -0.14143723               -0.12379250                0.46785669               -0.02787289                0.33076690               -0.33542421
               5.29699073                4.82600211               39.08782151                0.00010000               -0.06589617                0.03867187                0.20263816               -0.15967174                1.41182153               -1.83675043
               6.29685818                4.58676563               38.96845712                0.00010000               -0.25779748                0.12978890               -0.07173781               -0.69174877                7.09276770               -2.49728356
               7.29183478                4.34044211               38.94343832                0.00010000               -0.38864584                0.10648796               -0.33360955               -1.17892723               11.41616466               -0.82099467
               8.28908526                4.09631066               38.90818397                0.00010000               -0.14311540               -0.00990522               -0.63378607               -1.26583446               10.63398272                0.38810093
               9.28897248                3.85321060               38.86501574                0.00010000                0.09841069               -0.10273135               -0.94154591               -1.30433467               10.11051774                1.64251436
              10.29105348                3.61145256               38.81654083                0.00010000                0.39827048               -0.18494178               -1.27199913               -1.17217138                9.80673475                2.81677265
              11.29693789                3.37263381               38.76450548                0.00010000                0.69702557               -0.52111403               -1.74709286               -0.51017139                6.18240183                4.08056621
              12.30499399                3.14211336               38.64064917                0.00010000                0.67871198                0.09174040               -1.52087178                0.00122803                1.38451506                2.81217570
              13.31051213                2.90965290               38.49186349                1.00000000                0.55181373                0.59354098               -1.72890942               -0.07686674                0.14010149                0.71686009
               3.53437513                6.29568651               39.31701480                1.00000000               -0.12016998               -0.25796680                0.58711163               -0.03581728                0.12303905                1.04634078
               4.53317343                6.06181389               39.16693677                0.00010000               -0.10004543               -0.05434729                0.29125396               -0.04442730                0.38522554               -0.67873631
               5.53237422                5.82688056               39.02208797                0.00010000               -0.10396492                0.13739687                0.02364372               -0.22705887                2.33955969               -2.27132550
               6.53109413                5.58853303               38.91104322                0.00010000               -0.41081466                0.10899871               -0.06736287               -1.04343326                9.76934876               -0.22440050
               7.52415793                5.34203247               38.91455875                0.00010000               -0.57050284                0.18322335               -0.37296893               -1.46800831               14.70431919                0.20410959
               8.51968407                5.09698043               38.89969360                0.00010000               -0.31076360                0.11530260               -0.71579183               -1.47469784               13.58081425                1.01485261
               9.51794265                4.85279178               38.87810956                0.00010000               -0.01211831                0.00087362               -1.05769923               -1.51420687               13.17331670                2.05029125
              10.51944171                4.60968360               38.85226381                0.00010000                0.40663502               -0.15363503               -1.46418947               -1.49199005               12.89485046                3.26730863
              11.52607536                4.36763293               38.82192179                0.00010000                0.73642785               -0.45188453               -2.06619907               -0.63988883                8.14082200                4.66434236
              12.53417026                4.14237478               38.69702414                0.00010000                0.66783268                0.04540293               -1.41913727                0.06617187                1.77989858                2.92018126
              13.53943201                3.91568105               38.53740647                0.00010000                0.52617441                0.58396153               -1.63399599               -0.04502970                0.06872168                0.88533328
               3.76684837                7.29341650               39.26425030                0.00010000               -0.07548691               -0.19201306                0.41937616               -0.03072302                0.04473464                0.86057693
               4.76609350                7.06159992               39.10524990                0.00010000               -0.05589772                0.00143715                0.12318760               -0.03665055                0.30622461               -0.80930267
               5.76573042                6.82875004               38.95143814                0.00010000               -0.26279492                0.21106773               -0.16426184               -0.38576560                5.20615450               -2.61447011
               6.76083760                6.58894560               38.89036190                0.00010000               -0.58515985                0.07658809                0.09291165               -1.25357186               13.16547983                1.48278953
               7.75402722                6.34410658               38.89497481                0.00010000               -0.60028019                0.24352304               -0.44748093               -1.54954161               16.45327319                0.88744621
               8.74883200                6.09861671               38.89676542                0.00010000               -0.40210261                0.21500958               -0.79794624               -1.66547701               16.29884928                1.42960385
               9.74598517                5.85322808               38.89538000                0.00010000               -0.12297365                0.08224018               -1.13742857               -1.76045830               16.22003696                2.36262719
              10.74637253                5.60837986               38.89251041                0.00010000                0.27318778               -0.09880482               -1.52630085               -1.88238924               16.28306870                3.61601187
              11.75144892                5.36359612               38.88888940                0.00010000                0.59483872               -0.32702087               -2.07454179               -0.92738949                9.76639663                5.36275627
              12.75826930                5.14302142               38.75053056                0.00010000                0.57750349                0.09929445               -1.30143654                0.07322287                1.59336845                2.50760794
              13.76299899                4.92133213               38.58091216                0.00010000                0.47296918                0.55313466               -1.54438440               -0.02620820                0.05871685                0.52716709
               3.99739381                8.29184625               39.21038021                0.00010000               -0.02869407               -0.12280296                0.25319974               -0.02798544                0.01323369                0.79186295
               4.99710687                8.06184263               39.04305969                0.00010000               -0.00402905                0.04359780               -0.04066815               -0.01773532                0.14997488               -0.82053247
               5.99731323                7.83110192               38.87840700                0.00010000               -0.32203572                0.23570650               -0.34225964               -0.50960507                7.99970242               -2.70967722
               6.99066616                7.59006479               38.86799112                0.00010000               -0.69086256                0.24843654               -0.23834418               -1.19351857               16.92815215                0.67851871
               7.98349598                7.34690293               38.87968508                0.00010000               -0.67065607                0.36798579               -0.57288572               -1.45474851               18.43830050                0.97612376
               8.97725304                7.10128062               38.89643982                0.00010000               -0.52628175                0.35827289               -0.89273620               -1.75257885               18.93359164                1.51695437
               9.97297035                6.85443658               38.91463631                0.00010000               -0.29135774                0.19532793               -1.18124882               -2.01443311               19.31165275                2.41255351
              10.97142588                6.60770750               38.93531233                0.00010000               -0.00421702               -0.03451917               -1.45871117               -2.25785990               19.91087088                3.64158515
              11.97288601                6.36109251               38.96137920                0.00010000                0.32364124               -0.13996830               -1.74203953               -1.22646281               11.09763224                5.35519676
              12.97789871                6.14436067               38.79991423                0.00010000                0.47002057                0.17588548               -1.23768182                0.06145069                0.91990735                2.05564177
              13.98228642                5.92674375               38.62034688                0.00010000                0.43877102                0.53824212               -1.52552092               -0.00766008                0.04392790                0.08017055
               4.22629589                9.29096044               39.15631761                0.00010000                0.01872325               -0.05571935                0.08842450               -0.02593388               -0.00074009                0.79611675
               5.22648312                9.06247188               38.98097236                0.00010000                0.05101321                0.08167767               -0.20264243               -0.00469551               -0.01005474               -0.78678278
               6.22731616                8.83346417               38.80534630                0.00010000               -0.26584548                0.22949398               -0.50890083               -0.49805732               10.05479225               -2.46308450
               7.22116622                8.59391433               38.83115832                0.00010000               -0.67998676                0.45649242               -0.53963104               -1.03397280               20.52907540               -0.19532808
               8.21371642                8.35146629               38.86185085                0.00010000               -0.74597209                0.53924066               -0.75743014               -1.26772968               21.10341006                0.64700598
               9.20624677                8.10578217               38.89510702                0.00010000               -0.72233997                0.56844974               -1.00610909               -1.65101353               21.67007679                1.25024847
              10.19926962                7.85713463               38.93265751                0.00010000               -0.58436866                0.47670128               -1.24236538               -2.14654521               22.40088685                2.07067223
              11.19455940                7.60768947               38.97587137                0.00010000               -0.45015636                0.14316353               -1.34628055               -2.64659346               23.43559528                3.27824998
              12.19026649                7.36079675               39.02930288                0.00010000               -0.03561604                0.06269606               -1.21955502               -1.51701931               12.34615628                4.36433972
              13.19384708                7.14653913               38.84494213                0.00010000                0.39065748                0.26067348               -1.22011525                0.01678042                0.25236527                1.60675073
              14.19807964                6.93209697               38.65537221                0.00010000                0.42325647                0.52990876               -1.56405507                0.00321156                0.02113499               -0.37430085
               4.45385225               10.29073186               39.10256575                0.00010000                0.06569777                0.00710212               -0.07711368               -0.02514187               -0.01653626                0.71233789
               5.45450923               10.06347618               38.91927493                0.00010000                0.10286927                0.11971500               -0.36039629               -0.00345337                0.03052707               -0.64509797
               6.45590963                9.83569180               38.73680052                0.00010000               -0.12623232                0.22801859               -0.65981474               -0.40864866               11.91988946               -1.59568066
               7.45198458                9.59919464               38.79111082                0.00010000               -0.48180443                0.49883216               -0.76202059               -0.67046655               23.71788197               -0.24460030
               8.44627355                9.35768775               38.84011084                0.00010000               -0.67100773                0.63854774               -0.93905024               -0.81275445               23.75346441                0.28601741
               9.43856443                9.11264961               38.88959879                0.00010000               -0.90707032                0.77067852               -1.14146932               -1.07857677               24.35094575                0.70077643
              10.42813214                8.86397061               38.94493923                0.00010000               -1.18662650                0.87626175               -1.34864045               -1.66617009               25.48806606                1.22501566
              11.41483190                8.61057077               39.01124679                0.00010000               -1.22180869                0.86022233               -1.56313261               -2.34192548               26.58273162                2.20512807
              12.40369597                8.36234643               39.08238858                0.00010000               -0.39489025                0.22164639               -0.87482865               -1.77099497               13.59110093                2.31843257
              13.40693409                8.14957414               38.88535327                0.00010000                0.37694940                0.33311727               -1.22558387               -0.02911574                0.08630946                1.03530459
              14.41123495                7.93734192               38.68567165                0.00010000                0.43008630                0.52158418               -1.64016816                0.00581951               -0.01620785               -0.61030753
               4.68030440               11.29110248               39.04680350                0.00010000                0.11497158                0.03706220               -0.23460861                0.02158554                0.38847572                0.61597266
               5.68145412               11.06486618               38.85984015                0.00010000                0.15601628                0.13899970               -0.51879503                0.04059250                0.79076248               -0.52242920
               6.68342473               10.83802454               38.68076309                0.00010000                0.21534067                0.23327485               -0.81163321               -0.29725080               13.79923576               -0.95658275
               7.68576093               10.60389097               38.75373246                0.00010000                0.02908141                0.46963369               -0.94612466               -0.31172952               26.25015149               -0.20649671
               8.68400636               10.36423725               38.81589493                0.00010000               -0.36842784                0.65495017               -1.11000622               -0.36148041               26.02420694                0.09433355
               9.67839238               10.12119574               38.87798068                0.00010000               -0.79906484                0.85461305               -1.30215529               -0.49607392               26.65044876                0.33736783
              10.66802506                9.87465987               38.94654880                0.00010000               -1.45236548                1.06892602               -1.50536943               -0.82579896               28.05661808                0.63561647
              11.64934507                9.62489392               39.03026756                0.00010000               -2.60909182                1.43231490               -1.86922696               -2.02019243               28.90065267                1.35956833
              12.61584322                9.36522968               39.10900562                0.00010000               -1.55378956                0.28832454               -0.96176786               -2.36989652               15.28653866                1.03760488
              13.61826928                9.15320147               38.91858261                0.00010000                0.34086259                0.36273300               -1.27548355               -0.00153252                1.21989730                0.70217686
              14.62266048                8.94252866               38.71555333                0.00010000                0.43912006                0.51867359               -1.71663717                0.07527076                0.61833292               -0.60094631
               2.45508925                1.37610952               40.56885574                1.00000000               -0.35947678               -0.39409797                1.35791043               -0.06545943               -1.06354206                1.04560659
               3.45149448                1.12628149               40.44660625                1.00000000               -0.30865386               -0.29338148                1.05044999               -0.03991732               -1.41485503                0.16084705
               4.44891617                0.87596719               40.31747676                1.00000000               -0.20212953               -0.19639566                0.71783057               -0.04519150               -1.41171657               -0.20753630
               5.44745189                0.62511563               40.19528681                1.00000000               -0.02298917               -0.11749590                0.39461461               -0.18040772               -0.71289928               -0.95296466
               6.44845639                0.37091061               40.08002672                0.00010000                0.22545647               -0.12917172               -0.03519108               -0.05321510               -0.28270928                0.26770089
               7.45196102                0.11443464               39.96669296                0.00010000                0.38368357                0.01664647               -0.33902251               -0.09125043               -0.21660086                0.13317662
               8.45613006               -0.14036461               39.85151670                0.00010000                0.44876969                0.09313943               -0.55034588               -0.05345080               -0.21041819               -0.08689373
               9.46093642               -0.39307037               39.73649921                0.00010000                0.43389262                0.15414403               -0.67046578               -0.07780705               -0.43471634                0.10997381
              10.46480792               -0.64379857               39.61493968                1.00000000                0.36177229                0.23846362               -0.84292431               -0.07002474               -0.88237831                0.65192600
              11.46817186               -0.89356378               39.49005838                1.00000000                0.35669586                0.32839776               -1.08012454               -0.04094225               -0.96421908                0.03739974
              12.47194183               -1.14334227               39.36657232                1.00000000                0.37699695                0.42196195               -1.35418018               -0.02181531               -0.88639813               -0.86223929
               2.70426269                2.37216854               40.51524772                1.00000000               -0.30962117               -0.38395479                1.20181097               -0.01343400               -0.19926992                1.42195393
               3.70116648                2.12334768               40.39291597                1.00000000               -0.26077501               -0.27171105                0.89760890                0.01104382               -0.28994086                0.23114031
               4.69904719                1.87400323               40.26887562                1.00000000               -0.14951857               -0.16826452                0.56532950               -0.01167090               -0.20831286               -0.43562249
               5.69817611                1.62394067               40.14807274                1.00000000                0.21087725               -0.08285122                0.24153910               -0.22936685                1.35964403               -1.28188413
               6.70326474                1.36961889               40.05504685                0.00010000                0.42550093               -0.11085796               -0.14453911               -0.03155451                2.36214917                0.82547088
               7.70668613                1.11460111               39.95137630                0.00010000                0.30416623                0.05164929               -0.42706418               -0.06126132                1.77817402                0.41004676
               8.70934806                0.86056679               39.84479603                0.00010000                0.25945998                0.15237786               -0.61983055               -0.04122878                1.87592971               -0.29604873
               9.71187533                0.60847107               39.74193672                1.00000000                0.25031565                0.20848258               -0.72625006               -0.06086289                1.90914322                0.48019440
              10.71435437                0.35858607               39.63540124                1.00000000                0.28294840                0.26055719               -0.90644809               -0.04338338                0.97699025                0.86399259
              11.71753429                0.10972020               39.51374400                1.00000000                0.35738999                0.33851915               -1.17177231                0.00317580                0.14151548                0.19191901
              12.72150217               -0.13912265               39.39051497                1.00000000                0.39678791                0.43780268               -1.44606530                0.02357665                0.06066431               -1.00495890
               2.95246231                3.36843043               40.46939589                1.00000000               -0.25816347               -0.36786904                1.06005687               -0.00772541                0.03093326                1.79583263
               3.94988067                3.12084727               40.34071581                1.00000000               -0.21862730               -0.23083258                0.75548181                0.00955820                0.20792983                0.23719508
               4.94808976                2.87260190               40.21565850                1.00000000               -0.13158870               -0.09849072                0.44418481               -0.03605373                0.56573932               -1.14315715
               5.94724890                2.62345861               40.09404503                1.00000000                0.45375526               -0.03351816                0.09701000               -0.32577889                4.18830042               -1.85761798
               6.95716487                2.36869345               40.04120016                0.00010000                0.62695002               -0.15075967               -0.35604919               -0.82363809                5.61009627               -0.99970459
               7.95978790                2.11546763               39.94134359                0.00010000                0.21353272               -0.04180014               -0.55921787               -0.79615293                2.96839671                0.00433204
               8.96143552                1.86268295               39.83365600                0.00010000                0.09559878                0.02228612               -0.73139434               -0.71999995                4.04955344                0.77293053
               9.96169988                1.61109928               39.75470252                0.00010000                0.06277994                0.03271451               -0.80773405               -0.49105086                4.67959368                1.24108758
              10.96269112                1.36141258               39.66004685                1.00000000                0.21221134                0.24774115               -0.98812097               -0.18896858                2.62004930                1.76448920
              11.96594410                1.11320660               39.54046920                1.00000000                0.37039741                0.34512366               -1.26196210               -0.04381289                0.89652886                0.81278689
              12.97009907                0.86541378               39.41159024                1.00000000                0.41549665                0.46998488               -1.52012385                0.01430074                0.42002145               -0.95307583
               3.19927450                4.36481116               40.42347955                1.00000000               -0.20883256               -0.35078890                0.91715350               -0.01655112                0.12664240                1.64526651
               4.19718617                4.11873102               40.28719531                1.00000000               -0.17798595               -0.18473067                0.61397311               -0.00072095                0.21997995                0.03716487
               5.19571478                3.87203342               40.15282205                1.00000000               -0.08085963               -0.02798949                0.32890245               -0.10296978                1.14762533               -1.62695410
               6.19556898                3.62327031               40.03500216                0.00010000               -0.04659136                0.04221556                0.00449775               -0.56114705                5.14599468               -2.51548669
               7.19478295                3.36660370               39.98031643                0.00010000                0.06022923               -0.06709033               -0.34411245               -1.45282385                8.04015866               -2.33373080
               8.19677357                3.11376510               39.91771724                0.00010000                0.22667261               -0.13137548               -0.63625363               -1.46315278                7.42501266               -0.27660560
               9.19931641                2.86101251               39.84777204                0.00010000                0.32755573               -0.16913363               -0.87520515               -1.43634621                7.02922398                1.74689348
              10.20332468                2.60912536               39.77508685                0.00010000                0.45756374               -0.20396758               -1.09119389               -0.92173334                6.77753228                2.05849688
              11.20846768                2.36354089               39.69860015                0.00010000                0.46660762               -0.17072691               -1.08771968               -0.36893172                4.34678907                2.90615776
              12.21265683                2.11662267               39.57667230                1.00000000                0.44530767                0.22602806               -1.39533093               -0.15176777                1.17108657                1.91813889
              13.21737383                1.87027704               39.43678614                1.00000000                0.47170009                0.50080605               -1.61890900               -0.05485546                0.25382171               -0.12247563
               3.44429156                5.36141465               40.37481734                1.00000000               -0.16475631               -0.31829692                0.76184531               -0.03308161                0.21879375                1.33679432
               4.44264400                5.11715266               40.23099982                1.00000000               -0.14002403               -0.11918013                0.46168577               -0.03106627                0.34596741               -0.34501373
               5.44149108                4.87204211               40.08974412                0.00010000               -0.05941602                0.05468441                0.17772038               -0.17011529                1.43058974               -1.85329086
               6.44145568                4.62430292               39.96753051                0.00010000               -0.19387438                0.13956744               -0.11940212               -0.81349259                7.11977798               -2.40571372
               7.43761360                4.36735164               39.93980713                0.00010000               -0.26698243                0.12211238               -0.39784486               -1.39382045               11.43211906               -0.72481003
               8.43611603                4.11284012               39.90145787                0.00010000               -0.01326284               -0.00970188               -0.71639427               -1.48043758               10.62689323                0.44223740
               9.43734834                3.85930028               39.85515521                0.00010000                0.23103963               -0.10991988               -1.03061669               -1.51424730               10.08407007                1.63583496
              10.44073682                3.60701993               39.80336377                0.00010000                0.52334186               -0.20378646               -1.35197105               -1.33841216                9.67621486                2.70868347
              11.44781518                3.35799804               39.74654622                0.00010000                0.77178857               -0.53430499               -1.82016994               -0.57685753                6.31532374                3.66822035
              12.45617260                3.11772716               39.62573743                0.00010000                0.69390189                0.02450899               -1.44839780                0.00049274                1.63370015                2.91268169
              13.46169321                2.87542990               39.47495183                1.00000000                0.55206185                0.50807978               -1.64293872               -0.06308092                0.13427324                0.85559062
               3.68713685                6.35844523               40.32291878                1.00000000               -0.11994636               -0.26498666                0.59573056               -0.03654171                0.11838185                1.03786939
               4.68593739                6.11634742               40.16978933                0.00010000               -0.09873201               -0.04671688                0.27949402               -0.04711463                0.39374904               -0.69705154
               5.68516221                5.87312711               40.02216615                0.00010000               -0.09738968                0.15853887               -0.00912904               -0.25387121                2.46128433               -2.30473222
               6.68398960                5.62606166               39.91031630                0.00010000               -0.33964349                0.08683590               -0.08125426               -1.16385768                9.86355623                0.00871862
               7.67836934                5.36904594               39.91052814                0.00010000               -0.43867096                0.19250246               -0.43862623               -1.66077163               14.67041732                0.29701706
               8.67521618                5.11357107               39.89208990                0.00010000               -0.17588494                0.12427463               -0.80714589               -1.66083326               13.53487184                1.07673590
               9.67485165                4.85881411               39.86695229                0.00010000                0.13212482                0.00229068               -1.17037268               -1.70549625               13.08470706                2.08297073
              10.67785867                4.60504963               39.83684543                0.00010000                0.56858250               -0.16447875               -1.60379937               -1.64599825               12.64653807                3.24916770
              11.68622330                4.35285479               39.80015786                0.00010000                0.86880753               -0.48411075               -2.23708247               -0.72483648                8.42645345                4.58659236
              12.69523482                4.11711285               39.68286747                0.00010000                0.72417227               -0.03221943               -1.39031473                0.03803397                2.25180292                3.09204390
              13.70070674                3.88043864               39.52124830                0.00010000                0.54719161                0.49707288               -1.58289841               -0.03493899                0.05469111                1.03611490
               3.92775634                7.35611492               40.26845090                0.00010000               -0.07365084               -0.19716863                0.42259987               -0.03130861                0.04202195                0.84842817
               4.92701983                7.11621832               40.10641022                0.00010000               -0.05284559                0.01036448                0.10799843               -0.03950970                0.30752531               -0.81962663
               5.92669942                6.87521289               39.94964975                0.00010000               -0.23800693                0.23543353               -0.19700582               -0.45183795                5.48816547               -2.64020644
               6.92225969                6.62603964               39.89114541                0.00010000               -0.49053347                0.06003803                0.05526623               -1.35565015               13.32348038                1.53072496
               7.91688875                6.37120169               39.89014261                0.00010000               -0.45642451                0.25086331               -0.52479459               -1.69350741               16.30639218                0.94282263
               8.91313120                6.11532561               39.88825793                0.00010000               -0.25644539                0.22807846               -0.90405193               -1.82108039               16.24936511                1.49381997
               9.91175985                5.85934609               39.88327751                0.00010000                0.03224890                0.09806241               -1.27963220               -1.91680665               16.13029908                2.44163883
              10.91377618                5.60373036               39.87618290                0.00010000                0.47476904               -0.08936737               -1.72877174               -2.02029132               16.03710752                3.74176795
              11.92125523                5.34831582               39.86632673                0.00010000                0.77866256               -0.38060843               -2.40750056               -1.00102040               10.15174249                5.64416588
              12.92934943                5.11708278               39.73731783                0.00010000                0.65438147                0.05081238               -1.32535040                0.04204140                2.16701052                2.66151900
              13.93434286                4.88537136               39.56542605                0.00010000                0.49934288                0.50112909               -1.54519908               -0.02134051                0.04803025                0.60425963
               4.16630388                8.35450185               40.21289618                0.00010000               -0.02546494               -0.12593196                0.25140594               -0.02863666                0.01197612                0.78046149
               5.16604923                8.11655471               40.04256096                0.00010000                0.00001306                0.05313681               -0.06024459               -0.01868538                0.14477876               -0.82691372
               6.16630414                7.87783578               39.87481984                0.00010000               -0.25807193                0.26146071               -0.37859424               -0.58855187                8.18440327               -2.72193416
               7.16088779                7.62726242               39.86517005                0.00010000               -0.55454587                0.25957956               -0.32543048               -1.31549611               17.11319786                0.51910297
               8.15521322                7.37406321               39.87352282                0.00010000               -0.51188102                0.36964585               -0.66310482               -1.58300876               18.42104526                0.98309083
               9.15065017                7.11813263               39.88689378                0.00010000               -0.35512277                0.36465102               -1.01674112               -1.86333472               18.92539578                1.57715380
              10.14811077                6.86077536               39.90196963                0.00010000               -0.10835280                0.21564362               -1.35139379               -2.10765836               19.29851884                2.52124342
              11.14848311                6.60326228               39.91948275                0.00010000                0.23698503               -0.01153394               -1.71011591               -2.36060578               19.83842198                3.88813086
              12.15285047                6.34524262               39.94186409                0.00010000                0.52685021               -0.18036771               -2.19600700               -1.27910862               11.50450863                5.97118599
              13.15902012                6.11812910               39.78719421                0.00010000                0.54261486                0.16182070               -1.30166645                0.04543781                1.39348565                2.16717207
              14.16370276                5.89046122               39.60486822                0.00010000                0.46826466                0.52241356               -1.57291421               -0.00471371                0.04092809                0.07800556
               4.40307788                9.35359628               40.15716075                0.00010000                0.02343115               -0.05625231                0.08107426               -0.02676039               -0.00170407                0.78397551
               5.40331220                9.11728106               39.97883342                0.00010000                0.05713980                0.09134372               -0.22622564               -0.00422299               -0.01844015               -0.78883449
               6.40422068                8.88044210               39.80007708                0.00010000               -0.17949312                0.25060708               -0.54860147               -0.58670021               10.17344789               -2.45825608
               7.39972233                8.63123123               39.82542304                0.00010000               -0.49311590                0.45146730               -0.61174881               -1.18540021               20.70153859               -0.28543292
               8.39435836                8.37859461               39.85374980                0.00010000               -0.52849895                0.51639452               -0.86403947               -1.38255764               21.17571316                0.63325445
               9.38915235                8.12261863               39.88434455                0.00010000               -0.49406668                0.55089700               -1.14684687               -1.71070198               21.73409895                1.30151937
              10.38447703                7.86365896               39.91931528                0.00010000               -0.35277794                0.47560163               -1.42669263               -2.16045236               22.52235036                2.17352872
              11.38209680                7.60349968               39.96120498                0.00010000               -0.18353937                0.16144113               -1.60307479               -2.67939984               23.71550007                3.43873777
              12.38080624                7.34470847               40.01562882                0.00010000                0.14713956                0.06188906               -1.57991221               -1.57523552               12.76140967                5.03239059
              13.38503959                7.12031919               39.83230393                0.00010000                0.43890477                0.27183786               -1.31180330                0.01330907                0.47193284                1.69447107
              14.38958434                6.89581963               39.63935619                0.00010000                0.45447497                0.54177402               -1.64921506                0.00505396                0.02471482               -0.42448318
               4.63839911               10.35337681               40.10172457                0.00010000                0.07198317                0.00949330               -0.08995248               -0.02624854               -0.01441289                0.70286789
               5.63911895               10.11838159               39.91553554                0.00010000                0.11104243                0.12957674               -0.38912043               -0.00334345                0.02492704               -0.64430718
               6.64061996                9.88284792               39.73000505                0.00010000               -0.00458340                0.24436843               -0.70360545               -0.52208452               12.00072248               -1.58111944
               7.63902728                9.63629176               39.78310977                0.00010000               -0.22226492                0.43892626               -0.84117503               -0.79884163               23.87090299               -0.28208257
               8.63617467                9.38439110               39.83015146                0.00010000               -0.38277525                0.58200031               -1.05413044               -0.88845796               23.87133174                0.28101355
               9.63137177                9.12915057               39.87741543                0.00010000               -0.60769965                0.72285948               -1.29626346               -1.09716053               24.46807883                0.73363810
              10.62402067                8.87028739               39.93050773                0.00010000               -0.87630824                0.83415186               -1.53766262               -1.63516494               25.62335978                1.29190057
              11.61384561                8.60649111               39.99469148                0.00010000               -0.97472144                0.84228172               -1.73149174               -2.32823316               27.19356794                2.17401365
              12.60452624                8.34648041               40.07290577                0.00010000               -0.28352353                0.25853204               -1.05915267               -1.84227839               14.17679333                2.65960670
              13.60817514                8.12356586               39.87263366                0.00010000                0.41383596                0.35829353               -1.32871913               -0.03482824                0.12290486                1.10183242
              14.61280296                7.90129670               39.66878129                0.00010000                0.46278241                0.55006276               -1.75130160                0.00564517               -0.01937261               -0.66943461
               4.87254335               11.35378614               40.04435772                0.00010000                0.12308612                0.04093376               -0.25393163                0.02306857                0.38279195                0.60996585
               5.87377422               11.11987259               39.85449061                0.00010000                0.16627290                0.14910041               -0.55331679                0.04269311                0.78108636               -0.52080653
               6.87586881               10.88532947               39.67242043                0.00010000                0.42140518                0.24815503               -0.86118848               -0.46825703               13.85956781               -0.94034239
               7.88220232               10.64000975               39.74385399                0.00010000                0.39307901                0.37179880               -1.03174142               -0.43723873               26.38993859               -0.22952775
               8.88373039               10.39023461               39.80418348                0.00010000               -0.04447335                0.58435129               -1.23313302               -0.39112384               26.15074984                0.08990760
               9.88131285               10.13707582               39.86414104                0.00010000               -0.46485980                0.79252454               -1.46648309               -0.50052280               26.77824715                0.35241629
              10.87443320                9.88034200               39.93052339                0.00010000               -1.09868668                1.00546080               -1.70009501               -0.79527294               28.14980807                0.66844236
              11.85933912                9.62034531               40.01074266                0.00010000               -2.37736358                1.38542037               -1.98316686               -1.97379347               29.60151480                1.24330823
              12.82688593                9.34987911               40.09869788                0.00010000               -1.49061964                0.33987051               -1.13036483               -2.40704433               16.08157370                1.15105102
              13.82952673                9.12748506               39.90538947                0.00010000                0.36748113                0.39192047               -1.37507114               -0.01775249                1.32717146                0.75642362
              14.83423555                8.90682089               39.69785472                0.00010000                0.47088221                0.55241837               -1.83784514                0.07684107                0.65188692               -0.64837120
               2.56809541                1.44103417               41.58262588                1.00000000               -0.36812443               -0.40744682                1.40328057               -0.06998238               -1.09267518                1.06285426
               3.56441417                1.18238729               41.45718025                1.00000000               -0.31330387               -0.29861502                1.06776149               -0.04210945               -1.46056570                0.16964921
               4.56182933                0.92325392               41.32459286                1.00000000               -0.20042013               -0.19312055                0.70428142               -0.04581596               -1.46935425               -0.21015372
               5.56040576                0.66349583               41.19902788                1.00000000               -0.03042567               -0.10135510                0.34778056               -0.23761779               -0.82874013               -0.96849146
               6.56122082                0.39907289               41.07922050                0.00010000                0.24809756               -0.12428208               -0.13309081               -0.05893557               -0.40448391                0.25828674
               7.56536771                0.13142898               40.96271812                0.00010000                0.46481345                0.03314827               -0.46682369               -0.10138082               -0.21520267                0.11261052
               8.57051709               -0.13426927               40.84545743                0.00010000                0.55097325                0.10836823               -0.67501877               -0.05350926               -0.08662900               -0.11237091
               9.57638718               -0.39715870               40.72945820                1.00000000                0.51255490                0.15960899               -0.74706177               -0.08296645               -0.26123262                0.09947502
              10.58076819               -0.65737236               40.60633396                1.00000000                0.39485376                0.24157291               -0.88065849               -0.07163852               -0.76366467                0.66164710
              11.58428426               -0.91636533               40.47913442                1.00000000                0.36846414                0.33071470               -1.10565335               -0.04019818               -0.90214413                0.04619695
              12.58813747               -1.17524634               40.35293123                1.00000000                0.38532145                0.42225295               -1.37455434               -0.02623711               -0.84396086               -0.82207867
               2.82604247                2.43695971               41.52742781                1.00000000               -0.31592724               -0.39676972                1.24076676               -0.01404648               -0.21428126                1.44232437
               3.82288320                2.17940114               41.40193375                1.00000000               -0.26127828               -0.27590904                0.90827195                0.01222223               -0.32220329                0.24361472
               4.82081690                1.92132272               41.27443471                1.00000000               -0.13815469               -0.16442391                0.54769443               -0.01030765               -0.24908370               -0.42296136
               5.82012010                1.66248228               41.15030284                1.00000000                0.29239941               -0.06505306                0.20310879               -0.30392205                1.28960902               -1.29223814
               6.82666489                1.39783007               41.05320739                0.00010000                0.54524418               -0.12306745               -0.23361332               -0.04428025                2.30680628                0.76990990
               7.83102499                1.13176046               40.94661085                0.00010000                0.38054710                0.06774009               -0.54068789               -0.08266107                1.82915617                0.37166305
               8.83427583                0.86681441               40.83815179                1.00000000                0.30420380                0.17759194               -0.72582152               -0.05442770                2.03421759               -0.34162022
               9.83710906                0.60443739               40.73447927                1.00000000                0.26896420                0.22075404               -0.77509501               -0.07332804                2.07807682                0.45634597
              10.83965512                0.34504337               40.62633777                1.00000000                0.28551009                0.25968951               -0.90443757               -0.04746890                1.05113597                0.86437092
              11.84281926                0.08694182               40.50205465                1.00000000                0.35504973                0.33639103               -1.16344672                0.00344287                0.15769116                0.20105618
              12.84675611               -0.17102381               40.37610473                1.00000000                0.39368482                0.43193641               -1.43284218                0.01862181                0.07011819               -0.95579557
               3.08293161                3.43309878               41.48013358                1.00000000               -0.26360118               -0.37957746                1.09293477               -0.00837980                0.02404710                1.81924625
               4.08029560                3.17686911               41.34828819                1.00000000               -0.21947844               -0.23260556                0.76054958                0.00988635                0.19345269                0.25356833
               5.07854204                2.91996545               41.21995435                1.00000000               -0.12378129               -0.09201480                0.41384453               -0.03495885                0.52936324               -1.10884250
               6.07781997                2.66219477               41.09473835                1.00000000                0.62574978               -0.01701211                0.03741858               -0.43396895                4.08260819               -1.83279254
               7.09105704                2.39661154               41.03720162                0.00010000                0.84550889               -0.16044688               -0.45814166               -1.03531398                5.56751546               -0.99127759
               8.09473015                2.13278378               40.93524830                0.00010000                0.28472833               -0.01141652               -0.68207965               -0.97700284                3.08343994               -0.01603439
               9.09675160                1.86928257               40.82585479                0.00010000                0.09807583                0.07353290               -0.85501853               -0.87085582                4.25128929                0.70814927
              10.09669167                1.60725638               40.74647749                0.00010000                0.02813907                0.07268672               -0.85318171               -0.57696645                4.86569080                1.10733736
              11.09731438                1.34782143               40.65033247                1.00000000                0.18643137                0.23178116               -0.94819706               -0.21295497                2.66734385                1.74395079
              12.10042029                1.09036249               40.52803008                1.00000000                0.35633922                0.33463517               -1.21987243               -0.04238848                0.88573692                0.79821798
              13.10444117                0.83339239               40.39660230                1.00000000                0.40208747                0.45114711               -1.47109060                0.01004347                0.41392861               -0.90959274
               3.33833421                4.42936816               41.43276225                1.00000000               -0.21199531               -0.36131427                0.94363032               -0.01697326                0.12669842                1.65904618
               4.33621426                4.17474903               41.29332330                1.00000000               -0.17710717               -0.18382685                0.61227290               -0.00063265                0.22800163                0.04820950
               5.33479207                3.91948242               41.15599069                1.00000000               -0.07098141               -0.01866298                0.30095174               -0.10385958                1.14467399               -1.60558587
               6.33479463                3.66214204               41.03478211                0.00010000                0.02887689                0.05712208               -0.05526896               -0.67452681                5.11134488               -2.47058090
               7.33536960                3.39462113               40.97648798                0.00010000                0.20096364               -0.04386709               -0.43300838               -1.75585717                8.02946081               -2.21606000
               8.33881390                3.13153213               40.91090081                0.00010000                0.35082546               -0.10005170               -0.74063621               -1.73955791                7.47149485               -0.23425052
               9.34238611                2.86828507               40.83861459                0.00010000                0.41084873               -0.12677635               -0.96851510               -1.68223092                7.11191343                1.70756926
              10.34703088                2.60589113               40.76394874                0.00010000                0.49518987               -0.16943679               -1.14061145               -1.10554949                6.97879996                1.87320824
              11.35228991                2.34967899               40.68804036                0.00010000                0.46848312               -0.16904659               -1.01620538               -0.43501470                4.44657155                2.51609722
              12.35640054                2.09363452               40.56305157                1.00000000                0.43036417                0.19046676               -1.32056727               -0.14188851                1.12765259                1.91418222
              13.36089719                1.83799913               40.42095838                1.00000000                0.44966561                0.44550838               -1.53720419               -0.04715792                0.24746989               -0.05938983
               3.59183040                5.42587249               41.38251730                1.00000000               -0.16617183               -0.32789111                0.78151753               -0.03461976                0.22712519                1.33746591
               4.59016868                5.17319257               41.23558583                1.00000000               -0.13792781               -0.11432885                0.45487213               -0.03467655                0.36109714               -0.35390016
               5.58907184                4.91959219               41.09137592                0.00010000               -0.04889759                0.06989323                0.14343075               -0.17872444                1.44833040               -1.86827632
               6.58919073                4.66333721               40.96606907                0.00010000               -0.12610190                0.14752283               -0.17927268               -0.93246727                7.14372229               -2.28276604
               7.58654980                4.39573420               40.93548142                0.00010000               -0.14578371                0.15080994               -0.47535946               -1.60657005               11.45275548               -0.61951085
               8.58627505                4.13078275               40.89385609                0.00010000                0.10990926                0.00914811               -0.81109082               -1.69218506               10.63012423                0.50199048
               9.58874799                3.86674704               40.84440340                0.00010000                0.34558531               -0.09780917               -1.12200044               -1.72099699               10.08291105                1.62068269
              10.59318676                3.60386765               40.78950140                0.00010000                0.60613544               -0.20216531               -1.41084025               -1.50852610                9.57558992                2.56009225
              11.60087070                3.34444050               40.72810208                0.00010000                0.80378136               -0.50473609               -1.84455576               -0.67016743                6.52821238                3.14527533
              12.60926238                3.09417183               40.61168122                0.00010000                0.69490493               -0.04996283               -1.35252982               -0.02112973                1.94420398                2.97912285
              13.61476879                2.84230255               40.45900472                1.00000000                0.55064091                0.39650017               -1.53634639               -0.04357838                0.12931092                0.96645630
               3.84300165                6.42281033               41.32892942                1.00000000               -0.12006217               -0.27324207                0.60882014               -0.03779953                0.11349630                1.02862603
               4.84180103                6.17246245               41.17252665                0.00010000               -0.09643579               -0.03784036                0.26744709               -0.05267794                0.40188657               -0.71459707
               5.84107294                5.92088029               41.02190539                0.00010000               -0.08988815                0.18500189               -0.04551514               -0.28416304                2.60237081               -2.33506346
               6.84000327                5.66509250               40.90941814                0.00010000               -0.26401339                0.06845714               -0.10206880               -1.28096687                9.96721992                0.25279944
               7.83579267                5.39763733               40.90578622                0.00010000               -0.30229567                0.21170742               -0.51574572               -1.84423271               14.62486002                0.39253359
               8.83395736                5.13171509               40.88355068                0.00010000               -0.04556997                0.14532441               -0.90318150               -1.84495453               13.49533451                1.14046018
               9.83488127                4.86632889               40.85470210                0.00010000                0.26047724                0.01482351               -1.27552804               -1.89745393               13.00546428                2.10226597
              10.83916690                4.60184782               40.82018782                0.00010000                0.68505561               -0.16448767               -1.70820942               -1.79329595               12.41203898                3.17783038
              11.84858238                4.33958427               40.77718014                0.00010000                0.94744932               -0.48336437               -2.30263204               -0.83672058                8.80642299                4.37412801
              12.85811589                4.09263526               40.66921784                0.00010000                0.75908954               -0.11233825               -1.32602443               -0.02036644                2.80279468                3.19669766
              13.86376417                3.84592913               40.50574850                0.00010000                0.56482867                0.37474241               -1.50846087               -0.02189499                0.04436904                1.12247875
               4.09177017                7.42040765               41.27270230                0.00010000               -0.07250016               -0.20323552                0.42966566               -0.03208181                0.03922967                0.83581292
               5.09104516                7.17243577               41.10740987                0.00010000               -0.05058152                0.02093552                0.09085183               -0.04188355                0.30913862               -0.82855310
               6.09075854                6.92329222               40.94749802                0.00010000               -0.21154102                0.26778075               -0.23794954               -0.52050695                5.77630063               -2.66119844
               7.08681434                6.66470636               40.89146722                0.00010000               -0.38579926                0.05383641               -0.01381125               -1.45500045               13.50087579                1.55636451
               8.08304255                6.39996835               40.88447892                0.00010000               -0.30649706                0.26601147               -0.60790490               -1.83083228               16.15885051                0.99767892
               9.08068440                6.13368923               40.87868438                0.00010000               -0.11881858                0.25109902               -1.01031135               -1.97840243               16.20052964                1.55341716
              10.08066618                5.86704351               40.86978736                0.00010000                0.16905277                0.12473955               -1.41164506               -2.08204274               16.02956841                2.50045772
              11.08406546                5.60057789               40.85793498                0.00010000                0.63413305               -0.06998907               -1.90059173               -2.15686696               15.74310483                3.81164152
              12.09334884                5.33477321               40.84073939                0.00010000                0.92223670               -0.41850614               -2.64623232               -1.09852464               10.64342060                5.74878571
              13.10251019                5.09192506               40.72402355                0.00010000                0.71971590                0.00413776               -1.32321951               -0.01637053                2.88116422                2.75092026
              14.10774316                4.84979740               40.55000818                0.00010000                0.52329657                0.42222931               -1.53723623               -0.01312742                0.03961318                0.61030828
               4.33830379                8.41874562               41.21540832                0.00010000               -0.02250001               -0.12980466                0.25263949               -0.02913000                0.01056279                0.76854401
               5.33807879                8.17288116               41.04185479                0.00010000                0.00442104                0.06424223               -0.08244070               -0.01784432                0.14009569               -0.83153712
               6.33839221                7.92623590               40.87083512                0.00010000               -0.19258264                0.29108108               -0.42249318               -0.66374920                8.35671259               -2.72950910
               7.33422714                7.66616922               40.86148251                0.00010000               -0.40995315                0.27797960               -0.40840103               -1.42842125               17.28806063                0.35330606
               8.33019315                7.40295756               40.86642298                0.00010000               -0.34564972                0.37671991               -0.76012099               -1.70827633               18.40967666                0.98727304
               9.32731414                7.13673707               40.87610499                0.00010000               -0.19206958                0.38008404               -1.13845839               -1.97275064               18.90627277                1.62616320
              10.32635175                6.86882368               40.88760844                0.00010000                0.04928622                0.25117975               -1.51471826               -2.20495055               19.24967715                2.60892728
              11.32829987                6.60044804               40.90111001                0.00010000                0.44564838                0.03388031               -1.95573847               -2.45595613               19.63649111                4.09412381
              12.33526472                6.33121415               40.91745906                0.00010000                0.72322092               -0.21851661               -2.68062880               -1.33415604               12.01570997                6.54489133
              13.34276428                6.09271802               40.77388090                0.00010000                0.62461119                0.15320189               -1.35831698                0.01038716                2.07774526                2.23348079
              14.34775695                5.85437372               40.58888860                0.00010000                0.49926622                0.49484217               -1.63159812                0.00188260                0.03953089                0.01512594
               4.58291649                9.41781156               41.15793910                0.00010000                0.02815135               -0.05766894                0.07561139               -0.02718104               -0.00149413                0.77150822
               5.58319800                9.17372061               40.97644785                0.00010000                0.06395029                0.10258417               -0.25257086               -0.00246044               -0.02579358               -0.78951911
               6.58419549                8.92911385               40.79437427                0.00010000               -0.08368691                0.27450727               -0.59667556               -0.67485112               10.28627840               -2.44991722
               7.58152426                8.67026595               40.81892334                0.00010000               -0.29431581                0.44764080               -0.69269174               -1.32910026               20.86466409               -0.36578998
               8.57830918                8.40750275               40.84457006                0.00010000               -0.30804949                0.49583913               -0.97062701               -1.48868292               21.23619819                0.61380804
               9.57536327                8.14129091               40.87217009                0.00010000               -0.27264871                0.53944061               -1.28481612               -1.75900251               21.77704356                1.33839144
              10.57285620                7.87206711               40.90412366                0.00010000               -0.14037010                0.48884160               -1.60873299               -2.15319424               22.59081048                2.26035970
              11.57255587                7.60125550               40.94380987                0.00010000                0.07697689                0.20326592               -1.88466625               -2.68294421               23.88039960                3.64174548
              12.57439574                7.33040288               40.99770464                0.00010000                0.35012469                0.06276760               -2.08513376               -1.61207334               13.25628263                5.85796255
              13.57955836                7.09498910               40.81870606                0.00010000                0.50368364                0.29036153               -1.41231849                0.00218773                0.85695843                1.75832161
              14.58446941                6.85969424               40.62238791                0.00010000                0.49110490                0.55404914               -1.75990754                0.01027896                0.03120314               -0.51998373
               4.82594206               10.41759224               41.10076670                0.00010000                0.07852293                0.01119680               -0.10050880               -0.02704034               -0.01260673                0.69262870
               5.82672729               10.17493285               40.91149252                0.00010000                0.12038935                0.14096478               -0.42227439               -0.00255295                0.01973128               -0.64300973
               6.82834985                9.93172605               40.72272841                0.00010000                0.12644685                0.26365386               -0.75665404               -0.63767944               12.07483230               -1.56442455
               7.82925623                9.67512204               40.77428732                0.00010000                0.05223354                0.37730217               -0.92505982               -0.92896510               24.00903868               -0.31787033
               8.82939452                9.41287434               40.81902824                0.00010000               -0.08432505                0.52343090               -1.16865929               -0.95855144               23.96778263                0.27288167
               9.82756973                9.14752588               40.86367352                0.00010000               -0.30356188                0.67509696               -1.44830284               -1.10098493               24.55285314                0.75505160
              10.82332328                8.87860051               40.91418597                0.00010000               -0.56322577                0.79651438               -1.72577288               -1.57245654               25.74359559                1.34846305
              11.81630521                8.60451336               40.97661696                0.00010000               -0.70168135                0.82011110               -1.90397657               -2.27430065               27.75830446                2.24474183
              12.80928966                8.33246950               41.06120553                0.00010000               -0.13942711                0.31317992               -1.34284503               -1.87779757               14.78320872                3.13977692
              13.81351667                8.09852525               40.85877889                0.00010000                0.46312893                0.39146136               -1.45373403               -0.04586440                0.22023530                1.16609928
              14.81855224                7.86545470               40.65064561                0.00010000                0.50355642                0.58600667               -1.89479674                0.00786007               -0.01917927               -0.75542708
               5.06769447               11.41803550               41.04172486                0.00010000                0.13186626                0.04432506               -0.27223466                0.02568222                0.37634940                0.60245442
               6.06901314               11.17653991               40.84877381                0.00010000                0.17791179                0.16070600               -0.59302197                0.04615578                0.77126748               -0.51871154
               7.07125271               10.93438692               40.66353932                0.00010000                0.63917635                0.26608752               -0.92061301               -0.64610987               13.91248224               -0.92200826
               8.08179666               10.67781199               40.73309764                0.00010000                0.77407960                0.26899512               -1.11997446               -0.56673457               26.51319124               -0.25140060
               9.08673430               10.41797136               40.79123227                0.00010000                0.29103703                0.50970212               -1.35448889               -0.41697883               26.25162484                0.08352979
              10.08761740               10.15479285               40.84865102                0.00010000               -0.11573524                0.72669690               -1.62710270               -0.49393086               26.86715119                0.36286894
              11.08441960                9.88799740               40.91254690                0.00010000               -0.72082672                0.93968850               -1.89454344               -0.74712523               28.25823220                0.70349584
              12.07320087                9.61765772               40.99060422                0.00010000               -2.07958509                1.31443646               -2.05938486               -1.87698043               30.24503192                1.23551114
              13.04282790                9.33666648               41.08639832                0.00010000               -1.37724991                0.41969773               -1.37762310               -2.38814596               16.87840018                1.32574109
              14.04565587                9.10281833               40.89108119                0.00010000                0.39699079                0.42930763               -1.50144364               -0.04868485                1.49011963                0.81957764
              15.05076771                8.87141438               40.67879643                0.00010000                0.51118393                0.59596762               -1.99476272                0.08115266                0.68740227               -0.71090817
               2.68412701                1.50776276               42.59692135                1.00000000               -0.38108160               -0.42554284                1.46461486               -0.07571170               -1.12462562                1.08156527
               3.68031619                1.24016748               42.46796148                1.00000000               -0.32227730               -0.30554454                1.09266197               -0.04418681               -1.51227316                0.17733635
               4.67768146                0.97208040               42.33156239                1.00000000               -0.20333708               -0.18978873                0.69051983               -0.04708511               -1.53831966               -0.21187674
               5.67624945                0.70319586               42.20224242                1.00000000               -0.05024967               -0.08104256                0.29275593               -0.30427714               -0.96706707               -0.97596058
               6.67667647                0.42810255               42.07736490                0.00010000                0.25852926               -0.10665895               -0.24190058               -0.07308584               -0.55511989                0.24515152
               7.68142004                0.14890138               41.95735649                0.00010000                0.54904627                0.06028036               -0.61363037               -0.11468376               -0.22785491                0.08680832
               8.68765740               -0.12800075               41.83801632                1.00000000                0.67075963                0.13377677               -0.82689846               -0.05055929                0.05866240               -0.15059802
               9.69483523               -0.40112300               41.72155797                1.00000000                0.61005031                0.17017013               -0.84343213               -0.08705871               -0.04297729                0.07775169
              10.69985840               -0.67057324               41.59732651                1.00000000                0.43482417                0.24482172               -0.92126574               -0.07353476               -0.61645215                0.67637056
              11.70353171               -0.93848030               41.46794532                1.00000000                0.38053020                0.33259676               -1.13255169               -0.03893648               -0.83258581                0.05567461
              12.70746901               -1.20613085               41.33908123                1.00000000                0.39372927                0.42212083               -1.39640826               -0.03151620               -0.79822761               -0.77895755
               2.95096518                2.50350733               42.54006306                1.00000000               -0.32496717               -0.41409246                1.29395051               -0.01417901               -0.23121241                1.46323610
               3.94771551                2.23711203               42.41108141                1.00000000               -0.26343783               -0.28191938                0.92451089                0.01439746               -0.35568132                0.25584637
               4.94569642                1.97018252               42.27982951                1.00000000               -0.12599484               -0.16056644                0.53001950               -0.00905954               -0.28736300               -0.41590899
               5.94519561                1.70238544               42.15213491                1.00000000                0.36982162               -0.04361871                0.15496487               -0.38711122                1.20804853               -1.31341335
               6.95309285                1.42703596               42.05037458                0.00010000                0.65646210               -0.12576198               -0.34401399               -0.07762491                2.22660832                0.70346693
               7.95832485                1.14950419               41.94056255                0.00010000                0.45355707                0.09777979               -0.68606367               -0.11577269                1.88012203                0.31747589
               8.96216399                0.87333702               41.83027960                1.00000000                0.34630172                0.21919421               -0.87035356               -0.06753838                2.23525150               -0.41716977
               9.96525089                0.60057870               41.72643482                1.00000000                0.28188564                0.24497773               -0.84683127               -0.08806239                2.31298180                0.40848597
              10.96780171                0.33187498               41.61731249                1.00000000                0.28351350                0.25811193               -0.89732289               -0.05530155                1.15716657                0.86826323
              11.97092116                0.06484566               41.49047507                1.00000000                0.35013411                0.33271771               -1.14924699                0.00363353                0.17554582                0.21062413
              12.97480439               -0.20190964               41.36185812                1.00000000                0.38832339                0.42495578               -1.41379262                0.01267913                0.07995732               -0.90220736
               3.21663403                3.49948091               42.49125458                1.00000000               -0.27050709               -0.39494819                1.13734140               -0.00912270                0.01692086                1.84195757
               4.21392896                3.23452909               42.35592681                1.00000000               -0.22035817               -0.23572305                0.76862518                0.00952111                0.17603758                0.26952593
               5.21222687                2.96886908               42.22393539                1.00000000               -0.11375877               -0.08411971                0.38168083               -0.03762890                0.49130770               -1.07877927
               6.21165379                2.70232349               42.09479340                1.00000000                0.78891779                0.00712622               -0.02958561               -0.55893940                3.96975635               -1.82699205
               7.22800522                2.42558731               42.03203733                0.00010000                1.05748714               -0.15166317               -0.59147331               -1.26529483                5.50508082               -0.98315319
               8.23280353                2.15085698               41.92770199                0.00010000                0.36134442                0.04840571               -0.85526791               -1.17260906                3.20028184               -0.03874873
               9.23523211                1.87638313               41.81655563                0.00010000                0.08662443                0.16391331               -1.04061812               -1.03688374                4.51419805                0.63499321
              10.23453602                1.60377656               41.73763889                1.00000000               -0.03733517                0.14934553               -0.94142730               -0.67850503                5.16069850                0.94995029
              11.23448541                1.33458900               41.64108291                1.00000000                0.14264945                0.21091188               -0.89384980               -0.25539623                2.76245193                1.72088934
              12.23738901                1.06817405               41.51607175                1.00000000                0.33738939                0.32047564               -1.16543690               -0.04250177                0.87136924                0.78307352
              13.24123320                0.80236827               41.38216843                1.00000000                0.38441914                0.42982336               -1.40972913                0.00468184                0.40685398               -0.86161716
               3.48068637                4.49560837               42.44235216                1.00000000               -0.21686019               -0.37420574                0.97891227               -0.01793148                0.12621184                1.67108166
               4.47851777                4.23239757               42.29944077                1.00000000               -0.17684617               -0.18288955                0.61175949               -0.00149460                0.23611980                0.05857868
               5.47714944                3.96850012               42.15884109                1.00000000               -0.06095897               -0.00536011                0.26391709               -0.10610152                1.14029567               -1.58212814
               6.47729859                3.70252796               42.03389678                0.00010000                0.10520114                0.08440394               -0.13122059               -0.79632927                5.07442350               -2.42703166
               7.47925347                3.42400270               41.97165626                0.00010000                0.33891303                0.00379342               -0.54640570               -2.05895986                8.02005355               -2.07579733
               8.48407685                3.15047230               41.90290451                0.00010000                0.46266377               -0.03134619               -0.87609193               -2.01972044                7.53712676               -0.16677707
               9.48850674                2.87661528               41.82840173                0.00010000                0.46990335               -0.03783574               -1.09235578               -1.93887784                7.24133214                1.69559125
              10.49347491                2.60356561               41.75227462                0.00010000                0.48947723               -0.08969289               -1.20395950               -1.32540691                7.27859094                1.68534423
              11.49829629                2.33609322               41.67827604                0.00010000                0.44084703               -0.14126191               -0.92814269               -0.52981172                4.60242063                2.06071498
              12.50229186                2.07125518               41.55026096                1.00000000                0.41066525                0.14846468               -1.22900642               -0.13206794                1.07843844                1.90323460
              13.50650959                1.80668683               41.40604206                1.00000000                0.42177374                0.38003220               -1.43664295               -0.03687353                0.23731216                0.00191864
               3.74269700                5.49199680               42.39044769                1.00000000               -0.16896817               -0.33878129                0.80798235               -0.03625255                0.23478693                1.33602261
               4.74100732                5.23087130               42.24009726                1.00000000               -0.13612753               -0.10830651                0.44694620               -0.03767741                0.37469650               -0.36168392
               5.73997445                4.96876187               42.09261273                0.00010000               -0.03913452                0.09018058                0.09989274               -0.18455180                1.46583119               -1.87801649
               6.74022463                4.70401157               41.96394506                0.00010000               -0.05463793                0.15957666               -0.25584036               -1.04720573                7.17261577               -2.13163468
               7.73888169                4.42566318               41.93029994                0.00010000               -0.02140463                0.19482096               -0.57103561               -1.81504907               11.48536378               -0.49444405
               8.73979653                4.15023006               41.88523606                0.00010000                0.22397773                0.05398376               -0.92233038               -1.89533113               10.65553075                0.58451862
               9.74336124                3.87562642               41.83271520                0.00010000                0.43767039               -0.05699019               -1.22110843               -1.92151529               10.12915897                1.61889990
              10.74854994                3.60198270               41.77514696                0.00010000                0.64191834               -0.16964723               -1.45468856               -1.68580736                9.53866055                2.39582190
              11.75619961                3.33176377               41.70965511                0.00010000                0.78020485               -0.41965861               -1.81697778               -0.79069542                6.83100262                2.55453416
              12.76415404                3.07114335               41.59868684                0.00010000                0.67164077               -0.12753552               -1.23711739               -0.06821768                2.30162219                3.00989641
              13.76963243                2.80996891               41.44422490                0.00010000                0.54783875                0.25989653               -1.41086247               -0.01628263                0.12371819                1.03891821
               4.00221231                6.48883274               42.33509518                1.00000000               -0.12131704               -0.28222662                0.62704446               -0.03869089                0.10838794                1.01814459
               5.00099914                6.23023144               42.17513827                0.00010000               -0.09470867               -0.02760944                0.25377977               -0.05647273                0.41039233               -0.73017106
               6.00031814                5.97030373               42.02125585                0.00010000               -0.07729882                0.21486586               -0.08950377               -0.31591559                2.76493399               -2.35802490
               6.99945317                5.70571950               41.90827493                0.00010000               -0.17920706                0.05454945               -0.13292498               -1.36664684               10.08128960                0.48974811
               7.99673400                5.42789912               41.90021323                0.00010000               -0.16230909                0.24276642               -0.60709491               -2.01003015               14.57603982                0.50521736
               8.99620699                5.15155198               41.87402627                0.00010000                0.07948974                0.18047929               -1.00486827               -2.01934073               13.47957277                1.22000206
               9.99832379                4.87547548               41.84144173                0.00010000                0.37072174                0.04112467               -1.37331628               -2.08199656               12.96504133                2.12344181
              11.00362142                4.60017267               41.80268124                0.00010000                0.74989693               -0.14708534               -1.77399825               -1.93195672               12.25025379                3.06589295
              12.01332173                4.32770005               41.75410522                0.00010000                0.95504671               -0.43755772               -2.26123424               -0.98163756                9.28801012                4.05731331
              13.02272235                4.06870447               41.65634698                0.00010000                0.76055364               -0.18526096               -1.24169016               -0.11327007                3.39534778                3.23145545
              14.02853281                3.81188476               41.49107908                0.00010000                0.58104510                0.22342587               -1.42420955               -0.00529837                0.03575906                1.12346963
               4.25912579                7.48635227               42.27704421                0.00010000               -0.07189132               -0.20984062                0.44085783               -0.03282148                0.03607615                0.82316400
               5.25840687                7.23031911               42.10822726                0.00010000               -0.04788518                0.03272727                0.07136284               -0.04339365                0.31042439               -0.83580557
               6.25816808                6.97305919               41.94489075                0.00010000               -0.15552823                0.30328055               -0.28768745               -0.58620076                6.05590256               -2.67977529
               7.25529631                6.70510256               41.89086919                0.00010000               -0.26597380                0.05764604               -0.11444432               -1.54663556               13.68262237                1.56740362
               8.25284861                6.43051851               41.87798451                0.00010000               -0.17314757                0.29092069               -0.69454547               -1.96063251               16.03650599                1.05830380
               9.25183336                6.15383964               41.86805170                0.00010000                0.01260071                0.28091085               -1.11563377               -2.13432050               16.17029679                1.62038547
              10.25310062                5.87644891               41.85504461                0.00010000                0.29264408                0.15710630               -1.52878891               -2.25115772               15.95150343                2.54926436
              11.25768624                5.59904099               41.83817106                0.00010000                0.74672202               -0.04514034               -2.02604340               -2.28477068               15.47362767                3.82228428
              12.26803506                5.32301261               41.81340208                0.00010000                1.00088438               -0.42624215               -2.73765384               -1.22654080               11.25518865                5.61612301
              13.27770393                5.06743813               41.71085344                0.00010000                0.75654076               -0.02941317               -1.30750306               -0.10760219                3.69267304                2.76421529
              14.28316588                4.81443743               41.53468133                0.00010000                0.54619500                0.32496238               -1.53598162               -0.00281052                0.03484218                0.52015471
               4.51362219                8.48463593               42.21794897                0.00010000               -0.01978477               -0.13421015                0.25726002               -0.02975895                0.00877080                0.75636518
               5.51342435                8.23088599               42.04091214                0.00010000                0.00942424                0.07669158               -0.10767793               -0.01561552                0.13608761               -0.83400480
               6.51381068                7.97636935               41.86636998                0.00010000               -0.11816035                0.32456390               -0.47581631               -0.73554494                8.52793070               -2.73413653
               7.51106114                7.70687242               41.85700202                0.00010000               -0.25132067                0.30040295               -0.49515859               -1.55641484               17.47812430                0.20090197
               8.50878427                7.43371753               41.85832040                0.00010000               -0.17354845                0.38735036               -0.86055653               -1.83576228               18.41707926                0.99295919
               9.50759017                7.15717019               41.86412462                0.00010000               -0.03424882                0.39891440               -1.25410893               -2.08968252               18.90154492                1.67325794
              10.50809929                6.87861760               41.87167527                0.00010000                0.18860684                0.29198537               -1.66212310               -2.31737509               19.19468517                2.67945581
              11.51136231                6.59926986               41.88036798                0.00010000                0.61472466                0.08933246               -2.17315784               -2.55024159               19.33986800                4.23801480
              12.52039378                6.31917520               41.88825151                0.00010000                0.88915920               -0.24456781               -3.09276586               -1.40765073               12.66731263                6.92618478
              13.52914549                6.06811620               41.76002787                0.00010000                0.70421023                0.15747546               -1.41355678               -0.04998212                2.98383621                2.24053747
              14.53447799                5.81838401               41.57223626                0.00010000                0.53324956                0.46127543               -1.71494583                0.01072183                0.04168098               -0.12601434
               4.76603050                9.48366806               42.15867298                0.00010000                0.03306527               -0.05961586                0.07273919               -0.02785479                0.00045578                0.75979602
               5.76636115                9.23185294               41.97378200                0.00010000                0.07201289                0.11547224               -0.28318953                0.00049637               -0.03193858               -0.78958900
               6.76747075                8.97955047               41.78814356                0.00010000                0.02293392                0.30125166               -0.65443145               -0.76155938               10.39645349               -2.43905831
               7.76681983                8.71111062               41.81156920                0.00010000               -0.08175848                0.44438246               -0.78163995               -1.47189354               21.03107601               -0.43818091
               8.76583558                8.43826551               41.83433726                0.00010000               -0.08400979                0.47344998               -1.07401691               -1.59664220               21.30727223                0.59811706
               9.76513963                8.16181793               41.85864823                0.00010000               -0.05910673                0.53002400               -1.41376062               -1.81479839               21.82203814                1.36649011
              10.76465345                7.88228862               41.88714062                0.00010000                0.04920876                0.51079029               -1.78168110               -2.15702147               22.62531517                2.33109720
              11.76612381                7.60082764               41.92351165                0.00010000                0.31911271                0.26608687               -2.17080380               -2.67687654               23.88606736                3.85741723
              12.77103570                7.31812125               41.97392614                0.00010000                0.56858376                0.07035275               -2.73670672               -1.63026480               13.86683903                6.77382753
              13.77749548                7.07058763               41.80405756                0.00010000                0.59045019                0.31982554               -1.52332967               -0.02320226                1.49502586                1.78530791
              14.78284471                6.82366294               41.60415804                0.00010000                0.53492261                0.56978162               -1.90800075                0.01792709                0.04174746               -0.66733994
               5.01669534               10.48344362               42.09971440                0.00010000                0.08565303                0.01254250               -0.10933508               -0.02772064               -0.01220817                0.68272453
               6.01755187               10.23319543               41.90709005                0.00010000                0.13132395                0.15414226               -0.46097989               -0.00126392                0.01545022               -0.64216533
               7.01932182                9.98239438               41.71487197                0.00010000                0.26781770                0.28585025               -0.81969177               -0.75557446               12.14938486               -1.54596424
               8.02290822                9.71576007               41.76460857                0.00010000                0.34111457                0.31252416               -1.01169912               -1.06272384               24.14901315               -0.34708946
               9.02614411                9.44318653               41.80677827                0.00010000                0.21814375                0.46158178               -1.27733649               -1.03077360               24.06407697                0.26454451
              10.02727110                9.16777067               41.84844937                0.00010000               -0.00974805                0.62801395               -1.58915026               -1.10757535               24.62865543                0.76738956
              11.02594915                8.88883341               41.89599227                0.00010000               -0.26394785                0.77007251               -1.91089489               -1.50939418               25.85999675                1.39299520
              12.02199214                8.60459160               41.95661195                0.00010000               -0.39603280                0.81266867               -2.14381886               -2.19933119               28.25378972                2.41392153
              13.01802849                8.32058226               42.04604887                0.00010000                0.05738105                0.39435490               -1.78410172               -1.85688156               15.43134366                3.78867540
              14.02313976                8.07451271               41.84355898                0.00010000                0.53287147                0.43421833               -1.60132291               -0.06835477                0.43908123                1.21845250
              15.02868592                7.82977964               41.63088536                0.00010000                0.55461595                0.63190731               -2.08239907                0.01211261               -0.01301089               -0.86796082
               5.26597245               11.48391891               42.03891303                0.00010000                0.14126578                0.04752982               -0.28932352                0.02939854                0.36982993                0.59334299
               6.26738511               11.23493579               41.84263017                0.00010000                0.19110910                0.17403560               -0.63829084                0.05075179                0.76255725               -0.51613128
               7.26979463               10.98526747               41.65400817                0.00010000                0.86940466                0.28730945               -0.99129696               -0.83145309               13.96700130               -0.90266255
               8.28477320               10.71736110               41.72145450                0.00010000                1.17074373                0.16010337               -1.20872760               -0.70201849               26.63876107               -0.27031190
               9.29320951               10.44749715               41.77709370                0.00010000                0.62840216                0.43106203               -1.46866630               -0.44260493               26.34904295                0.07608092
              10.29734124               10.17437821               41.83159898                0.00010000                0.22175674                0.66075350               -1.77513036               -0.48333950               26.94118199                0.36786091
              11.29764464                9.89769007               41.89263252                0.00010000               -0.34764548                0.88566586               -2.08588365               -0.69531047               28.39782929                0.73505748
              12.29038833                9.61708101               41.96955497                0.00010000               -1.68338415                1.24894150               -2.22494190               -1.74446656               30.82715301                1.35278105
              13.26397696                9.32600835               42.07114542                0.00010000               -1.17286632                0.54260928               -1.74508176               -2.29560412               17.68610703                1.58967646
              14.26693101                9.07927200               41.87536059                0.00010000                0.42880774                0.47592867               -1.65704077               -0.10623886                1.74692811                0.88412260
              15.27255311                8.83630108               41.65795946                0.00010000                0.56221048                0.65214458               -2.19830892                0.08962738                0.72357215               -0.78641841
               2.80352266                1.57638208               43.61191818                1.00000000               -0.39949830               -0.44908766                1.54469661               -0.08290619               -1.15706366                1.09959257
               3.79952767                1.29969415               43.47903349                1.00000000               -0.33703290               -0.31414155                1.12638111               -0.04745171               -1.56561953                0.18386155
               4.79678200                1.02248215               43.33840325                1.00000000               -0.21328821               -0.18506090                0.67881459               -0.05171229               -1.61179927               -0.21208978
               5.79526191                0.74419163               43.20488300                1.00000000               -0.08888222               -0.05286002                0.23249727               -0.37887079               -1.11907303               -0.97707155
               6.79500435                0.45795655               43.07438248                0.00010000                0.24486422               -0.07295770               -0.35263532               -0.09542264               -0.72915215                0.22948577
               7.80015919                0.16675303               42.95044551                1.00000000                0.62422491                0.10114451               -0.77075376               -0.13189428               -0.25889088                0.05615881
               8.80748885               -0.12180777               42.82891946                1.00000000                0.80291302                0.17394838               -1.00515390               -0.04354453                0.22065482               -0.20530135
               9.81621745               -0.40535735               42.71258956                1.00000000                0.72814747                0.18835452               -0.96290124               -0.08862238                0.22794581                0.03923881
              10.82205180               -0.68381692               42.58790865                1.00000000                0.48301806                0.24691506               -0.95954023               -0.07705995               -0.43260049                0.69831882
              11.82587781               -0.96031134               42.45648339                1.00000000                0.39246457                0.33392056               -1.15964339               -0.03744425               -0.75778774                0.06590072
              12.82990109               -1.23637928               42.32500306                1.00000000                0.40232775                0.42241207               -1.42192999               -0.03798792               -0.75150490               -0.73406557
               3.07938152                2.57189120               43.55330682                1.00000000               -0.33783961               -0.43666230                1.36351398               -0.01369996               -0.24900269                1.48239564
               4.07600312                2.29655274               43.42042397                1.00000000               -0.26826893               -0.28969418                0.94754319                0.01741060               -0.38925467                0.26670154
               5.07401614                2.02063154               43.28503510                1.00000000               -0.11335614               -0.15519336                0.50876416               -0.00850556               -0.32443744               -0.41017632
               6.07373600                1.74366303               43.15340214                1.00000000                0.43766450               -0.01492830                0.08894544               -0.47766578                1.11354194               -1.33210763
               7.08276943                1.45722698               43.04632711                0.00010000                0.74932085               -0.11448776               -0.47506657               -0.13264221                2.11958443                0.62733172
               8.08872241                1.16776447               42.93288958                1.00000000                0.51695834                0.14569039               -0.86595505               -0.16184872                1.92628291                0.24558335
               9.09310859                0.87993171               42.82074472                1.00000000                0.38066949                0.28340348               -1.06478653               -0.08142292                2.48825296               -0.53064261
              10.09633580                0.59652620               42.71754264                1.00000000                0.28248015                0.28864660               -0.95165825               -0.10592876                2.64196714                0.32205725
              11.09875820                0.31865223               42.60839131                1.00000000                0.27243731                0.25462945               -0.88019572               -0.07097859                1.31108947                0.87763191
              12.10178455                0.04302787               42.47906971                1.00000000                0.34154773                0.32747046               -1.12793822                0.00384802                0.19382326                0.22003734
              13.10558915               -0.23215516               42.34782887                1.00000000                0.38046015                0.41776930               -1.39088689                0.00588790                0.08883543               -0.84506435
               3.35392558                3.56764883               43.50288041                1.00000000               -0.27900331               -0.41472593                1.19452308               -0.00987058                0.00893846                1.86173646
               4.35113555                3.29390027               43.36366069                1.00000000               -0.22119911               -0.24012954                0.77997210                0.00870263                0.15664665                0.28424802
               5.34950160                3.01937828               43.22758796                1.00000000               -0.10111958               -0.07345113                0.34657173               -0.04406899                0.45282903               -1.05067458
               6.34911315                2.74389306               43.09414663                1.00000000                0.93742340                0.03933629               -0.10542290               -0.69897772                3.83819137               -1.82438227
               7.36825006                2.45566680               43.02537216                0.00010000                1.25521657               -0.11922004               -0.75622353               -1.51163558                5.40761306               -0.96365714
               8.37421748                2.16966684               42.91814294                0.00010000                0.44243020                0.14490250               -1.08630358               -1.38589768                3.30754524               -0.04810813
               9.37709867                1.88386030               42.80504243                0.00010000                0.05804374                0.30528105               -1.30842818               -1.22585977                4.84725319                0.57195218
              10.37537836                1.60041558               42.72764895                1.00000000               -0.14840543                0.27818703               -1.10605470               -0.80960215                5.61683927                0.78105165
              11.37413056                1.32127567               42.63245547                1.00000000                0.06919003                0.18344306               -0.82052459               -0.32918633                2.93825716                1.69287978
              12.37676216                1.04623807               42.50472134                1.00000000                0.31271685                0.30281305               -1.09767019               -0.04404092                0.85091892                0.76499012
              13.38038490                0.77197611               42.36840772                1.00000000                0.36227363                0.40680907               -1.33773163               -0.00159148                0.39760245               -0.80956439
               3.62668122                4.56359668               43.45234049                1.00000000               -0.22335019               -0.38994532                1.02365429               -0.01958267                0.12492585                1.67993080
               4.62444772                4.29175015               43.30555848                1.00000000               -0.17696294               -0.18194405                0.61228885               -0.00360708                0.24224070                0.06853598
               5.62314196                4.01916252               43.16126903                1.00000000               -0.04898993                0.01194063                0.21694471               -0.11306599                1.13266700               -1.55629157
               6.62346792                3.74444975               43.03215770                0.00010000                0.18104888                0.12166569               -0.22546687               -0.92386310                5.03743191               -2.38384016
               7.62676294                3.45484258               42.96555986                0.00010000                0.46715199                0.08107779               -0.68610583               -2.35356101                8.01382759               -1.89825777
               8.63281096                3.17066252               42.89337897                0.00010000                0.55398538                0.08422612               -1.04818987               -2.30261604                7.62421728               -0.04466581
               9.63784265                2.88603733               42.81676748                0.00010000                0.49587135                0.11123730               -1.25864560               -2.21254951                7.43044839                1.75297911
              10.64272839                2.60208994               42.73986955                0.00010000                0.42546672                0.04809404               -1.29453877               -1.60372718                7.70843502                1.53753333
              11.64635198                2.32232109               42.66947750                0.00010000                0.37374500               -0.07868356               -0.82426708               -0.65927485                4.83349350                1.55378422
              12.65020329                2.04908413               42.53847144                1.00000000                0.38646306                0.10228307               -1.11997342               -0.11885959                1.02250590                1.87995583
              13.65408125                1.77598103               42.39222553                1.00000000                0.38779552                0.30338906               -1.31792255               -0.02120395                0.22346102                0.05769949
               3.89722699                5.55984992               43.39867694                1.00000000               -0.17294230               -0.35099893                0.84141798               -0.03875348                0.24149900                1.33202411
               4.89549757                5.29026139               43.24452475                1.00000000               -0.13431609               -0.10105565                0.43793485               -0.04161726                0.38703068               -0.36841128
               5.89454067                5.01961709               43.09337378                0.00010000               -0.02708688                0.11396247                0.04789403               -0.19210054                1.48186773               -1.88201938
               6.89495583                4.74632638               42.96095227                0.00010000                0.02127028                0.17567854               -0.35464668               -1.15624872                7.21373429               -1.95041400
               7.89496607                4.45728836               42.92406071                0.00010000                0.10072891                0.26072637               -0.68741597               -2.00879216               11.53986117               -0.33835694
               8.89697041                4.17135136               42.87540948                0.00010000                0.32270939                0.13184844               -1.05382977               -2.08469866               10.71351082                0.71290219
               9.90142026                3.88608504               42.81998124                0.00010000                0.50248243                0.02154901               -1.33419338               -2.11447063               10.24228487                1.66054755
              10.90702006                3.60137747               42.76040763                0.00010000                0.62653052               -0.09741798               -1.49249873               -1.88014745                9.60336668                2.24947905
              11.91395087                3.31970200               42.69176253                0.00010000                0.68524882               -0.26687654               -1.73534590               -0.93844368                7.23269941                1.93451591
              12.92072503                3.04828373               42.58693887                0.00010000                0.61080752               -0.19931791               -1.10476008               -0.14062068                2.68653695                2.99802191
              13.92616702                2.77804389               42.43078747                0.00010000                0.54419896                0.09805388               -1.27135510                0.02271127                0.11677173                1.05617776
               4.16508322                6.55657670               43.34147030                1.00000000               -0.12350158               -0.29163932                0.65072794               -0.03983641                0.10275397                1.00645312
               5.16384821                6.28972903               43.17760224                0.00010000               -0.09241280               -0.01578018                0.23755929               -0.06126961                0.41910749               -0.74333507
               6.16323497                6.02144177               43.02011532                0.00010000               -0.05882602                0.24827485               -0.14461559               -0.35358603                2.95230296               -2.37506768
               7.16267169                5.74796333               42.90675964                0.00010000               -0.08364247                0.05004760               -0.18923290               -1.44837302               10.22796156                0.71977207
               8.16156212                5.46005710               42.89364432                0.00010000               -0.01756919                0.28694462               -0.71058086               -2.15198745               14.53389949                0.64939395
               9.16232030                5.17329949               42.86345332                0.00010000                0.19825065                0.23236211               -1.11516228               -2.17644792               13.50456694                1.33362314
              10.16552713                4.88646831               42.82723578                0.00010000                0.45940925                0.08551126               -1.46644568               -2.25006454               12.99058275                2.16780230
              11.17150849                4.60014158               42.78470785                0.00010000                0.75748569               -0.10203135               -1.80534126               -2.06621362               12.21188358                2.93673377
              12.18067684                4.31698356               42.73195545                0.00010000                0.87702476               -0.33763080               -2.13490767               -1.16122235                9.86413806                3.68775993
              13.18904898                4.04509777               42.64438404                0.00010000                0.71691553               -0.23776248               -1.14924542               -0.23410394                3.99068842                3.19270861
              14.19501515                3.77794210               42.47726431                0.00010000                0.59661719                0.04997135               -1.34600086                0.01529364                0.02813472                1.01303045
               4.43012560                7.55401714               43.28151945                0.00010000               -0.07184855               -0.21662709                0.45641538               -0.03365297                0.03265415                0.81069689
               5.42940711                7.28994579               43.10883713                0.00010000               -0.04454701                0.04586471                0.04913320               -0.04516090                0.31186672               -0.84045220
               6.42923466                7.02458259               42.94174428                0.00010000               -0.10170407                0.34292980               -0.34730423               -0.64962405                6.32541001               -2.69311321
               7.42737303                6.74732733               42.88917834                0.00010000               -0.13222493                0.07619614               -0.22226281               -1.61939148               13.86688214                1.56377710
               8.42659016                6.46302725               42.87058801                0.00010000               -0.01713944                0.32034465               -0.79400027               -2.07393528               15.95575854                1.14158953
               9.42703024                6.17599860               42.85637171                0.00010000                0.14933628                0.31531068               -1.22088613               -2.27810538               16.17975658                1.71066973
              10.42957688                5.88779527               42.83921158                0.00010000                0.40751476                0.19242355               -1.63043999               -2.40933999               15.93078192                2.60550250
              11.43518054                5.59933684               42.81741411                0.00010000                0.80966752               -0.01369160               -2.09761709               -2.39166969               15.30861258                3.78297681
              12.44577024                5.31294938               42.78598631                0.00010000                0.99519370               -0.38848869               -2.67520388               -1.37670549               11.97610602                5.25649897
              13.45508441                5.04352848               42.69787349                0.00010000                0.75069975               -0.03865579               -1.29282627               -0.22493933                4.53380708                2.69838366
              14.46078423                4.77904332               42.51928854                0.00010000                0.56998185                0.22173081               -1.56223623                0.00941471                0.03510655                0.31100363
               4.69255287                8.55224416               43.22055352                0.00010000               -0.01733305               -0.13875404                0.26545899               -0.03068477                0.00694392                0.74466245
               5.69237954                8.29064633               43.03970124                0.00010000                0.01540382                0.09025699               -0.13614076               -0.01311340                0.13274455               -0.83424985
               6.69286094                8.02830036               42.86131879                0.00010000               -0.02701682                0.36240509               -0.53974277               -0.80281913                8.69892832               -2.73425464
               7.69183920                7.74948725               42.85157933                0.00010000               -0.07244014                0.32842256               -0.60028373               -1.66286558               17.68891024                0.07276966
               8.69141214                7.46646400               42.84921185                0.00010000                0.00754878                0.39899849               -0.96268887               -1.95480518               18.46378013                1.01241782
               9.69199017                7.17960571               42.85102282                0.00010000                0.12949764                0.41486798               -1.36375449               -2.20883924               18.93773549                1.73456881
              10.69400209                6.89031678               42.85436597                0.00010000                0.32654032                0.32883892               -1.78920374               -2.44078824               19.17108218                2.74561080
              11.69852098                6.59986775               42.85764686                0.00010000                0.74744989                0.14115199               -2.34311597               -2.63959181               19.03352183                4.31461851
              12.70895109                6.30921379               42.85560375                0.00010000                0.99676391               -0.24336564               -3.31543677               -1.50633566               13.47572263                6.95973070
              13.71845626                6.04432465               42.74560976                0.00010000                0.76113447                0.18178337               -1.47679782               -0.13472483                4.05905481                2.18273136
              14.72417378                5.78237672               42.55458968                0.00010000                0.57175202                0.43275175               -1.83960025                0.02116470                0.04948948               -0.35979984
               4.95270757                9.55124206               43.15939388                0.00010000                0.03810778               -0.06187379                0.07327042               -0.02942659                0.00303845                0.74864546
               5.95308864                9.29175093               42.97078406                0.00010000                0.08148951                0.12975202               -0.31850649                0.00439136               -0.03642774               -0.78873221
               6.95433736                9.03183069               42.78128564                0.00010000                0.14317202                0.33208959               -0.72258384               -0.84485325               10.50956214               -2.42463279
               7.95595208                8.75389578               42.80329055                0.00010000                0.15191212                0.44038553               -0.87767120               -1.61662429               21.21820702               -0.49254551
               8.95737560                8.47100722               42.82308972                0.00010000                0.15242940                0.44723998               -1.17485876               -1.70883487               21.41465287                0.59670649
               9.95900067                8.18429596               42.84389487                0.00010000                0.15617403                0.51586060               -1.53133470               -1.88482549               21.89979006                1.39997039
              10.96049908                7.89437205               42.86849003                0.00010000                0.22455136                0.53258667               -1.93923907               -2.18887659               22.66290422                2.39270866
              11.96349170                7.60215988               42.90039380                0.00010000                0.53437682                0.34403636               -2.43619112               -2.67432752               23.71680254                4.03334297
              12.97118662                7.30808207               42.94297050                0.00010000                0.78676415                0.09049694               -3.43901394               -1.64886572               14.64096910                7.60895734
              13.97922698                7.04716415               42.78823947                0.00010000                0.69583895                0.36333045               -1.64864859               -0.06890807                2.46363444                1.76782881
              14.98510339                6.78769835               42.58422790                0.00010000                0.58764122                0.59586709               -2.10592672                0.02669424                0.05721842               -0.87232387
               5.21094660               10.55100668               43.09858000                0.00010000                0.09321312                0.01315154               -0.11659004               -0.02907001               -0.01287628                0.67301688
               6.21187873               10.29324137               42.90227293                0.00010000                0.14362135                0.16930579               -0.50447192                0.00079815                0.01322932               -0.64058047
               7.21381902               10.03494215               42.70633457                0.00010000                0.42257302                0.31152829               -0.89415083               -0.87576787               12.23286227               -1.52589100
               8.22033019                9.75829496               42.75405333                0.00010000                0.65081194                0.24090653               -1.10059833               -1.19995398               24.31172164               -0.36407145
               9.22683526                9.47540880               42.79348151                0.00010000                0.52993241                0.39274569               -1.37879172               -1.10884834               24.19030215                0.26315538
              10.23092884                9.18992292               42.83189052                0.00010000                0.27626903                0.57774457               -1.71484233               -1.12693664               24.73042905                0.77963752
              11.23236064                8.90096852               42.87596808                0.00010000                0.01977869                0.75230014               -2.08953539               -1.46266609               25.97745479                1.42941586
              12.23132441                8.60674847               42.93374058                0.00010000               -0.06955691                0.83337171               -2.46096891               -2.11027305               28.64875116                2.60602373
              13.23096950                8.31102372               43.02552350                0.00010000                0.30687018                0.50924185               -2.44809102               -1.77997093               16.18773668                4.58980100
              14.23746181                8.05159126               42.82675243                0.00010000                0.63348778                0.48666973               -1.77000339               -0.10881265                0.88012572                1.25102378
              15.24363926                7.79429406               42.60899763                0.00010000                0.61774464                0.69197204               -2.32525892                0.01718077                0.00012814               -1.00629561
               5.46765680               11.55150509               43.03593839                0.00010000                0.15123419                0.04984027               -0.30489706                0.03421541                0.36330996                0.58368159
               6.46916914               11.29513704               42.83600799                0.00010000                0.20558066                0.18956719               -0.68943970                0.05684961                0.75540609               -0.51194068
               7.47176841               11.03806126               42.64371338                0.00010000                1.11586114                0.31191045               -1.07404558               -1.02621792               14.03276870               -0.88291959
               8.49148636               10.75871391               42.70892308                0.00010000                1.59011318                0.04189515               -1.29904708               -0.84433900               26.78982926               -0.28425030
               9.50357067               10.47886213               42.76185894                0.00010000                0.97079294                0.34533344               -1.57500624               -0.46961183               26.47531334                0.06993669
              10.51090222               10.19585085               42.81314841                0.00010000                0.54247640                0.59279338               -1.90668269               -0.47486572               27.04127052                0.36931253
              11.51442020                9.90941805               42.87082922                0.00010000                0.01644053                0.84495327               -2.27163318               -0.64522110               28.55846861                0.75777068
              12.51123103                9.61882731               42.94610538                0.00010000               -1.18378964                1.20788384               -2.53040332               -1.56689518               31.35626940                1.52510491
              13.49074441                9.31826690               43.05149669                0.00010000               -0.87253186                0.72431800               -2.28914127               -2.11899800               18.57934725                1.97613695
              14.49378039                9.05689754               42.85794038                0.00010000                0.46485028                0.53062817               -1.83949302               -0.20459761                2.16826501                0.94225128
              15.50004141                8.80153779               42.63483025                0.00010000                0.62610206                0.72437322               -2.45806278                0.10424024                0.76162954               -0.87214547
               2.92675512                1.64697734               44.62781529                1.00000000               -0.42363862               -0.47843225                1.64488072               -0.09178796               -1.18633005                1.11422859
               3.92251873                1.36106376               44.49048910                1.00000000               -0.35795702               -0.32448937                1.16925945               -0.05178183               -1.61436479                0.18936714
               4.91959598                1.07457491               44.34513868                1.00000000               -0.23149831               -0.17806289                0.66874093               -0.05902866               -1.68107321               -0.21126530
               5.91788876                0.78661614               44.20689236                1.00000000               -0.15325311               -0.01364919                0.16608877               -0.46002750               -1.26611526               -0.97247048
               6.91653091                0.48880301               44.07031219                0.00010000                0.19082419               -0.02100878               -0.45262302               -0.12736649               -0.90563187                0.21282289
               7.92170525                0.18513642               43.94194141                1.00000000                0.66977647                0.15820016               -0.92298641               -0.15524988               -0.30768898                0.02358948
               8.92992644               -0.11575730               43.81791325                1.00000000                0.93498562                0.23584911               -1.20534100               -0.03408581                0.39195482               -0.27902328
               9.94040496               -0.41024439               43.70229995                1.00000000                0.86930618                0.22048501               -1.11587538               -0.08687627                0.56047679               -0.02532049
              10.94731257               -0.69757218               43.57813570                1.00000000                0.54382923                0.24529788               -0.98815708               -0.08614150               -0.19734105                0.72999434
              11.95128154               -0.98233494               43.44475245                1.00000000                0.40434989                0.33433976               -1.18566551               -0.03672904               -0.68063648                0.07627633
              12.95539956               -1.26646379               43.31064263                1.00000000                0.41180198                0.42482024               -1.45583786               -0.04656340               -0.70637287               -0.68880484
               3.21175082                2.64219302               44.56733334                1.00000000               -0.35486951               -0.46476870                1.45091671               -0.01255976               -0.26620186                1.49672383
               4.20820213                2.35781886               44.43003227                1.00000000               -0.27606616               -0.29921111                0.97747508                0.02184375               -0.42157866                0.27576086
               5.20622950                2.07279428               44.29000479                1.00000000               -0.10138433               -0.14766262                0.48358737               -0.00688420               -0.36062308               -0.40342046
               6.20617444                1.78647965               44.15391382                1.00000000                0.48838040                0.02320749                0.00619255               -0.57283527                1.01064574               -1.34090567
               7.21599711                1.48859292               44.04087325                0.00010000                0.81292318               -0.08607968               -0.62083775               -0.20654770                1.98912067                0.54813791
               8.22243290                1.18671842               43.92324344                1.00000000                0.56394418                0.21344994               -1.07682796               -0.22064088                1.96165194                0.16049368
               9.22727599                0.88660119               43.80898387                1.00000000                0.40053680                0.37783591               -1.32180530               -0.10066165                2.80363568               -0.68532980
              10.23044364                0.59196046               43.70740165                1.00000000                0.26102188                0.36575335               -1.11400419               -0.13327968                3.11249694                0.17222664
              11.23249643                0.30488080               43.59970858                1.00000000                0.24582078                0.24662944               -0.84472952               -0.10432062                1.54112230                0.89389858
              12.23536005                0.02100846               43.46791630                1.00000000                0.32831749                0.32035345               -1.09799485                0.00386076                0.21058750                0.22792541
              13.23906278               -0.26221558               43.33404038                1.00000000                0.37027221                0.41220574               -1.36847675               -0.00175775                0.09526890               -0.78535492
               3.49525223                3.63768197               44.51514504                1.00000000               -0.28978925               -0.43912842                1.26555902               -0.01033950                0.00003152                1.87544262
               4.49235434                3.35507953               44.37152625                1.00000000               -0.22273626               -0.24573167                0.79507301                0.00858055                0.13594768                0.29707149
               5.49079751                3.07162166               44.23086682                1.00000000               -0.08604606               -0.06029036                0.30633030               -0.05125862                0.41597798               -1.02217117
               6.49063342                2.78708029               44.09268495                1.00000000                1.06818366                0.07829405               -0.19421518               -0.84791466                3.68532564               -1.81698262
               7.51216118                2.48708142               44.01691286                0.00010000                1.43253705               -0.06219670               -0.94537932               -1.76816138                5.26710190               -0.91484490
               8.51928416                2.18940542               43.90597592                0.00010000                0.52549950                0.27970092               -1.37033975               -1.61806603                3.39077058               -0.01913823
               9.52267117                1.89179942               43.79038707                1.00000000                0.00878012                0.50674340               -1.67383409               -1.44927996                5.24950346                0.54946804
              10.51945976                1.59707068               43.71551779                1.00000000               -0.32465066                0.47985645               -1.41822348               -0.99745319                6.32097282                0.63030822
              11.51617816                1.30736041               43.62467242                1.00000000               -0.05023125                0.14905254               -0.72008262               -0.45653518                3.25418200                1.65181922
              12.51845514                1.02407213               43.49411835                1.00000000                0.28171676                0.28141535               -1.01518197               -0.04730902                0.82080660                0.74051022
              13.52181249                0.74178033               43.35541379                1.00000000                0.33573556                0.38383240               -1.25914054               -0.00878714                0.38469458               -0.75300270
               3.77674890                4.63341045               44.46282524                1.00000000               -0.23148530               -0.40872501                1.07851528               -0.02166595                0.12245766                1.68359423
               4.77443404                4.35290423               44.31168654                1.00000000               -0.17726631               -0.18101094                0.61378030               -0.00626089                0.24503566                0.07795605
               5.77320357                4.07158848               44.16317998                1.00000000               -0.03388275                0.03267672                0.16047873               -0.12359591                1.12068947               -1.52638054
               6.77375639                3.78804553               44.02938745                0.00010000                0.25525866                0.16605301               -0.33749879               -1.05302632                4.99860244               -2.33844291
               7.77830874                3.48734899               43.95793415                0.00010000                0.57985951                0.18650813               -0.85140874               -2.63362836                8.00993621               -1.66654670
               8.78535358                3.19231244               43.88194072                0.00010000                0.61581936                0.25041664               -1.25736838               -2.58754316                7.73282493                0.16617089
               9.79062513                2.89673606               43.80322882                0.00010000                0.47900044                0.32848239               -1.47649053               -2.51086161                7.69187065                1.93356130
              10.79493359                2.60155759               43.72638385                0.00010000                0.28695707                0.25316483               -1.42638769               -1.97489969                8.30924789                1.50230408
              11.79636427                2.30786185               43.66179070                0.00010000                0.25301804                0.03078642               -0.70535184               -0.83883102                5.17221764                1.00621799
              12.79999395                2.02663677               43.52786149                1.00000000                0.35531814                0.05595254               -0.99231270               -0.09980412                0.96086443                1.83570630
              13.80347064                1.74546107               43.37968360                1.00000000                0.34766862                0.21366772               -1.18362284                0.00533819                0.20554832                0.10273430
               4.05583136                5.62950747               44.40727605                1.00000000               -0.17802593               -0.36455772                0.88209285               -0.04208432                0.24673520                1.32470029
               5.05405110                5.35145932               44.24885596                1.00000000               -0.13235325               -0.09259300                0.42763206               -0.04650190                0.39782417               -0.37378158
               6.05318429                5.07227519               44.09357061                0.00010000               -0.01193583                0.14217033               -0.01302904               -0.20273666                1.49282985               -1.87763040
               7.05381238                4.79040135               43.95685212                0.00010000                0.10187033                0.19216698               -0.47667768               -1.23683058                7.26935212               -1.74367398
               8.05522170                4.49081158               43.91655162                0.00010000                0.21669223                0.35053524               -0.82521470               -2.17890142               11.61987232               -0.12938410
               9.05814622                4.19441375               43.86415946                0.00010000                0.39935458                0.24748856               -1.20877985               -2.25446113               10.81307577                0.91028562
              10.06320879                3.89836907               43.80603133                0.00010000                0.53448786                0.14325614               -1.46603409               -2.30119988               10.44174997                1.78160810
              11.06883598                3.60213398               43.74529699                0.00010000                0.55567868                0.01716387               -1.53227180               -2.10935518                9.81318475                2.16311404
              12.07432236                3.30797613               43.67494819                0.00010000                0.50119268               -0.03151924               -1.60938694               -1.11893794                7.74817123                1.31289213
              13.07885984                3.02519118               43.57659163                0.00010000                0.49741477               -0.25063751               -0.95932703               -0.23445671                3.08247005                2.93479605
              14.08427066                2.74605368               43.41879780                0.00010000                0.54108228               -0.09083853               -1.12882365                0.07946644                0.10791564                0.99366884
               4.33200351                6.62611930               44.34810974                1.00000000               -0.12672350               -0.30122418                0.68002757               -0.04108422                0.09584513                0.99363551
               5.33073628                6.35105237               44.17988946                0.00010000               -0.08983547               -0.00241199                0.21829499               -0.06595623                0.42678510               -0.75297333
               6.33020681                6.07443188               44.01836354                0.00010000               -0.01264432                0.28591281               -0.21251921               -0.40063609                3.15306693               -2.38196719
               7.33048339                5.79188887               43.90449027                0.00010000                0.02557524                0.05785279               -0.26850553               -1.50471774               10.37435080                0.98101250
               8.33071831                5.49435969               43.88600161                0.00010000                0.11117381                0.34855949               -0.82819701               -2.25389713               14.51069590                0.82943147
               9.33270687                5.19726221               43.85172303                0.00010000                0.30813010                0.30348914               -1.23837721               -2.30499062               13.58221021                1.50002221
              10.33688091                4.89960118               43.81211282                0.00010000                0.52162744                0.15298491               -1.55974492               -2.39481385               13.10919691                2.25841408
              11.34313942                4.60190087               43.76657442                0.00010000                0.70236989               -0.01862259               -1.81275051               -2.20609748               12.33721188                2.82074924
              12.35092831                4.30723146               43.71140707                0.00010000                0.70439235               -0.17409195               -1.96374937               -1.37507102               10.53282856                3.31627785
              13.35722727                4.02162402               43.63336207                0.00010000                0.62033248               -0.25055529               -1.05944874               -0.36845825                4.56820420                3.07697706
              14.36333496                3.74364429               43.46415907                0.00010000                0.61076941               -0.13607756               -1.29629586                0.04039022                0.02309585                0.75987065
               4.60514353                7.62348298               44.28617252                0.00010000               -0.07241394               -0.22322714                0.47686453               -0.03408394                0.02903905                0.79884409
               5.60441939                7.35141108               44.10920992                0.00010000               -0.04042266                0.06008434                0.02355027               -0.04559220                0.31305190               -0.84123959
               6.60433507                7.07799345               43.93794467                0.00010000               -0.03145854                0.38555006               -0.41921756               -0.70741648                6.59539091               -2.69714069
               7.60379022                6.79155840               43.88642393                0.00010000                0.02176679                0.11633670               -0.34445261               -1.68738944               14.09621634                1.56426459
               8.60477041                6.49778277               43.86210451                0.00010000                0.15073538                0.35522407               -0.90786543               -2.15883954               15.92922503                1.25581691
               9.60680492                6.20048354               43.84363398                0.00010000                0.29517247                0.35380935               -1.33059741               -2.39350576               16.25261605                1.84106088
              10.61067386                5.90142877               43.82243581                0.00010000                0.51394155                0.23250908               -1.71980718               -2.53530166               16.00134576                2.68775869
              11.61708375                5.60176153               43.79621872                0.00010000                0.82119695                0.03408358               -2.11952329               -2.46394587               15.31232613                3.71166484
              12.62709780                5.30449429               43.75989801                0.00010000                0.89970418               -0.29229157               -2.50652169               -1.52822144               12.78457721                4.75969177
              13.63507784                5.02018008               43.68499691                0.00010000                0.69700546               -0.01095815               -1.29317337               -0.35243855                5.34823066                2.55537127
              14.64103791                4.74333213               43.50343660                0.00010000                0.59600682                0.13021817               -1.64066365                0.02385495                0.04249950               -0.03412700
               4.87546565                8.62165475               44.22325815                0.00010000               -0.01516827               -0.14342441                0.27675567               -0.03170054                0.00560239                0.73379863
               5.87531397                8.35225406               44.03818933                0.00010000                0.02227477                0.10477660               -0.16723839               -0.00952118                0.13036236               -0.83121903
               6.87591115                8.08214288               43.85557512                0.00010000                0.08161586                0.40242923               -0.61496080               -0.86090082                8.86798387               -2.72765626
               7.87694629                7.79421560               43.84499635                0.00010000                0.13526195                0.36136512               -0.72363521               -1.75445178               17.92691714               -0.02816317
               8.87861639                7.50146417               43.83906662                0.00010000                0.21222359                0.40736104               -1.07154648               -2.05616468               18.57371791                1.06602782
               9.88119076                7.20433840               43.83684953                0.00010000                0.31402525                0.42330482               -1.47094846               -2.31413054               19.03996392                1.82728609
              10.88489689                6.90425136               43.83589119                0.00010000                0.48021067                0.35559626               -1.89699614               -2.55085540               19.21783493                2.82452171
              11.89079497                6.60258254               43.83350566                0.00010000                0.85242196                0.18196249               -2.45128768               -2.69850497               18.83345739                4.33057471
              12.90194533                6.30138563               43.82194278                0.00010000                1.02728423               -0.20568214               -3.29760454               -1.61330353               14.42066934                6.58848077
              13.91134066                6.02140485               43.73049191                0.00010000                0.77813068                0.23107354               -1.55795907               -0.23520155                5.19586073                2.06311994
              14.91750794                5.74624866               43.53544426                0.00010000                0.61672879                0.42381878               -2.02196339                0.03309668                0.06418736               -0.68995676
               5.14331091                9.62061450               44.16013839                0.00010000                0.04299231               -0.06476559                0.07776311               -0.03147313                0.00558750                0.73743111
               6.14374083                9.35350661               43.96741187                0.00010000                0.09223012                0.14529168               -0.35806259                0.00877284               -0.03911449               -0.78521607
               7.14515551                9.08604204               43.77369189                0.00010000                0.28195286                0.36529685               -0.80228639               -0.92166962               10.63188403               -2.40671037
               8.14937989                8.79878571               43.79401578                0.00010000                0.41844014                0.43152491               -0.98133726               -1.75313051               21.44203746               -0.51556799
               9.15352431                8.50592999               43.81084009                0.00010000                0.41776166                0.41081232               -1.27721519               -1.81697462               21.58177914                0.62227220
              10.15773512                8.20894963               43.82802153                0.00010000                0.39441479                0.48857418               -1.64049234               -1.95934743               22.04119158                1.45635158
              11.16141261                7.90854069               43.84835584                0.00010000                0.41221333                0.54155861               -2.07626972               -2.23987849               22.74583068                2.45558027
              12.16597939                7.60540077               43.87478783                0.00010000                0.72984021                0.42089747               -2.65971268               -2.67716329               23.42965686                4.13346492
              13.17600941                7.30038065               43.90514586                0.00010000                0.97656945                0.12332331               -3.97886241               -1.68865887               15.61714543                8.10869525
              14.18551078                7.02480155               43.77108458                0.00010000                0.80014074                0.42137164               -1.79189668               -0.13223289                3.75966039                1.70592493
              15.19201223                6.75180851               43.56203950                0.00010000                0.65014509                0.64013551               -2.36002807                0.03520280                0.07689729               -1.13529471
               5.40905196               10.62035944               44.09738260                0.00010000                0.10099220                0.01306340               -0.12148066               -0.03052820               -0.01347594                0.66327441
               6.41006189               10.35515989               43.89700061                0.00010000                0.15733458                0.18601169               -0.55234724                0.00333933                0.01297419               -0.63791849
               7.41219866               10.08944882               43.69698895                0.00010000                0.59669174                0.34047123               -0.98090623               -0.99671939               12.33364519               -1.50437851
               8.42199572                9.80284610               43.74259661                0.00010000                0.99571552                0.15754434               -1.19422052               -1.33620303               24.51863485               -0.36354070
               9.43211297                9.50968042               43.77920244                0.00010000                0.86986939                0.31055136               -1.47743938               -1.18850421               24.37609503                0.27774371
              10.43939311                9.21410989               43.81415253                0.00010000                0.57676069                0.51495192               -1.82749074               -1.15683192               24.89372271                0.80429958
              11.44364818                8.91508254               43.85420157                0.00010000                0.30093176                0.72912475               -2.25350586               -1.43324806               26.10986966                1.46106461
              12.44541174                8.61100049               43.90739257                0.00010000                0.25616006                0.87263696               -2.79388231               -2.01817844               28.87643386                2.73656620
              13.44877138                8.30385210               43.99708705                0.00010000                0.59281988                0.66020304               -3.34600592               -1.67243551               17.13468216                5.41381183
              14.45726814                8.02983229               43.80815891                0.00010000                0.77133472                0.54697916               -1.95647938               -0.16743827                1.67990932                1.26065839
              15.46419808                7.75905137               43.58438018                0.00010000                0.69299343                0.76922115               -2.62541997                0.02159424                0.01674255               -1.17058506
               5.67309945               11.62087576               44.03281509                0.00010000                0.16187914                0.05163219               -0.31881308                0.03985616                0.35604606                0.57410653
               6.67471824               11.35722684               43.82884138                0.00010000                0.22177333                0.20669516               -0.74669289                0.06442009                0.75000437               -0.50739943
               7.67753491               11.09285146               43.63252726                0.00010000                1.38529946                0.34026388               -1.16960856               -1.23088658               14.11924591               -0.86221468
               8.70242423               10.80193659               43.69547355                0.00010000                2.04777647               -0.09095058               -1.39566825               -0.99267141               26.98830329               -0.29200717
               9.71849044               10.51214102               43.74559357                0.00010000                1.33860699                0.24605961               -1.67919221               -0.49664833               26.66296042                0.06883469
              10.72919637               10.21924867               43.79346533                0.00010000                0.86832997                0.51387871               -2.02508464               -0.47056564               27.20936273                0.37205597
              11.73585704                9.92312319               43.84719986                0.00010000                0.38249462                0.80406489               -2.44411798               -0.59887162               28.73442685                0.76660606
              12.73684626                9.62285351               43.91894690                0.00010000               -0.60640673                1.18530235               -2.91124836               -1.33347198               31.78350321                1.65524358
              13.72372891                9.31358471               44.02536260                0.00010000               -0.49417602                0.97326167               -3.05971504               -1.85986652               19.63612065                2.49335262
              14.72696274                9.03574113               43.83857073                0.00010000                0.51385198                0.59088438               -2.04315301               -0.35012921                2.86696634                0.98920007
              15.73400595                8.76719293               43.60879821                0.00010000                0.70432080                0.81415630               -2.77501278                0.12596742                0.80160085               -0.97017606
               3.05444843                1.71963055               45.64481579                1.00000000               -0.45314452               -0.51346312                1.76466700               -0.10242278               -1.20861017                1.12297622
               4.04991699                1.42439515               45.50241868                1.00000000               -0.38455820               -0.33643431                1.22048021               -0.05698605               -1.65249544                0.19329859
               5.04675727                1.12852462               45.35177807                1.00000000               -0.25754497               -0.16896307                0.65906399               -0.06830671               -1.73704125               -0.20976622
               6.04476609                0.83069930               45.20820477                1.00000000               -0.24573002                0.03530322                0.09375600               -0.54024979               -1.38038679               -0.96153888
               7.04184267                0.52109090               45.06533002                0.00010000                0.08191368                0.04981730               -0.53066305               -0.16597219               -1.04341244                0.19583445
               8.04640436                0.20462075               44.93198578                1.00000000                0.65633722                0.23190851               -1.05091028               -0.18697090               -0.35845105               -0.00444271
               9.05496941               -0.10952948               44.80481264                1.00000000                1.04000869                0.32807706               -1.41511745               -0.02902672                0.56640307               -0.36797251
              10.06720453               -0.41606716               44.69027205                1.00000000                1.03415337                0.28200463               -1.32439241               -0.07601569                0.96713186               -0.13067259
              11.07565248               -0.71236279               44.56814550                1.00000000                0.62768105                0.23562713               -0.99693011               -0.11096696                0.12083640                0.77397704
              12.07975816               -1.00511352               44.43277008                1.00000000                0.41703967                0.33339984               -1.20913393               -0.03877104               -0.60318679                0.08525456
              13.08399327               -1.29695088               44.29588630                1.00000000                0.42351172                0.43174633               -1.50469302               -0.05842643               -0.66481496               -0.64461388
               3.34865961                2.71449592               45.58232515                1.00000000               -0.37595127               -0.49823872                1.55619457               -0.01074292               -0.28137186                1.50328700
               4.34490009                2.42103081               45.43997347                1.00000000               -0.28687404               -0.31038605                1.01380222                0.02774016               -0.45010653                0.28244237
               5.34292212                2.12683499               45.29470685                1.00000000               -0.09098215               -0.13824757                0.45524648               -0.00366413               -0.39324877               -0.39536514
               6.34308045                1.83105233               45.15352599                1.00000000                0.51500473                0.06902441               -0.09028437               -0.66191887                0.90932255               -1.33767096
               7.35322222                1.52158907               45.03391036                1.00000000                0.83821945               -0.03909438               -0.77074105               -0.28270171                1.84499100                0.47368191
               8.35984484                1.20693984               44.91135302                1.00000000                0.59004413                0.29830228               -1.30498889               -0.28417241                1.97938255                0.07640185
               9.36502310                0.89375129               44.79430861                1.00000000                0.40080966                0.50670893               -1.64722658               -0.13047500                3.18452137               -0.87064699
              10.36786103                0.58675289               44.69526256                1.00000000                0.20214440                0.50533577               -1.38343984               -0.17249371                3.80403258               -0.08878930
              11.36906599                0.28999348               44.59149672                1.00000000                0.19017304                0.22963588               -0.77943011               -0.17856202                1.90158608                0.91769369
              12.37166449               -0.00177952               44.45710982                1.00000000                0.30901896                0.31083043               -1.05778440                0.00259287                0.22372248                0.23189261
              13.37524637               -0.29263342               44.32045934                1.00000000                0.35818764                0.41118580               -1.35308217               -0.01065845                0.09759380               -0.72439566
               3.64116380                3.70966578               45.52819159                1.00000000               -0.30310777               -0.46791800                1.35094391               -0.01042650               -0.00936681                1.87966842
               4.63813272                3.41818743               45.37956215                1.00000000               -0.22506712               -0.25256239                0.81391939                0.00937466                0.11504735                0.30726401
               5.63666246                3.12575967               45.23371457                1.00000000               -0.06795478               -0.04519354                0.26039314               -0.05874545                0.38284422               -0.99282310
               6.63677363                2.83207979               45.09026233                1.00000000                1.18193350                0.12306937               -0.29726014               -0.99226494                3.51547633               -1.80132982
               7.66030113                2.52030901               45.00646457                0.00010000                1.58925309                0.01419068               -1.14952231               -2.01534075                5.08259472               -0.82052744
               8.66855869                2.21058680               44.89073614                0.00010000                0.61228685                0.44312806               -1.68505192               -1.86881813                3.43293159                0.07852732
               9.67254686                1.90060470               44.77156575                1.00000000               -0.05231103                0.76565019               -2.12374052               -1.71667056                5.67878401                0.61034615
              10.66751247                1.59403955               44.69928448                1.00000000               -0.59666090                0.78019710               -2.00281544               -1.29421639                7.41255872                0.55832138
              11.66061365                1.29222993               44.61805382                1.00000000               -0.25377761                0.10880958               -0.58247181               -0.68418827                3.82573051                1.58426046
              12.66243692                1.00110309               44.48441770                1.00000000                0.24371241                0.25522445               -0.91620363               -0.05469588                0.77663794                0.70552941
              13.66548789                0.71127283               44.34322491                1.00000000                0.30509793                0.36425609               -1.18102493               -0.01794453                0.36591605               -0.69162666
               3.93140777                4.70513756               45.47391080                1.00000000               -0.24140757               -0.43031711                1.14395067               -0.02389624                0.11861604                1.67954406
               4.92899370                4.41597956               45.31783409                1.00000000               -0.17764588               -0.18022924                0.61626010               -0.00898372                0.24362091                0.08632933
               5.92785485                4.12593112               45.16447860                1.00000000               -0.01539439                0.05606309                0.09423954               -0.13635956                1.10373828               -1.49073196
               6.92868581                3.83351372               45.02540772                0.00010000                0.32767700                0.21351430               -0.46678587               -1.17349982                4.95641601               -2.28693306
               7.93440839                3.52187288               44.94853169                0.00010000                0.67434878                0.31621010               -1.04057654               -2.89781336                8.00670597               -1.36642272
               8.94217278                3.21580240               44.86823161                0.00010000                0.64142704                0.45939803               -1.49922098               -2.88075296                7.86316219                0.49348302
               9.94723693                2.90906430               44.78723767                0.00010000                0.40893448                0.61142532               -1.74863739               -2.84373493                8.04090816                2.29103232
              10.95035147                2.60235683               44.71134180                0.00010000                0.05408781                0.52048103               -1.59958087               -2.50200980                9.13247812                1.70225325
              11.94831869                2.29216968               44.65537047                0.00010000                0.05880992                0.20567678               -0.56832728               -1.10129287                5.66615095                0.41798711
              12.95152767                2.00332497               44.51862518                0.00010000                0.31146468                0.01879909               -0.84209157               -0.07150321                0.89617654                1.75677731
              13.95454798                1.71465170               44.36855307                1.00000000                0.30203131                0.10844857               -1.04234553                0.05392911                0.18279137                0.12689818
               4.21900188                5.70105943               45.41631880                1.00000000               -0.18423860               -0.37923089                0.93002294               -0.04601360                0.24994426                1.31319206
               5.21715949                5.41458284               45.25307740                1.00000000               -0.13003871               -0.08319770                0.41588060               -0.05210474                0.40717598               -0.37793098
               6.21640110                5.12688093               45.09311320                0.00010000                0.01011857                0.17486238               -0.08361749               -0.21960620                1.49689918               -1.86439900
               7.21736186                4.83635008               44.95141871                0.00010000                0.18275389                0.22490225               -0.61815046               -1.32064461                7.33753017               -1.49538864
               8.22005618                4.52663321               44.90755642                0.00010000                0.31951761                0.46099817               -0.98509714               -2.32202181               11.73137426                0.14407600
               9.22375222                4.21977476               44.85123388                0.00010000                0.45307785                0.40115112               -1.39154381               -2.40597462               10.96619058                1.19712939
              10.22911774                3.91283321               44.79066055                0.00010000                0.53073384                0.30839083               -1.61995667               -2.48514192               10.75180239                2.01757703
              11.23436689                3.60444918               44.72976220                0.00010000                0.42509559                0.16390013               -1.57917460               -2.39413688               10.21521472                2.17833868
              12.23761965                3.29634347               44.65957479                0.00010000                0.20789661                0.30948120               -1.46130902               -1.33715200                8.40441463                0.69883615
              13.23852482                3.00147907               44.56775233                0.00010000                0.31466765               -0.25464679               -0.80496745               -0.33841310                3.48847606                2.81185440
              14.24391300                2.71344181               44.40821100                0.00010000                0.53881788               -0.30754939               -1.00405505                0.16302883                0.09858516                0.81481990
               4.50344068                6.69755294               45.35507086                1.00000000               -0.13105740               -0.31069155                0.71539524               -0.04224883                0.08699561                0.98026710
               5.50213011                6.41431560               45.18196814                0.00010000               -0.08725918                0.01191411                0.19579984               -0.06940333                0.43212101               -0.75875921
               6.50169550                6.12942836               45.01586493                0.00010000                0.01952627                0.32736320               -0.29499635               -0.43882372                3.37428963               -2.38054994
               7.50252063                5.83801177               44.90138953                0.00010000                0.14238877                0.08782311               -0.34683971               -1.52799306               10.52887405                1.26789775
               8.50454327                5.53109285               44.87708038                0.00010000                0.26663308                0.42226796               -0.97132750               -2.31389546               14.51119202                1.06044631
               9.50785329                5.22382542               44.83868577                0.00010000                0.41582037                0.39592802               -1.37984378               -2.39308431               13.72992579                1.73498726
              10.51285968                4.91523211               44.79604088                0.00010000                0.55525908                0.24694313               -1.66161229               -2.51446368               13.34956414                2.41672650
              11.51895848                4.60563483               44.74845284                0.00010000                0.58430380                0.10948564               -1.81381858               -2.36374202               12.65996912                2.74839506
              12.52454576                4.29835930               44.69268046                0.00010000                0.43512973                0.06320208               -1.79152427               -1.61694318               11.31001517                2.97657407
              13.52766107                3.99823203               44.62319506                0.00010000                0.46686660               -0.19864995               -0.98533609               -0.49364890                5.13620475                2.88642844
              14.53388309                3.70850072               44.45133839                0.00010000                0.62220183               -0.31831096               -1.30849901                0.06896073                0.02576823                0.33514411
               4.78463158                7.69484560               45.29105674                0.00010000               -0.07355724               -0.22993377                0.50263117               -0.03435361                0.02437091                0.78732818
               5.78389600                7.41482112               45.10930813                0.00010000               -0.03515542                0.07521997               -0.00547938               -0.04388531                0.31305405               -0.83651108
               6.78392847                7.13342819               44.93335992                0.00010000                0.06207578                0.42858277               -0.50486913               -0.74982437                6.86093294               -2.69201590
               7.78513752                6.83810654               44.88228928                0.00010000                0.20180740                0.16601861               -0.49888481               -1.69921069               14.35857918                1.57071738
               8.78796462                6.53507857               44.85243070                0.00010000                0.33068714                0.39780653               -1.03559752               -2.19615851               15.97290724                1.41181889
               9.79175126                6.22769332               44.82975976                0.00010000                0.45272206                0.39692256               -1.45161117               -2.45974545               16.40594579                2.02554470
              10.79701906                5.91777207               44.80481543                0.00010000                0.61068013                0.28275365               -1.80457896               -2.61057290               16.19568893                2.81152836
              11.80396486                5.60663889               44.77502364                0.00010000                0.78322645                0.11376515               -2.11018510               -2.49922462               15.52744773                3.63503103
              12.81268359                5.29760751               44.73585588                0.00010000                0.72727832               -0.13118772               -2.30225100               -1.66501727               13.67240901                4.24472779
              13.81851043                4.99750607               44.67201003                0.00010000                0.60356309                0.06336765               -1.31891617               -0.46604989                6.11543852                2.34247592
              14.82475485                4.70707559               44.48647527                0.00010000                0.62444167                0.07369823               -1.79451412                0.04043903                0.05958554               -0.51354506
               5.06280256                8.69295427               45.22608864                0.00010000               -0.01327523               -0.14896834                0.29269323               -0.03138722                0.00791747                0.72519120
               6.06266981                8.41582000               45.03635647                0.00010000                0.03055167                0.12070983               -0.20221794               -0.00486979                0.12954652               -0.82532405
               7.06341360                8.13800002               44.84901958                0.00010000                0.21081143                0.44272332               -0.70179734               -0.90226038                9.03741756               -2.71405374
               8.06688604                7.84133214               44.83710663                0.00010000                0.38098612                0.39388127               -0.86065643               -1.82219631               18.20214908               -0.08726634
               9.07103332                7.53904898               44.82778092                0.00010000                0.45394221                0.41191394               -1.19403297               -2.12637252               18.76048704                1.16142090
              10.07596489                7.23176387               44.82160385                0.00010000                0.53346669                0.42133362               -1.58225320               -2.38021520               19.22824989                1.96557228
              11.08170265                6.92088719               44.81642605                0.00010000                0.65868298                0.37006041               -1.99062884               -2.61117008               19.37193026                2.93140547
              12.08913854                6.60791013               44.80862110                0.00010000                0.93377871                0.21516902               -2.49222037               -2.69108440               18.84183502                4.29614806
              13.10037823                6.29573555               44.78965166                0.00010000                0.98667249               -0.12479056               -3.10001252               -1.69307830               15.46006342                5.92423001
              14.10887199                5.99949938               44.71445058                0.00010000                0.75873044                0.30547906               -1.66091794               -0.33723744                6.28676850                1.89033190
              15.11555284                5.70997468               44.51415041                0.00010000                0.66808428                0.44904754               -2.26752530                0.04636224                0.08418453               -1.09908498
               5.33827236                9.69186624               45.16094914                0.00010000                0.04804985               -0.06793969                0.08663170               -0.03116727                0.00789050                0.72841096
               6.33875286                9.41723532               44.96362281                0.00010000                0.10493845                0.16167449               -0.40339611                0.01392331               -0.03978616               -0.78058068
               7.34037113                9.14228266               44.76523992                0.00010000                0.44458897                0.40095948               -0.89422151               -0.98844135               10.76950562               -2.38434125
               8.34764463                8.84598416               44.78366380                0.00010000                0.73171520                0.41171164               -1.09435992               -1.86812268               21.71432842               -0.50009706
               9.35500543                8.54331685               44.79754542                0.00010000                0.73320567                0.35806038               -1.38812931               -1.90481240               21.82487400                0.68560547
              10.36230875                8.23611999               44.81108503                0.00010000                0.68219828                0.44006189               -1.74825279               -2.01521469               22.27025817                1.55004843
              11.36864940                7.92517328               44.82696464                0.00010000                0.64930343                0.52293028               -2.19058670               -2.27811938               22.90855604                2.53379187
              12.37529482                7.61094227               44.84719955                0.00010000                0.92916868                0.47052974               -2.82245283               -2.66162622               23.16882826                4.15975430
              13.38723277                7.29511170               44.86339325                0.00010000                1.11158655                0.16738400               -4.14888104               -1.74040173               16.77855543                8.04641952
              14.39752655                7.00361565               44.75240154                0.00010000                0.87493649                0.49094489               -1.95172595               -0.20801397                5.24593082                1.60590244
              15.40473150                6.71605654               44.53702733                0.00010000                0.72049511                0.70744878               -2.66176771                0.04302537                0.09787148               -1.44266886
               5.61144105               10.69159547               45.09615039                0.00010000                0.10908085                0.01279977               -0.12352331               -0.03155842               -0.01335934                0.65369636
               6.61253186               10.41905349               44.89122598                0.00010000                0.17274410                0.20361013               -0.60500742                0.00639664                0.01560965               -0.63378070
               7.61489593               10.14601921               44.68671645                0.00010000                0.79787702                0.37288408               -1.07981666               -1.11685498               12.45844751               -1.48073156
               8.62848940                9.84956637               44.73016892                0.00010000                1.39526564                0.05678557               -1.29803572               -1.46337714               24.78441354               -0.34265654
               9.64280124                9.54621018               44.76393272                0.00010000                1.26573823                0.20698529               -1.58230375               -1.25842917               24.64249300                0.31562525
              10.65380416                9.24056511               44.79534070                0.00010000                0.92583738                0.42731865               -1.93428301               -1.18449756               25.14770349                0.85292477
              11.66131799                8.93134579               44.83089796                0.00010000                0.60817197                0.67901537               -2.39161503               -1.41333050               26.29461243                1.49814179
              12.66596760                8.61732073               44.87786294                0.00010000                0.57894101                0.89406304               -3.06137500               -1.94095131               28.87855541                2.77350241
              13.67289681                8.29908323               44.95860338                0.00010000                0.88996371                0.82355848               -4.29524195               -1.56961138               18.33206386                5.98670256
              14.68376688                8.00931828               44.78762284                0.00010000                0.93173815                0.61211225               -2.15531743               -0.24010041                2.95368086                1.24904808
              15.69153157                7.72412366               44.55648923                0.00010000                0.77646985                0.86208360               -2.96633438                0.02488656                0.02975953               -1.35655313
               5.88272515               11.69212223               45.02956213                0.00010000                0.17319060                0.05267592               -0.33081480                0.04693910                0.34850194                0.56491616
               6.88445705               11.42130752               44.82107414                0.00010000                0.23980012                0.22540312               -0.80995023                0.07342497                0.74682873               -0.50206459
               7.88752115               11.14974034               44.62032121                0.00010000                1.68645317                0.37211316               -1.27869226               -1.44686067               14.23222616               -0.84052052
               8.91818612               10.84711987               44.68100972                0.00010000                2.56584785               -0.24464966               -1.50572031               -1.14451741               27.24791722               -0.29285582
               9.93883811               10.54745655               44.72827509                0.00010000                1.76485366                0.12463701               -1.79160961               -0.51898918               26.93466760                0.07669008
              10.95348319               10.24466637               44.77264672                0.00010000                1.23945314                0.41012541               -2.13934446               -0.46724571               27.48003872                0.38220381
              11.96362717                9.93875359               44.82194686                0.00010000                0.76275838                0.74077935               -2.58962452               -0.56122402               28.95387394                0.76486849
              12.96873836                9.62882353               44.88788041                0.00010000                0.01079096                1.15028014               -3.25466555               -1.08146039               32.03962974                1.67544484
              13.96384299                9.31158287               44.99030239                0.00010000               -0.05271236                1.24996410               -3.99420877               -1.55366395               20.89623754                3.04167809
              14.96768411                9.01585790               44.81707732                0.00010000                0.58877465                0.65396152               -2.26087752               -0.52250949                3.97631392                1.02415635
              15.97561848                8.73329821               44.57933000                0.00010000                0.79343714                0.91745532               -3.13076269                0.15272195                0.84101176               -1.08286805
               3.18737714                1.79441815               46.66310863                1.00000000               -0.48705992               -0.55351889                1.90183660               -0.11483983               -1.22055837                1.12373304
               4.18250654                1.48982015               46.51489870                1.00000000               -0.41540406               -0.34959125                1.27825201               -0.06363064               -1.67449969                0.19488102
               5.17906906                1.18452203               46.35831996                1.00000000               -0.28887324               -0.15715481                0.64873061               -0.07956788               -1.77002998               -0.20863057
               6.17672908                0.87674292               46.20876748                1.00000000               -0.35937036                0.09257517                0.01663386               -0.60531931               -1.42946595               -0.94565787
               7.17188165                0.55555903               46.05969893                0.00010000               -0.08377325                0.13729809               -0.58501578               -0.20266634               -1.08854448                0.17665708
               8.17505361                0.22631309               45.92092321                1.00000000                0.55432900                0.31830050               -1.14058718               -0.22651792               -0.37444034               -0.02028031
               9.18296823               -0.10210870               45.78961090                1.00000000                1.06805593                0.45438396               -1.60828549               -0.04873282                0.74642385               -0.45358919
              10.19641473               -0.42283885               45.67581210                1.00000000                1.21315187                0.40111052               -1.61011851               -0.04217311                1.46585212               -0.29135202
              11.20723127               -0.72879507               45.55819710                1.00000000                0.75311390                0.21214245               -0.97009974               -0.17856151                0.58121888                0.82319687
              12.21147701               -1.02930932               45.42056977                1.00000000                0.43197718                0.33080119               -1.22805394               -0.04586584               -0.52511965                0.09051601
              13.21587081               -1.32850213               45.28054877                1.00000000                0.43938047                0.44600344               -1.57357425               -0.07480160               -0.62871566               -0.60293964
               3.49082675                2.78888297               46.59845723                1.00000000               -0.40084507               -0.53642322                1.67780919               -0.00854136               -0.29295230                1.49969725
               4.48681830                2.48632424               46.45030832                1.00000000               -0.30073740               -0.32279788                1.05548001                0.03466431               -0.47198633                0.28594058
               5.48481200                2.18295049               46.29910972                1.00000000               -0.08304557               -0.12642935                0.42301124                0.00147917               -0.41891726               -0.38661536
               6.48515738                1.87766867               46.15210814                1.00000000                0.51289506                0.12145234               -0.20001727               -0.72773024                0.82479011               -1.32185728
               7.49506990                1.55693201               46.02545843                1.00000000                0.82324571                0.02452516               -0.91343627               -0.33574792                1.70608457                0.40622155
               8.50162230                1.22949610               45.89714367                1.00000000                0.59934885                0.38921438               -1.52722098               -0.33544355                1.96802368                0.01465034
               9.50705688                0.90243514               45.77603933                1.00000000                0.38569434                0.65929937               -2.01916329               -0.17967786                3.59830965               -1.04350629
              10.50933618                0.58117226               45.67973285                1.00000000                0.08120074                0.74983597               -1.83560183               -0.21503251                4.83063749               -0.53816176
              11.50868089                0.27332636               45.58411997                1.00000000                0.07678485                0.19834682               -0.67796331               -0.34226473                2.48922384                0.94277882
              12.51087188               -0.02600131               45.44676062                1.00000000                0.28173578                0.29883382               -1.00499644               -0.00143278                0.23091250                0.23179605
              13.51431561               -0.32404210               45.30697874                1.00000000                0.34437248                0.41781004               -1.35374626               -0.02179924                0.09246275               -0.66477420
               3.79232377                3.78368969               46.54216392                1.00000000               -0.31914608               -0.50044227                1.45009969               -0.01015550               -0.01827687                1.87158106
               4.78913231                3.48336419               46.38780464                1.00000000               -0.22847773               -0.26043327                0.83626980                0.01120598                0.09553250                0.31407091
               5.78775421                3.18199345               46.23607468                1.00000000               -0.04696819               -0.02876386                0.20871761               -0.06497617                0.35518411               -0.96177545
               6.78819294                2.87917196               46.08673974                1.00000000                1.27925239                0.17409086               -0.41560285               -1.11348353                3.33637317               -1.77370388
               7.81333926                2.55604954               45.99392241                0.00010000                1.73243350                0.09983371               -1.35744711               -2.22627493                4.84758645               -0.67488963
               8.82284161                2.23409738               45.87227488                1.00000000                0.71796290                0.60941321               -1.99822525               -2.13418496                3.40703898                0.27228767
               9.82769852                1.91107729               45.74791226                1.00000000               -0.08093734                1.05133798               -2.58890702               -2.03316438                5.98583861                0.81093623
              10.82122287                1.59215787               45.67546149                1.00000000               -1.00694887                1.19763404               -2.98178687               -1.78956282                9.06990736                0.63873387
              11.80755954                1.27517187               45.61302298                1.00000000               -0.62030299                0.06871309               -0.40328017               -1.08837503                4.86129236                1.47512033
              12.80881681                0.97666735               45.47579427                1.00000000                0.19784304                0.22194987               -0.79117559               -0.07274026                0.71462051                0.65973407
              13.81151640                0.67985407               45.33179329                1.00000000                0.26995958                0.35275188               -1.11620128               -0.03357431                0.33543623               -0.62893667
               4.09127463                4.77887412               46.48570426                1.00000000               -0.25359721               -0.45392202                1.21965117               -0.02639061                0.11335729                1.66519502
               5.08873866                4.48111557               46.32401175                1.00000000               -0.17849625               -0.17987748                0.61979912               -0.01154990                0.23826835                0.09299724
               6.08770471                4.18237521               46.16506477                1.00000000                0.00464828                0.08037175                0.02066188               -0.14691717                1.08202174               -1.44703409
               7.08883162                3.88115048               46.02005173                0.00010000                0.39571379                0.26699041               -0.61209314               -1.27598494                4.90786496               -2.21926395
               8.09561898                3.55892869               45.93712261                0.00010000                0.75396114                0.45474336               -1.25459875               -3.13856853                8.00423786               -0.98837519
               9.10391085                3.24168436               45.85195630                0.00010000                0.63570605                0.69023963               -1.76687587               -3.19712510                8.01063371                0.95432508
              10.10833310                2.92346190               45.76825608                0.00010000                0.27697523                0.94200518               -2.07362290               -3.22707116                8.50308404                2.85479029
              11.10945035                2.60512494               45.69439223                0.00010000               -0.29645973                0.82159177               -1.78471756               -3.28790555               10.23082553                2.30091632
              12.10240391                2.27470062               45.65042415                0.00010000               -0.23577371                0.47354953               -0.41056617               -1.49131342                6.37461365               -0.22867521
              13.10473488                1.97843769               45.51101966                0.00010000                0.24333921                0.00955179               -0.66051554               -0.02556682                0.84088533                1.62955650
              14.10727069                1.68301294               45.35883669                1.00000000                0.25358149               -0.01446542               -0.91744454                0.14795637                0.15650516                0.10920571
               4.38731305                5.77461125               46.42587651                1.00000000               -0.19128300               -0.39437127                0.98536625               -0.05074952                0.25002107                1.29655727
               5.38540022                5.47976664               46.25717357                1.00000000               -0.12660461               -0.07345612                0.40070619               -0.05822017                0.41469413               -0.38064386
               6.38478096                5.18360088               46.09189826                0.00010000                0.03597721                0.20994738               -0.16555397               -0.23441820                1.49736060               -1.84397298
               7.38611976                4.88451177               45.94448911                0.00010000                0.26265266                0.26128830               -0.76824867               -1.37213382                7.40960035               -1.17293294
               8.39003401                4.56514440               45.89684968                0.00010000                0.41230669                0.58828217               -1.17027067               -2.42913360               11.87910208                0.48332895
               9.39436590                4.24790217               45.83632859                0.00010000                0.48412564                0.58758612               -1.60630815               -2.53964843               11.18655772                1.59134182
              10.39971652                3.92991739               45.77363220                0.00010000                0.49300707                0.51594657               -1.80350848               -2.67702242               11.20176628                2.39987155
              11.40422604                3.60858970               45.71371349                0.00010000                0.23520000                0.32411951               -1.64814647               -2.75128352               10.85617168                2.31922711
              12.40442052                3.28464286               45.64572201                0.00010000               -0.21164455                0.78906181               -1.33212953               -1.58744150                9.25102914                0.09075845
              13.39999315                2.97685839               45.56049229                0.00010000                0.04522500               -0.16713986               -0.64661709               -0.42597715                3.93986293                2.62217801
              14.40532502                2.67956476               45.39871670                0.00010000                0.53318751               -0.54650173               -0.92870056                0.28528585                0.09936465                0.47069882
               4.67994885                6.77098669               46.36241764                1.00000000               -0.13642295               -0.31997421                0.75751237               -0.04326845                0.07564221                0.96690257
               5.67858462                6.47964645               46.18380546                0.00010000               -0.08388190                0.02629436                0.17052524               -0.07177356                0.43337003               -0.75995613
               6.67827121                6.18657416               46.01246361                0.00010000                0.06304015                0.36988034               -0.39434182               -0.47392900                3.63282177               -2.37272449
               7.67984543                5.88637625               45.89755347                0.00010000                0.26873455                0.13719397               -0.42653674               -1.50542846               10.73901231                1.56702449
               8.68364590                5.57069433               45.86657506                0.00010000                0.42497317                0.50871018               -1.13997039               -2.31080483               14.53845270                1.35225223
               9.68834489                5.25343609               45.82412615                0.00010000                0.52296096                0.50870917               -1.54676007               -2.43701447               13.96645463                2.05375130
              10.69410512                4.93378083               45.77888057                0.00010000                0.56771637                0.36783837               -1.78599612               -2.61107662               13.73862794                2.66276435
              11.69969922                4.61160733               45.73029804                0.00010000                0.41406348                0.28520909               -1.83540868               -2.54663786               13.21024413                2.74678068
              12.70238639                4.29048185               45.67557658                0.00010000                0.07971083                0.38874004               -1.65829227               -1.86866846               12.23693445                2.68855877
              13.70129343                3.97509489               45.61365535                0.00010000                0.25886372               -0.05421557               -0.94167233               -0.58124409                5.73525394                2.62866881
              14.70756367                3.67208290               45.43798909                0.00010000                0.62702354               -0.46577730               -1.42249845                0.09750666                0.04418366               -0.26975069
               4.96912817                7.76821177               46.29622515                0.00010000               -0.07508827               -0.23602581                0.53407299               -0.03494891                0.01971125                0.77733822
               5.96837729                7.48029253               46.10910034                0.00010000               -0.02777961                0.08932244               -0.03767103               -0.04119692                0.31167292               -0.82631456
               6.96857258                7.19099849               45.92784729                0.00010000                0.17568663                0.47038304               -0.60305376               -0.76993789                7.11661918               -2.67599730
               7.97189102                6.88725565               45.87644624                0.00010000                0.40927507                0.23597538               -0.68219544               -1.66486916               14.65264488                1.57183599
               8.97675808                6.57531861               45.84139256                0.00010000                0.53240442                0.44417722               -1.18340055               -2.17481435               16.09909950                1.62156139
               9.98253911                6.25807636               45.81460175                0.00010000                0.62828363                0.44442459               -1.59131676               -2.46393547               16.65395346                2.27353791
              10.98932375                5.93727416               45.78634423                0.00010000                0.70265770                0.34747178               -1.89767159               -2.62846782               16.54042184                2.99061576
              11.99659226                5.61429389               45.75401502                0.00010000                0.71179205                0.23611365               -2.09876534               -2.50748255               15.97940245                3.59068933
              13.00355959                5.29241766               45.71385299                0.00010000                0.50874771                0.09255012               -2.12446144               -1.77945405               14.65846520                3.80146432
              14.00676722                4.97577408               45.65861859                0.00010000                0.48697665                0.18625453               -1.37405387               -0.54423034                6.85302706                2.07542164
              15.01329913                4.67024921               45.46754632                0.00010000                0.65319095                0.08159959               -2.03352592                0.05892891                0.08603389               -1.08745208
               5.25508834                8.76626618               46.22911202                0.00010000               -0.01143826               -0.15454004                0.31438651               -0.03366694                0.01081434                0.71902691
               6.25497396                8.48143290               46.03414497                0.00010000                0.04104967                0.13664749               -0.24239975               -0.00036562                0.13067275               -0.81677843
               7.25590934                8.19598182               45.84153918                0.00010000                0.36269815                0.48299262               -0.80061694               -0.92025438                9.21199121               -2.69044933
               8.26222792                7.89109576               45.82778322                0.00010000                0.67097867                0.42329110               -1.01002536               -1.84670031               18.51736937               -0.09510228
               9.26932891                7.57957788               45.81518597                0.00010000                0.74413516                0.40858477               -1.33620576               -2.14643461               19.02810129                1.30150391
              10.27711063                7.26232458               45.80520446                0.00010000                0.79946648                0.40686934               -1.70607798               -2.38328252               19.51562362                2.15599654
              11.28531824                6.94073027               45.79607862                0.00010000                0.86477203                0.37352300               -2.07780923               -2.59247589               19.66622107                3.07609111
              12.29440607                6.61632960               45.78366126                0.00010000                0.99994413                0.25300710               -2.47991247               -2.60311679               19.11130534                4.22986741
              13.30531712                6.29233286               45.75994253                0.00010000                0.90856022               -0.00301689               -2.83840864               -1.73453417               16.56722323                5.19348706
              14.31257727                5.97881998               45.69727355                0.00010000                0.72374264                0.39866298               -1.77862767               -0.42949308                7.28113918                1.67891814
              15.31979197                5.67371490               45.49009375                0.00010000                0.72147032                0.51835486               -2.55989631                0.06043871                0.10451972               -1.53947470
               5.53812139                9.76512096               46.16187102                0.00010000                0.05329460               -0.07228982                0.09895348               -0.03228594                0.00727515                0.72087631
               6.53865434                9.48302548               45.95934395                0.00010000                0.11916204                0.18000252               -0.45358880                0.01857192               -0.03803642               -0.77326038
               7.54050463                9.20065834               45.75580746                0.00010000                0.63533091                0.43855391               -0.99692637               -1.03943398               10.92872824               -2.35473296
               8.55136095                8.89572147               45.77212858                0.00010000                1.10479681                0.37756462               -1.22106992               -1.94641206               22.04063758               -0.44533222
               9.56260057                8.58349030               45.78307750                0.00010000                1.11800557                0.28426870               -1.51602581               -1.95227959               22.14913445                0.79081848
              10.57372107                8.26621374               45.79305648                0.00010000                1.04343227                0.36410553               -1.86362670               -2.02371856               22.60053168                1.68792570
              11.58346921                7.94474462               45.80454411                0.00010000                0.96031366                0.46664392               -2.28501697               -2.25798795               23.17609224                2.64036170
              12.59292734                7.61935403               45.81833877                0.00010000                1.14546586                0.47300351               -2.89996054               -2.57579667               23.10829593                4.13333406
              13.60637853                7.29235732               45.82216824                0.00010000                1.19339877                0.21720804               -3.94054398               -1.76355290               18.05233367                7.41855389
              14.61679531                6.98374734               45.73205006                0.00010000                0.91697683                0.56587453               -2.11602710               -0.29311886                6.70452934                1.47730554
              15.62471807                6.68061631               45.50880415                0.00010000                0.79227519                0.79513731               -2.98062945                0.05032271                0.11418801               -1.76118697
               5.81863359               10.76482038               46.09491213                0.00010000                0.11744296                0.01148190               -0.12255169               -0.03253886               -0.01194704                0.64389089
               6.81980802               10.48503295               45.88490046                0.00010000                0.18955363                0.22318814               -0.66263797                0.00869555                0.02168301               -0.62674259
               7.82242466               10.20475290               45.67539262                0.00010000                1.03298492                0.40865896               -1.18944500               -1.23233380               12.61084682               -1.45308380
               8.84046772                9.89864705               45.71663589                0.00010000                1.86831902               -0.06617932               -1.41898565               -1.57109552               25.11419708               -0.30181173
               9.85979105                9.58526325               45.74755636                0.00010000                1.74571089                0.07498811               -1.70397057               -1.30470672               24.99684268                0.37980220
              10.87538194                9.26960669               45.77546687                0.00010000                1.36135758                0.30334867               -2.04559681               -1.18978985               25.50926555                0.93156012
              11.88701820                8.95006315               45.80636927                0.00010000                0.99477476                0.57890615               -2.49861029               -1.37927025               26.57520718                1.55635347
              12.89527743                8.62578967               45.84616507                0.00010000                0.93172794                0.84867132               -3.21356909               -1.85150671               28.70501008                2.74210862
              13.90565276                8.29667702               45.91118221                0.00010000                1.15892357                0.93314701               -4.89294100               -1.47869858               19.75657955                6.03730594
              14.91845590                7.99013747               45.76505256                0.00010000                1.07038630                0.67839839               -2.35554111               -0.31966416                4.64705304                1.21967979
              15.92706048                7.68961764               45.52505349                0.00010000                0.86045769                0.96188645               -3.30932236                0.02815489                0.03090496               -1.54871024
               6.09704548               11.76535060               46.02619879                0.00010000                0.18502556                0.05302206               -0.34064075                0.05505269                0.34014079                0.55591806
               7.09889573               11.48748924               45.81264237                0.00010000                0.25991878                0.24562938               -0.87840374                0.08281712                0.74554401               -0.49637876
               8.10224385               11.20883152               45.60695342                0.00010000                2.02664775                0.40786252               -1.40090177               -1.67264896               14.37359475               -0.81757585
               9.13942869               10.89439789               45.66535915                0.00010000                3.16514705               -0.42491647               -1.63615249               -1.29597587               27.57183780               -0.28614525
              10.16554679               10.58499007               45.70976138                0.00010000                2.28483418               -0.02731849               -1.92339725               -0.53028340               27.29719950                0.09621359
              11.18512537               10.27228072               45.75067844                0.00010000                1.70770159                0.26740298               -2.26052418               -0.45902264               27.87205083                0.40465520
              12.19970083                9.95632274               45.79540737                0.00010000                1.20789814                0.62595968               -2.70422253               -0.52940018               29.26631676                0.76544961
              13.20928334                9.63632745               45.85385359                0.00010000                0.63779657                1.05377853               -3.46553539               -0.86453392               32.11585323                1.58660050
              14.21245676                9.31102026               45.94547842                0.00010000                0.40890352                1.43432444               -4.78990973               -1.27020725               22.35159773                3.37104722
              15.21746141                8.99731530               45.79335318                0.00010000                0.69320306                0.71778349               -2.48458295               -0.65776097                5.53840683                1.04616616
              16.22632082                8.69985404               45.54618295                1.00000000                0.88594136                1.02363972               -3.48640163                0.17990725                0.87339228               -1.20627406
               3.32645711                1.87140801               47.68285253                1.00000000               -0.52414501               -0.59734420                2.05257813               -0.12932033               -1.21923308                1.11460086
               4.32121566                1.55747354               47.52798372                1.00000000               -0.44846131               -0.36298570                1.34029146               -0.07255535               -1.67513810                0.19348116
               5.31748789                1.24277248               47.36475269                1.00000000               -0.32089351               -0.14245286                0.63661421               -0.09282771               -1.77038591               -0.20966275
               6.31479779                0.92510484               47.20853745                1.00000000               -0.47859159                0.15380884               -0.06511667               -0.64039721               -1.38540349               -0.92929093
               7.30791605                0.59310504               47.05362971                1.00000000               -0.28971016                0.23849772               -0.62663542               -0.22729816               -0.99335948                0.14988933
               8.30900359                0.25177423               46.90917404                1.00000000                0.35464702                0.41069426               -1.19838999               -0.26607693               -0.30555217               -0.02209078
               9.31500900               -0.09145814               46.77264693                1.00000000                0.94658931                0.60379419               -1.75812828               -0.13638548                0.94386356               -0.50019990
              10.32793538               -0.42973571               46.65806968                1.00000000                1.37550957                0.60759737               -1.96160572                0.03145337                2.11228262               -0.49832990
              11.34251919               -0.74774460               46.54874351                1.00000000                0.94843578                0.17677800               -0.87477438               -0.36710733                1.28053594                0.86071853
              12.34690409               -1.05568489               46.40820900                1.00000000                0.44708871                0.33167855               -1.22468382               -0.05426223               -0.44816974                0.10238751
              13.35146096               -1.36186962               46.26441482                1.00000000                0.45568699                0.46961885               -1.67404284               -0.09863121               -0.60070796               -0.56752157
               3.63909838                2.86543457               47.61588133                1.00000000               -0.42905057               -0.57788211                1.81265153               -0.00610243               -0.29949115                1.48414449
               4.63480787                2.55384368               47.46108307                1.00000000               -0.31772098               -0.33540623                1.10047577                0.04151662               -0.48502654                0.28554889
               5.63274396                2.24134795               47.30316708                1.00000000               -0.07901667               -0.11016887                0.38625042                0.00711951               -0.43472964               -0.37870708
               6.63322754                1.92664293               47.14952565                1.00000000                0.47822098                0.17786403               -0.32115812               -0.75011837                0.77746196               -1.29716201
               7.64230838                1.59549002               47.01564163                1.00000000                0.76984341                0.10209955               -1.04148081               -0.34800479                1.60089584                0.34146014
               8.64862441                1.25588117               46.88080860                1.00000000                0.60458642                0.47228475               -1.72257466               -0.36020886                1.91410740               -0.00931490
               9.65440011                0.91457981               46.75392535                1.00000000                0.38843665                0.80324101               -2.37891401               -0.27364322                3.92841294               -1.11903806
              10.65639314                0.57634027               46.65855052                1.00000000               -0.12887016                1.09452830               -2.51076580               -0.23460547                6.28724714               -1.21981605
              11.65182270                0.25402318               46.57793745                1.00000000               -0.14845827                0.15863806               -0.56887767               -0.68604265                3.44861541                0.94097513
              12.65342398               -0.05236811               46.43700989                1.00000000                0.24183345                0.28618079               -0.92751472               -0.00708429                0.23707014                0.23215559
              13.65665937               -0.35717343               46.29338441                1.00000000                0.32353977                0.43528817               -1.39324011               -0.04365131                0.08083737               -0.60052609
               3.94951683                3.85985037               47.55719358                1.00000000               -0.33842234               -0.53528481                1.56052546               -0.01041748               -0.02517266                1.84872169
               4.94613261                3.55076542               47.39628755                1.00000000               -0.23429010               -0.26865580                0.86187955                0.01547039                0.07973661                0.31722451
               5.94483103                3.24056910               47.23788892                1.00000000               -0.02396259               -0.00905483                0.14880669               -0.06959738                0.33437223               -0.92921908
               6.94565336                2.92866212               47.08195027                1.00000000                1.34433426                0.23680720               -0.55614728               -1.19321735                3.16301748               -1.73830155
               7.97171772                2.59514703               46.97931563                1.00000000                1.85281326                0.18440483               -1.55255094               -2.35809983                4.55695534               -0.48743314
               8.98270962                2.26121992               46.85077164                1.00000000                0.86796585                0.74770140               -2.28413938               -2.39563796                3.27808205                0.57793599
               9.98907703                1.92460668               46.71978761                1.00000000                0.05451341                1.29301790               -2.98361737               -2.43012431                5.87971052                1.22347311
              10.98379989                1.59215486               46.63964874                1.00000000               -1.57851650                1.68914393               -4.15088689               -2.63858792               11.27586807                0.98220525
              11.95750670                1.25542816               46.60998822                1.00000000               -1.29204406                0.04369817               -0.20533994               -1.73776529                6.57338822                1.26597561
              12.95795901                0.95003873               46.46859419                1.00000000                0.13459370                0.17930954               -0.61385125               -0.10415762                0.63007836                0.61283772
              13.96019858                0.64683615               46.32090088                1.00000000                0.22395671                0.35429198               -1.09827709               -0.05102545                0.28873753               -0.57171044
               4.25705993                4.85472887               47.49830382                1.00000000               -0.26613885               -0.47865881                1.30622740               -0.03126347                0.11021936                1.63773738
               5.25439855                4.54847057               47.33023007                1.00000000               -0.18023134               -0.17945800                0.62142883               -0.01315024                0.23296542                0.09662814
               6.25345531                4.24116686               47.16489184                1.00000000                0.01933593                0.10167620               -0.04875624               -0.14448770                1.05937666               -1.39241505
               7.25478526                3.93137907               47.01316586                0.00010000                0.45666365                0.33637755               -0.78621917               -1.35198238                4.87425779               -2.15221724
               8.26258858                3.59917811               46.92343971                0.00010000                0.82333661                0.58501567               -1.48516185               -3.32314212                8.00487263               -0.53083012
               9.27125200                3.27083520               46.83289409                0.00010000                0.61370522                0.91059093               -2.05223119               -3.53733621                8.15245640                1.56231154
              10.27486269                2.94044016               46.74576521                0.00010000                0.07739550                1.27997272               -2.44343077               -3.70104659                9.09870368                3.63793965
              11.27279991                2.61012314               46.67564745                0.00010000               -0.78395768                1.13865213               -1.98564917               -4.49712009               11.65700628                3.47928273
              12.25918353                2.25489714               46.64715914                0.00010000               -0.64335354                0.87890216               -0.29677643               -2.02751605                7.39918314               -0.93375799
              13.25993284                1.95121809               46.50541487                0.00010000                0.14302437                0.06241060               -0.45093579                0.06918257                0.85258687                1.45789786
              14.26204402                1.64991241               46.35020418                0.00010000                0.21111832               -0.15663785               -0.83207826                0.33207709                0.13024361                0.01229333
               4.56140817                5.85027719               47.43602613                1.00000000               -0.19765522               -0.40932580                1.05186134               -0.05419546                0.24637662                1.27339356
               5.55943162                5.54717626               47.26109152                1.00000000               -0.11877006               -0.06404254                0.37717785               -0.06607862                0.41753185               -0.38104632
               6.55903277                5.24260263               47.08980212                0.00010000                0.05854151                0.24289955               -0.25995367               -0.23189880                1.49142139               -1.80036923
               7.56060245                4.93538967               46.93605374                0.00010000                0.33829880                0.30080302               -0.93044504               -1.36755572                7.49795540               -0.80245312
               8.56579875                4.60684735               46.88415100                0.00010000                0.50491992                0.72084475               -1.37984983               -2.49034324               12.05269063                0.90731524
               9.57070085                4.27943174               46.81910772                0.00010000                0.49847030                0.78960418               -1.85256409               -2.65081667               11.47683601                2.11146920
              10.57576816                3.95020614               46.75459038                0.00010000                0.43498304                0.76676007               -2.03248135               -2.89530888               11.80731557                2.96773481
              11.57940051                3.61492790               46.69679927                0.00010000                0.00466432                0.50728877               -1.78195552               -3.17662467               11.76708524                2.59615166
              12.57586144                3.27300620               46.63293220                0.00010000               -0.75365596                1.45511782               -1.28603215               -1.84486790               10.36705778               -0.50234008
              13.56432739                2.95128694               46.55481999                0.00010000               -0.32049877                0.07305078               -0.49571984               -0.46410005                4.52994030                2.36591865
              14.56945147                2.64370339               46.38963699                0.00010000                0.51240737               -0.78181645               -0.94718005                0.44440920                0.13930952               -0.07877439
               4.86217790                6.84654236               47.37022110                1.00000000               -0.14263595               -0.32896005                0.80638840               -0.04190177                0.06273526                0.95322143
               5.86075154                6.54718972               47.18537865                0.00010000               -0.07869904                0.03895322                0.14434394               -0.07209062                0.42889843               -0.75457376
               6.86060392                6.24602485               47.00797810                0.00010000                0.12189472                0.41150263               -0.50272207               -0.49562037                3.93515686               -2.35037673
               7.86318943                5.93739513               46.89285879                0.00010000                0.40678649                0.19619186               -0.52305639               -1.41935726               10.98310984                1.88023970
               8.86873965                5.61359501               46.85428098                0.00010000                0.58437189                0.60257724               -1.32974992               -2.23877564               14.58560181                1.70850381
               9.87487687                5.28662728               46.80775057                0.00010000                0.63603504                0.63270137               -1.74429570               -2.43209189               14.29490916                2.46995353
              10.88146035                4.95577537               46.76032096                0.00010000                0.57952391                0.50901025               -1.94935184               -2.68561443               14.28911927                3.02068843
              11.88646735                4.62026892               46.71174467                0.00010000                0.22333948                0.50807813               -1.91117434               -2.75661101               14.00740170                2.85309709
              12.88592714                4.28399950               46.65951462                0.00010000               -0.32568504                0.81323246               -1.60438824               -2.11009717               13.37389145                2.48600322
              13.87995365                3.95267910               46.60436162                0.00010000                0.00860793                0.20546831               -0.94176625               -0.60865841                6.42836771                2.31472594
              14.88609930                3.63427608               46.42288842                0.00010000                0.61456481               -0.52407552               -1.65825675                0.11812842                0.08038317               -1.01417666
               5.15927542                7.84369799               47.30173820                0.00010000               -0.07680994               -0.24267151                0.57147137               -0.03551451                0.01579992                0.76801242
               6.15850732                7.54795532               47.10855471                0.00010000               -0.01802343                0.10255538               -0.07321709               -0.03803704                0.31031826               -0.81034768
               7.15891495                7.25083268               46.92129885                0.00010000                0.30689124                0.51030071               -0.71047129               -0.76152793                7.35887098               -2.64019244
               8.16464514                6.93931351               46.86864538                0.00010000                0.64380687                0.31763073               -0.88391588               -1.57682913               14.97960193                1.56690125
               9.17179109                6.61889889               46.82876269                0.00010000                0.76167566                0.48995515               -1.35524315               -2.08966414               16.31201686                1.88084315
              10.17987866                6.29208577               46.79793342                0.00010000                0.83115702                0.49009006               -1.75645251               -2.40023551               17.00235154                2.58861789
              11.18841423                5.96038634               46.76686200                0.00010000                0.80827500                0.42168833               -2.01453842               -2.59431850               17.04883538                3.24074064
              12.19604416                5.62508946               46.73304834                0.00010000                0.64175442                0.39574040               -2.11681235               -2.50410494               16.67636962                3.62262067
              13.20124932                5.28927085               46.69336665                0.00010000                0.29167412                0.36452669               -2.01360996               -1.87549504               15.77831538                3.48294686
              14.20187764                4.95539630               46.64452895                0.00010000                0.36853767                0.34835859               -1.45009867               -0.58295330                7.59965798                1.77940506
              15.20862007                4.63322188               46.44580475                0.00010000                0.67424300                0.18256358               -2.33214599                0.07773474                0.11517847               -1.66464960
               5.45295295                8.84168893               47.23237637                0.00010000               -0.00968407               -0.16071705                0.34044776               -0.03498052                0.01401555                0.71320189
               6.45285611                8.54924082               47.03150847                0.00010000                0.05311106                0.15296502               -0.28663449                0.00451536                0.13408940               -0.80265320
               7.45401517                8.25623086               46.83300724                0.00010000                0.53652659                0.52509390               -0.91084394               -0.91234864                9.39654027               -2.65270781
               8.46358664                7.94374775               46.81690612                0.00010000                1.00794670                0.44556690               -1.17226809               -1.81472748               18.87256329               -0.04980063
               9.47417410                7.62339411               46.80105681                0.00010000                1.08990334                0.39319648               -1.50252224               -2.10247642               19.37323280                1.48217038
              10.48538471                7.29642908               46.78748229                0.00010000                1.11980891                0.37651674               -1.85026486               -2.31054328               19.90783171                2.39590563
              11.49657028                6.96420913               46.77486987                0.00010000                1.10580170                0.36517592               -2.16869370               -2.48853199               20.12085009                3.26286943
              12.50750074                6.62818373               46.75902285                0.00010000                1.07700569                0.30078353               -2.44755174               -2.45633272               19.65024004                4.17306817
              13.51811040                6.29129003               46.73288348                0.00010000                0.84214068                0.14861178               -2.60023431               -1.76093109               17.74000351                4.58313473
              14.52434355                5.95964627               46.67887803                0.00010000                0.69462201                0.49932262               -1.89159989               -0.51295464                8.18098364                1.45292243
              15.53200284                5.63792736               46.46295248                0.00010000                0.76592824                0.63255894               -2.85392041                0.07245907                0.11718991               -1.93299312
               5.74347201                9.84048365               47.16292821                0.00010000                0.05836794               -0.07717036                0.11420566               -0.03327829                0.00641802                0.71362306
               6.74405569                9.55101462               46.95455103                0.00010000                0.13445212                0.19896964               -0.50635883                0.02399145               -0.03217312               -0.76094345
               7.74616106                9.26133456               46.74530139                0.00010000                0.85658256                0.47903552               -1.11008854               -1.07137546               11.11054967               -2.31528351
               8.76118734                8.94822485               46.75924240                0.00010000                1.54495847                0.32759112               -1.36663886               -1.97743929               22.41749014               -0.35641845
               9.77706022                8.62676282               46.76722490                0.00010000                1.58327151                0.18641169               -1.66808552               -1.94378627               22.55030541                0.93400873
              10.79285277                8.29961610               46.77381249                0.00010000                1.49143594                0.25726330               -1.99522571               -1.96405475               23.03373762                1.86593029
              11.80688894                7.96768986               46.78126430                0.00010000                1.34919144                0.37002344               -2.36627137               -2.14786613               23.57289197                2.77802219
              12.81983660                7.63110513               46.78920033                0.00010000                1.38396032                0.42321783               -2.87917419               -2.38463297               23.34762332                4.07679004
              13.83456815                7.29224309               46.78458237                0.00010000                1.25723116                0.26145655               -3.53120761               -1.73459304               19.36204295                6.51054551
              14.84498123                6.96538276               46.71008100                0.00010000                0.94694690                0.63812431               -2.25942484               -0.39384619                7.98077554                1.33409075
              15.85350709                6.64587306               46.47741474                0.00010000                0.85258624                0.89216462               -3.26394486                0.05627918                0.11919870               -2.03796539
               6.03122544               10.84014552               47.09369935                0.00010000                0.12595870                0.00918075               -0.11839823               -0.03409040               -0.01018936                0.63444591
               7.03248503               10.55322022               46.87797322                0.00010000                0.20759967                0.24407562               -0.72450069                0.01118343                0.03234443               -0.61637975
               8.03537744               10.26581157               46.66292755                0.00010000                1.30622817                0.44663317               -1.30942989               -1.34027185               12.79046759               -1.42144793
               9.05860959                9.95029957               46.70178921                0.00010000                2.42648436               -0.21371936               -1.56253428               -1.65308301               25.50118850               -0.24340118
              10.08390712                9.62712235               46.72985331                0.00010000                2.32834885               -0.08960153               -1.85120837               -1.31613214               25.43291661                0.46752324
              11.10517657                9.30157435               46.75442877                0.00010000                1.91084030                0.13601093               -2.17155977               -1.15436507               25.97830449                1.03758590
              12.12212393                8.97160960               46.78092575                0.00010000                1.50391427                0.41482549               -2.57816567               -1.30184256               26.97532412                1.64024822
              13.13525486                8.63664808               46.81359155                0.00010000                1.35084925                0.70366863               -3.23078139               -1.69713354               28.55391703                2.68551749
              14.14914091                8.29651916               46.86074456                0.00010000                1.37909024                0.90841530               -4.82383169               -1.37160634               21.26568111                5.57818697
              15.16283666                7.97240876               46.74051202                0.00010000                1.15034498                0.73986091               -2.53165230               -0.39910143                6.45744991                1.17419438
              16.17214781                7.65577065               46.49030278                0.00010000                0.93111536                1.05203696               -3.59415727                0.03217358                0.01426520               -1.71728900
               6.31664081               11.84066727               47.02274932                0.00010000                0.19724998                0.05217463               -0.34806059                0.06442339                0.33177775                0.54715509
               7.31861331               11.55589613               46.80350606                0.00010000                0.28177287                0.26759160               -0.95159537                0.09282571                0.74616182               -0.48844965
               8.32227627               11.27026722               46.59230318                0.00010000                2.41007998                0.44556504               -1.53373263               -1.90740068               14.54041203               -0.79475924
               9.36681491               10.94395046               46.64828667                0.00010000                3.85932684               -0.63491100               -1.79144976               -1.44429011               27.95248076               -0.27078604
              10.39946280               10.62497079               46.68980715                0.00010000                2.92316550               -0.21515573               -2.08214280               -0.52513891               27.74225305                0.12792979
              11.42527822               10.30233632               46.72743624                0.00010000                2.31577765                0.07619730               -2.39729123               -0.43905607               28.37940037                0.44133744
              12.44577836                9.97598637               46.76786241                0.00010000                1.78530750                0.43767712               -2.79365922               -0.49244805               29.70653633                0.77815462
              13.46098437                9.64517851               46.81856971                0.00010000                1.27984959                0.85304222               -3.50177259               -0.70579760               32.11929790                1.45989979
              14.47137535                9.31041139               46.89450419                0.00010000                0.83816727                1.38922303               -5.01761268               -1.02648326               23.90447341                3.28771490
              15.47774771                8.98017997               46.76738566                0.00010000                0.80257176                0.77712147               -2.69306581               -0.68377447                7.35272146                1.04776640
              16.48742678                8.66691380               46.50960197                1.00000000                0.96790696                1.11431510               -3.78233054                0.20127938                0.88758811               -1.32394000
               3.47273009                1.95065256               48.70416019                1.00000000               -0.56264709               -0.64277565                2.21160647               -0.14581188               -1.20144221                1.09419213
               4.46710362                1.62749108               48.54170453                1.00000000               -0.48112388               -0.37596882                1.40361756               -0.08478750               -1.64929435                0.18842213
               5.46310761                1.30350000               48.37105224                1.00000000               -0.34798181               -0.12598903                0.62097567               -0.10879764               -1.72990167               -0.21245658
               6.46014398                0.97618070               48.20746515                1.00000000               -0.58648710                0.21319040               -0.15409668               -0.63954298               -1.23246897               -0.91472928
               7.45137787                0.63453297               48.04716622                1.00000000               -0.51093179                0.35423234               -0.67650930               -0.23622779               -0.73125952                0.10989757
               8.44992535                0.28260216               47.89695541                1.00000000                0.07859934                0.51100443               -1.25343101               -0.29058710               -0.09989865               -0.02084178
               9.45294986               -0.07466953               47.75444833                1.00000000                0.63192267                0.75832333               -1.87500744               -0.32512883                1.17985086               -0.48086108
              10.46256380               -0.43376713               47.63657999                1.00000000                1.48764068                0.89640060               -2.32190231                0.08556964                3.01610245               -0.67644948
              11.48270267               -0.76996858               47.54070161                1.00000000                1.21392511                0.08697349               -0.70046388               -0.90569494                2.19393910                0.83544673
              12.48684230               -1.08486335               47.39607609                1.00000000                0.43711714                0.31199596               -1.16052631               -0.05875688               -0.40099273                0.14341042
              13.49144501               -1.39779176               47.24706791                1.00000000                0.46027111                0.52530721               -1.86922928               -0.11901194               -0.56959328               -0.52937516
               3.79443345                2.94422480               48.63471026                1.00000000               -0.46014291               -0.62054591                1.95575460               -0.00422663               -0.30046909                1.45455339
               4.78983202                2.62373139               48.47231783                1.00000000               -0.33793130               -0.34646983                1.14657700                0.04716954               -0.48642245                0.28119118
               5.78767483                2.30224011               48.30683473                1.00000000               -0.07999783               -0.09078492                0.34516186                0.01262664               -0.43436816               -0.37354078
               6.78823207                1.97831260               48.14568497                1.00000000                0.40650186                0.22925113               -0.45065281               -0.71411051                0.79136502               -1.27069348
               7.79580486                1.63807530               48.00462881                1.00000000                0.66943319                0.19849092               -1.15664295               -0.31606346                1.56846322                0.27283815
               8.80162073                1.28771220               47.86269217                1.00000000                0.60391741                0.54842285               -1.88557329               -0.35778355                1.83318571                0.00001973
               9.80788321                0.93291370               47.72846105                1.00000000                0.47241462                0.91882119               -2.68198747               -0.45247750                4.00658551               -1.02223640
              10.81106902                0.57519688               47.62951754                1.00000000               -0.43446888                1.42360885               -3.28185600               -0.40183645                8.03529313               -1.84293858
              11.79919383                0.23090115               47.57274242                1.00000000               -0.54513507                0.06191358               -0.57130290               -1.47805433                4.95590088                1.00592838
              12.80016632               -0.08174339               47.42821032                1.00000000                0.19947335                0.26912364               -0.83616825                0.01117838                0.27715610                0.29118897
              13.80318330               -0.39253868               47.27911394                1.00000000                0.30169796                0.46959253               -1.50103568               -0.01789158                0.05763757               -0.54200955
               4.11363238                3.93824164               48.57337443                1.00000000               -0.36006810               -0.57142377                1.67897300               -0.00834295               -0.02800845                1.81119362
               5.11003170                3.62056168               48.40504223                1.00000000               -0.24267247               -0.27436117                0.88818529                0.02102938                0.06579371                0.31148694
               6.10877893                3.30168430               48.23905082                1.00000000               -0.00025579                0.01868008                0.08117336               -0.07571671                0.31498696               -0.88926736
               7.11002659                2.98076572               48.07561680                1.00000000                1.34390348                0.28450366               -0.72023407               -1.18223350                3.01840138               -1.70210987
               8.13565700                2.63850279               47.96287140                1.00000000                1.89523444                0.27007072               -1.71875382               -2.35058824                4.23438822               -0.27870242
               9.14793127                2.29357061               47.82659210                1.00000000                1.03793140                0.84411560               -2.52126078               -2.58910761                3.03133381                0.98690287
              10.15641563                1.94370689               47.68823991                1.00000000                0.43041735                1.42521089               -3.29973316               -2.95974796                5.23659264                1.90967875
              11.15653962                1.59470505               47.59244375                1.00000000               -2.31668876                2.11815912               -4.85028595               -4.11548417               13.43314146                2.00117161
              12.11008186                1.23126969               47.60891618                1.00000000               -2.30169569                0.10901604               -0.11552067               -2.63798084                9.07826708                1.09046185
              13.11050571                0.92051912               47.46351725                1.00000000                0.12979573                0.15566181               -0.42912728               -0.05471691                0.60320863                0.59336711
              14.11267777                0.61160009               47.30982775                1.00000000                0.21720624                0.35306921               -1.13030072               -0.03622026                0.18868385               -0.51437160
               4.42962651                4.93279632               48.51182880                1.00000000               -0.28165634               -0.50399002                1.39934630               -0.03134538                0.10326225                1.60165131
               5.42680995                4.61824416               48.33644032                1.00000000               -0.18350296               -0.17822686                0.62756738               -0.01197242                0.23942594                0.08566727
               6.42595645                4.30261371               48.16408965                1.00000000                0.04794791                0.14114689               -0.11332738               -0.16866281                1.03293895               -1.34881384
               7.42776891                3.98400267               48.00432734                0.00010000                0.50158766                0.40020278               -0.98113773               -1.37167982                4.85077643               -2.06895198
               8.43598820                3.64347671               47.90741938                0.00010000                0.84327871                0.69733268               -1.71104463               -3.35156608                8.01617871               -0.01314562
               9.44463448                3.30459451               47.81091167                0.00010000                0.57828058                1.08522306               -2.34066780               -3.82634154                8.24831348                2.31264171
              10.44755382                2.96141792               47.71938746                0.00010000               -0.17189690                1.55047240               -2.82174934               -4.26393965                9.75875225                4.69991495
              11.44119654                2.61756006               47.65467924                0.00010000               -1.34668357                1.48552320               -2.30097075               -6.18250686               13.44064493                5.30516901
              12.42062014                2.23308147               47.64448862                0.00010000               -1.12274821                1.54854450               -0.38733380               -2.62655554                8.87149898               -1.60148764
              13.41874158                1.92136985               47.50200094                0.00010000               -0.01615964                0.23554468               -0.22104326                0.24113438                1.06275921                1.21945869
              14.42029695                1.61452270               47.34219513                0.00010000                0.15553744               -0.31475342               -0.77632873                0.60525778                0.14083578               -0.18477072
               4.74210979                5.92816184               48.44691374                1.00000000               -0.21349284               -0.42286400                1.12609833               -0.05337172                0.22891381                1.24149264
               5.73997487                5.61699714               48.26471713                1.00000000               -0.12313139               -0.05761902                0.35550160               -0.05294744                0.42467022               -0.38147384
               6.73964717                5.30450724               48.08669919                0.00010000                0.08775609                0.27280895               -0.37022461               -0.23448059                1.50654507               -1.77680080
               7.74172999                4.98876978               47.92588021                0.00010000                0.41933378                0.36933670               -1.11287077               -1.33109771                7.61827213               -0.37207591
               8.74803384                4.65244945               47.86925268                0.00010000                0.58666245                0.83880031               -1.60197139               -2.45083718               12.25157835                1.41058100
               9.75346324                4.31527507               47.79927730                0.00010000                0.50687234                0.97074711               -2.11826475               -2.70822485               11.81379900                2.76923887
              10.75817129                3.97471634               47.73298257                0.00010000                0.38813463                1.02525325               -2.31363796               -3.12599835               12.54615368                3.76434499
              11.76122593                3.62441551               47.67807438                0.00010000               -0.22151643                0.74300695               -2.02576558               -3.65093570               12.93345426                3.07952471
              12.75374096                3.26224058               47.62000137                0.00010000               -1.36693810                2.33429966               -1.41905771               -2.12791835               11.85703563               -0.95429230
              13.73388717                2.92523002               47.55057789                0.00010000               -0.76318724                0.51553002               -0.38891354               -0.45950739                5.38250959                2.05424887
              14.73847722                2.60530503               47.37977310                0.00010000                0.45900480               -0.94455478               -1.08441041                0.59853939                0.21540093               -0.84283071
               5.05088847                6.92433904               48.37854541                1.00000000               -0.14828703               -0.33725443                0.86132358               -0.03965796                0.05394213                0.93290782
               6.04940560                6.61709178               48.18669234                0.00010000               -0.06971303                0.04793055                0.11642262               -0.06105061                0.42595852               -0.73948694
               7.04949421                6.30806989               48.00240917                0.00010000                0.18995738                0.43291299               -0.61005174               -0.48451048                4.27204400               -2.31232983
               8.05320474                5.99138941               47.88709235                0.00010000                0.54859776                0.28882852               -0.64119566               -1.27639720               11.24764020                2.20948631
               9.06046616                5.66025272               47.83998006                0.00010000                0.74991728                0.68550965               -1.53986243               -2.08517129               14.64770058                2.12465251
              10.06820309                5.32400946               47.78924024                0.00010000                0.77136243                0.74209630               -1.97012499               -2.36530710               14.70629758                2.98440706
              11.07589341                4.98192298               47.73989354                0.00010000                0.62252492                0.64118622               -2.15901259               -2.72874984               14.98525990                3.51545106
              12.08065359                4.63242020               47.69207456                0.00010000                0.06769327                0.75263010               -2.06671789               -2.98832206               15.03949366                3.12869275
              13.07724728                4.27976747               47.64348882                0.00010000               -0.70833028                1.32335761               -1.66224848               -2.34177138               14.77016799                2.43932386
              14.06648698                3.93168045               47.59482003                0.00010000               -0.25647779                0.58078759               -0.99202995               -0.58503773                7.27664008                1.96121270
              15.07211772                3.59563160               47.40482395                0.00010000                0.56307375               -0.42064335               -1.97552150                0.12380946                0.13063030               -1.78077684
               5.35581116                7.92141675               48.30765457                0.00010000               -0.07881476               -0.24994185                0.61321997               -0.03530061                0.01182643                0.75767109
               6.35502301                7.61795575               48.10763599                0.00010000               -0.00759115                0.11458649               -0.11145017               -0.03159844                0.31090809               -0.78953901
               7.35565933                7.31316550               47.91363786                0.00010000                0.44981037                0.54276155               -0.82476619               -0.72305611                7.59165946               -2.58387930
               8.36401922                6.99454635               47.85876792                0.00010000                0.90255183                0.40566554               -1.09479804               -1.42904915               15.33567954                1.55365350
               9.37371037                6.66615964               47.81428770                0.00010000                1.02338070                0.52531774               -1.55190483               -1.93390526               16.60535468                2.17864600
              10.38448683                6.33011700               47.77947270                0.00010000                1.07375887                0.51770824               -1.94986596               -2.26842324               17.44735779                2.96416502
              11.39518555                5.98754006               47.74605346                0.00010000                0.95640881                0.48311876               -2.16628396               -2.51738109               17.71411280                3.57357152
              12.40361501                5.63946812               47.71167877                0.00010000                0.62298703                0.56093814               -2.18694145               -2.50443347               17.60149426                3.77077618
              13.40764529                5.28870773               47.67358079                0.00010000                0.13536343                0.65061802               -1.98844224               -1.98038024               17.06423094                3.32576039
              14.40632227                4.93684577               47.62961662                0.00010000                0.27028998                0.53229670               -1.52994262               -0.60873057                8.39530206                1.49603030
              15.41305109                4.59689216               47.42090340                0.00010000                0.67288127                0.39067181               -2.62739289                0.09809603                0.14077406               -2.11740145
               5.65710445                8.91934021               48.23592097                0.00010000               -0.00795682               -0.16731547                0.37006133               -0.03602145                0.01741122                0.70763734
               6.65702488                8.61938351               48.02841228                0.00010000                0.06690228                0.16930544               -0.33404621                0.00998020                0.14008306               -0.78281586
               7.65844249                8.31892512               47.82332230                0.00010000                0.73023716                0.56334323               -1.02772099               -0.87579365                9.59315918               -2.59714637
               8.67162962                7.99950272               47.80433786                0.00010000                1.38874548                0.45818350               -1.34976282               -1.71990100               19.26380821                0.03946138
               9.68621740                7.67075907               47.78513552                0.00010000                1.49122897                0.36071693               -1.69475474               -1.99064419               19.78765002                1.69129990
              10.70145420                7.33436362               47.76819917                0.00010000                1.49886362                0.32344342               -2.02013358               -2.16520610               20.40320072                2.67294870
              11.71619467                6.99158536               47.75270474                0.00010000                1.39715254                0.33545572               -2.27534314               -2.31854962               20.73712518                3.49205743
              12.72939725                6.64363896               47.73471022                0.00010000                1.20336727                0.34265064               -2.42973521               -2.29294034               20.43559602                4.17826243
              13.74026202                6.29277983               47.70793784                0.00010000                0.83653459                0.29997126               -2.42635493               -1.81095717               18.98498998                4.18316032
              14.74612794                5.94232638               47.65944156                0.00010000                0.68624198                0.59746968               -1.97495605               -0.60393023                9.01191144                1.24617774
              15.75398686                5.60344504               47.43301534                0.00010000                0.78589156                0.78072715               -3.08706042                0.08103888                0.11949706               -2.19412735
               5.95500411                9.91807044               48.16415514                0.00010000                0.06335850               -0.08260047                0.13294683               -0.03397653                0.00582241                0.70718093
               6.95563770                9.62134186               47.94921677                0.00010000                0.15100706                0.21834062               -0.56214307                0.02818827               -0.02283938               -0.74351171
               7.95802425                9.32443236               47.73360569                0.00010000                1.10747725                0.51985146               -1.23186592               -1.08281544               11.31336959               -2.26337467
               8.97778724                9.00371002               47.74479580                0.00010000                2.05061650                0.26160206               -1.53434490               -1.95611384               22.83659385               -0.24301468
               9.99903658                8.67337398               47.74971579                0.00010000                2.12845891                0.06361976               -1.84850833               -1.87658640               23.01776021                1.10316539
              11.02035642                8.33658587               47.75315196                0.00010000                2.02513132                0.11855219               -2.14951739               -1.83517093               23.56435215                2.06949016
              12.03953921                7.99424918               47.75721868                0.00010000                1.81026547                0.23423188               -2.44343599               -1.95487608               24.12090455                2.93970325
              13.05656173                7.64632113               47.76075529                0.00010000                1.65997582                0.32458415               -2.78370998               -2.12011520               23.89451991                4.02663916
              14.07273873                7.29470716               47.75154409                0.00010000                1.35083620                0.27695566               -3.08798144               -1.68710354               20.66037432                5.70312312
              15.08357846                6.94879516               47.68686157                0.00010000                0.98479075                0.69951580               -2.35075020               -0.51408605                9.02846442                1.19772020
              16.09243454                6.61250670               47.44352525                0.00010000                0.88560873                0.98198001               -3.45168908                0.06002366                0.11088737               -2.21390521
               6.24988207               10.91768820               48.09254417                0.00010000                0.13446483                0.00616716               -0.11077082               -0.03561561               -0.00780150                0.62544634
               7.25122672               10.62375033               47.87041045                0.00010000                0.22679791                0.26563561               -0.78974676                0.01306823                0.04701738               -0.60324380
               8.25441803               10.32932215               47.64920402                0.00010000                1.61695055                0.48763570               -1.43824182               -1.43841673               12.99375439               -1.38406799
               9.28356573               10.00473476               47.68538521                0.00010000                3.06958952               -0.38613842               -1.73118868               -1.70517977               25.93367096               -0.17214080
              10.31580982                9.67203147               47.71053220                0.00010000                3.01549259               -0.28665012               -2.02863731               -1.28971959               25.93562586                0.57078306
              11.34387558                9.33673466               47.73203567                0.00010000                2.57760367               -0.07466688               -2.31873070               -1.07298891               26.54343900                1.15999249
              12.36736189                8.99627000               47.75480595                0.00010000                2.13306937                0.18816677               -2.63871002               -1.17225730               27.50863087                1.74060480
              13.38653697                8.65013065               47.78154944                0.00010000                1.83420113                0.46240087               -3.11226839               -1.47426351               28.67021479                2.63504568
              14.40404592                8.29831894               47.81470558                0.00010000                1.57548536                0.72740690               -4.16280317               -1.24112007               22.69527080                4.94489615
              15.41804668                7.95631670               47.71441951                0.00010000                1.18591679                0.78640961               -2.64676635               -0.46973467                8.01016411                1.11814424
              16.42776425                7.62308464               47.45317034                1.00000000                0.97175748                1.11350881               -3.75758712                0.03706563               -0.01720318               -1.82225387
               6.54216754               11.91819378               48.01923758                0.00010000                0.20975663                0.05055849               -0.35243956                0.07462651                0.32273567                0.53852209
               7.54426511               11.62665457               47.79361046                0.00010000                0.30519708                0.29042478               -1.02870138                0.10340393                0.74976859               -0.47977330
               8.54827149               11.33418508               47.57627877                0.00010000                2.83546096                0.48629275               -1.67566360               -2.14802063               14.72911784               -0.76893331
               9.60097433               10.99598725               47.62953015                0.00010000                4.64854016               -0.87475129               -1.97214248               -1.58634511               28.37665496               -0.24693807
              10.64124229               10.66764098               47.66811853                0.00010000                3.68418928               -0.43904930               -2.26976728               -0.50148877               28.25387519                0.17036054
              11.67465812               10.33509253               47.70273262                0.00010000                3.07278966               -0.16421319               -2.55257542               -0.40316971               28.98256602                0.49016278
              12.70269808                9.99801251               47.73953418                0.00010000                2.51847010                0.17425171               -2.86093371               -0.44255031               30.28518812                0.80594889
              13.72502752                9.65556915               47.78381814                0.00010000                1.95160972                0.54384998               -3.37151103               -0.58880610               32.27867506                1.36012041
              14.74173028                9.30925529               47.84512617                0.00010000                1.21952713                1.09363545               -4.51293283               -0.78385347               25.38874966                2.94047704
              15.74941806                8.96452335               47.73949187                0.00010000                0.89548439                0.82066580               -2.84830786               -0.58678238                9.00881518                1.02382038
              16.75963996                8.63477688               47.47053634                1.00000000                1.02219044                1.16922372               -3.95637931                0.21292381                0.87707552               -1.40579578
               3.62733958                2.03219172               49.72708466                1.00000000               -0.60018599               -0.68803221                2.37181101               -0.16420701               -1.16570203                1.06205813
               4.62133772                1.70001538               49.55605607                1.00000000               -0.51051747               -0.38855705                1.46425186               -0.09994391               -1.59406154                0.18080059
               5.61712923                1.36695838               49.37717220                1.00000000               -0.36516468               -0.10798157                0.59853463               -0.12621660               -1.64498159               -0.21509351
               6.61403443                1.03037061               49.20545551                1.00000000               -0.66643131                0.27068030               -0.25630045               -0.60639590               -0.97104752               -0.90059450
               7.60380061                0.68037781               49.04009952                1.00000000               -0.71554607                0.48637982               -0.76330491               -0.23735393               -0.28854073                0.05951868
               8.59972351                0.31988386               48.88410542                1.00000000               -0.24095873                0.63610181               -1.35630363               -0.30069330                0.30542214               -0.03119733
               9.59898143               -0.04910080               48.73514678                1.00000000                0.11403181                0.94443017               -2.02208203               -0.57868090                1.57621709               -0.41559071
              10.60200414               -0.42913980               48.61163164                1.00000000                1.39602136                1.27575341               -2.66728478               -0.21947495                4.34838128               -0.65210670
              11.62690186               -0.79511729               48.53473423                1.00000000                1.52568945                0.10444623               -0.96364680               -1.86265891                2.88710466                0.95301934
              12.63251793               -1.11708514               48.38499847                1.00000000                0.55917983                0.30996552               -1.28766693               -0.06382950               -0.38729300                0.13290280
              13.63808546               -1.43654917               48.22703023                1.00000000                0.55675234                0.57757115               -2.11714699               -0.15446002               -0.67015806               -0.43358145
               3.95787385                3.02531139               49.65499643                1.00000000               -0.49188935               -0.66180109                2.10059282               -0.00408383               -0.29387238                1.41128179
               4.95295495                2.69612981               49.48401461                1.00000000               -0.35921965               -0.35713592                1.19096364                0.05007709               -0.47294750                0.27269006
               5.95068946                2.36587856               49.31007031                1.00000000               -0.08471005               -0.07147700                0.29923439                0.01872830               -0.41187614               -0.36928951
               6.95126075                2.03307741               49.14051259                1.00000000                0.29904942                0.28034722               -0.58850779               -0.62352865                0.88599459               -1.24565037
               7.95667044                1.68524161               48.99250877                1.00000000                0.50975647                0.32023046               -1.27464612               -0.26014791                1.66503051                0.19767598
               8.96145588                1.32624488               48.84309713                1.00000000                0.55180051                0.64273108               -2.04127991               -0.33269172                1.80722635                0.02333998
               9.96770645                0.96034350               48.70028560                1.00000000                0.56808771                1.04873282               -2.95607326               -0.68256708                3.87029777               -0.77860336
              10.97281764                0.58361773               48.59291340                1.00000000               -0.77292575                1.80781925               -3.99470440               -1.23170087                9.74040295               -1.72623567
              11.95224794                0.20592718               48.56651139                1.00000000               -1.01110284                0.03042408               -1.19321919               -2.82532652                7.23401499                1.57165056
              12.95259558               -0.11398548               48.42028652                1.00000000                0.18784757                0.26002904               -0.80190393               -0.00534776                0.52315948                0.34743572
              13.95600489               -0.43077346               48.26336370                1.00000000                0.34093099                0.50083475               -1.64745884               -0.01550816                0.02980387               -0.45274790
               4.28562107                4.01895569               49.59077304                1.00000000               -0.38489741               -0.60444004                1.80060089               -0.00688857               -0.02868232                1.75613066
               5.28177210                3.69287266               49.41405125                1.00000000               -0.25324363               -0.28103999                0.91344249                0.02722041                0.05576222                0.30294681
               6.28055620                3.36552884               49.23951239                1.00000000                0.02143546                0.03318240                0.01230942               -0.06787500                0.29619600               -0.83789668
               7.28220081                3.03597755               49.06754559                1.00000000                1.24369921                0.33296035               -0.89376525               -1.07680531                2.92730195               -1.65194394
               8.30543018                2.68678242               48.94494055                1.00000000                1.78834885                0.36461534               -1.85042545               -2.17908456                3.96177955               -0.07893767
               9.31796779                2.33273848               48.80034642                1.00000000                1.12635251                0.90789730               -2.71191383               -2.60571330                2.73442757                1.44655966
              10.32795724                1.97187385               48.65379294                1.00000000                0.69093326                1.46761525               -3.58689597               -3.35790949                4.50171449                2.84265209
              11.33178645                1.60701658               48.54264302                1.00000000               -2.99793454                2.34890774               -5.02956415               -6.13443267               15.25115711                3.95151066
              12.26799854                1.20549120               48.60767780                1.00000000               -3.13374190                0.29275143               -0.13445597               -4.09286331               12.06183999                1.33765356
              13.26911161                0.88811544               48.46001164                1.00000000                0.16763519                0.12660507               -0.30515329               -0.05688677                0.81550071                0.59398924
              14.27135125                0.57346753               48.29829487                1.00000000                0.22396355                0.35225550               -1.15667852               -0.04141818                0.10700189               -0.42918253
               4.60990214                5.01322259               49.52629075                1.00000000               -0.29759186               -0.52826285                1.49522967               -0.03342856                0.10748397                1.55329446
               5.60692622                4.69050901               49.34278142                1.00000000               -0.18375366               -0.17889480                0.63617025               -0.01564542                0.25858214                0.06839581
               6.60622707                4.36654221               49.16262529                1.00000000                0.07724212                0.16091259               -0.19127878               -0.16640018                0.99617031               -1.31085228
               7.60847106                4.03973662               48.99354311                0.00010000                0.50503795                0.46027999               -1.16613795               -1.28973499                4.82903063               -1.94214219
               8.61632783                3.69253392               48.88921882                0.00010000                0.78895604                0.78579311               -1.91644839               -3.16653781                8.04937298                0.51936214
               9.62425018                3.34440282               48.78608073                0.00010000                0.49711672                1.18747366               -2.60738981               -3.87794776                8.31502059                3.14220128
              10.62627016                2.98969580               48.68933022                0.00010000               -0.38692711                1.65565534               -3.16615958               -4.69350099               10.37772104                6.03938346
              11.61651164                2.63059589               48.62962803                0.00010000               -1.84891739                1.60532489               -2.72612976               -7.93246251               15.49403679                7.54249939
              12.58929181                2.21178220               48.63941247                0.00010000               -1.65150637                2.47144830               -1.02071979               -3.47745806               11.03628100               -1.76409036
              13.58348151                1.88854662               48.50099401                0.00010000               -0.24097235                0.57186930               -0.00323767                0.37918439                1.60717415                0.86374734
              14.58447237                1.57627165               48.33467760                0.00010000                0.09908504               -0.46247854               -0.69662894                0.97339397                0.16276163               -0.52712743
               4.93037967                6.00839044               49.45854809                1.00000000               -0.22400908               -0.43814587                1.20095887               -0.05652948                0.21344803                1.20379411
               5.92813958                5.68929477               49.26820155                1.00000000               -0.11895378               -0.05139499                0.34128452               -0.05813110                0.42985216               -0.38964788
               6.92800059                5.36874709               49.08239762                0.00010000                0.11374128                0.31486839               -0.48146088               -0.23469473                1.53581381               -1.76877812
               7.93041440                5.04518315               48.91379632                0.00010000                0.47163168                0.44802671               -1.30250583               -1.20742607                7.77536098                0.13144633
               8.93743322                4.70249828               48.85211157                0.00010000                0.64162709                0.92595647               -1.82101524               -2.27386303               12.48595986                1.95254074
               9.94324694                4.35648795               48.77674243                0.00010000                0.52304625                1.08586007               -2.38145505               -2.63360815               12.17824449                3.52836774
              10.94789415                4.00498696               48.70831762                0.00010000                0.39019284                1.16588445               -2.61811335               -3.26519019               13.35925785                4.76395905
              11.95105080                3.63912308               48.65628396                0.00010000               -0.36977497                0.93212499               -2.37831789               -4.14582505               14.24640545                3.89936598
              12.94049865                3.25492016               48.60455105                0.00010000               -1.94224735                3.37121757               -1.75982780               -2.51385178               13.75705556               -0.98289427
              13.91220585                2.89955283               48.54704172                0.00010000               -1.25647932                1.21590029               -0.41175165               -0.50162014                6.60614462                1.68346492
              14.91536906                2.56421795               48.36794878                0.00010000                0.31632113               -0.93707025               -1.30489546                0.67809696                0.30291697               -1.77803343
               5.24696289                7.00445968               49.38744758                1.00000000               -0.15559424               -0.34572939                0.92033969               -0.03938456                0.04524766                0.90812199
               6.24540695                6.68948111               49.18770710                0.00010000               -0.06590519                0.05749142                0.08642022               -0.05087412                0.42870910               -0.72228202
               7.24564479                6.37283958               48.99577706                0.00010000                0.25821995                0.47474390               -0.72598524               -0.45841676                4.64576396               -2.26139967
               8.25057135                6.04869715               48.88003488                0.00010000                0.69504884                0.39789558               -0.78213939               -1.07460155               11.54129555                2.56025964
               9.25954576                5.71105305               48.82348373                0.00010000                0.92589982                0.74090333               -1.76465390               -1.84084782               14.73423633                2.57235590
              10.26908934                5.36612002               48.76834807                0.00010000                0.93927315                0.79610945               -2.21228099               -2.21132248               15.18910779                3.56422882
              11.27833123                5.01301349               48.71714071                0.00010000                0.72862981                0.70298048               -2.40399872               -2.71426847               15.78880546                4.13837740
              12.28366194                4.64923839               48.67041031                0.00010000                0.01269000                0.93731207               -2.29346403               -3.21555092               16.25320960                3.61699141
              13.27858503                4.27920656               48.62626965                0.00010000               -0.97553109                1.82084393               -1.82937455               -2.61381610               16.43061214                2.64636783
              14.26415132                3.91286463               48.58452102                0.00010000               -0.49404855                1.05712757               -1.10581819               -0.57105455                8.31032620                1.62632136
              15.26870406                3.55753025               48.38337799                0.00010000                0.45527379               -0.07677474               -2.30744512                0.14120836                0.21643329               -2.41038704
               5.55954910                8.00147585               49.31400260                0.00010000               -0.08069113               -0.25592835                0.65567203               -0.03534192                0.00906022                0.74514894
               6.55874219                7.69044460               49.10632571                0.00010000                0.00335555                0.12613099               -0.15048221               -0.01921937                0.31483407               -0.76305837
               7.55961622                7.37824197               48.90480353                0.00010000                0.59833539                0.57402657               -0.94500850               -0.64977725                7.81962798               -2.51503353
               8.57070890                7.05314106               48.84674941                0.00010000                1.17885908                0.49059684               -1.31277033               -1.22236912               15.71955981                1.52724124
               9.58319340                6.71731635               48.79772460                0.00010000                1.31755727                0.53694853               -1.77058430               -1.71054438               16.97262860                2.49408641
              10.59706005                6.37241014               48.75893610                0.00010000                1.36485097                0.50443875               -2.16918795               -2.07398118               17.97960706                3.37412230
              11.61049042                6.01904657               48.72353632                0.00010000                1.17433360                0.49357849               -2.35388030               -2.40351576               18.51162104                3.97662299
              12.62054672                5.65786932               48.68930951                0.00010000                0.70528366                0.67170360               -2.31482145               -2.51959538               18.71153460                4.04720481
              13.62459609                5.29133704               48.65359781                0.00010000                0.09571760                0.88916912               -2.04990194               -2.13400529               18.51711338                3.34704529
              14.62246107                4.92069538               48.61393010                0.00010000                0.21329498                0.72301259               -1.60494058               -0.66508084                9.26121066                1.28138991
              15.62886199                4.56268246               48.39325689                0.00010000                0.64009187                0.69463535               -2.85598882                0.12576518                0.17089228               -2.33851908
               5.86831856                8.99934111               49.23977760                0.00010000               -0.00621164               -0.17358866                0.40223537               -0.03793333                0.02072136                0.70178761
               6.86825645                8.69200373               49.02482755                0.00010000                0.08171065                0.18508109               -0.38363663                0.01925799                0.15115196               -0.75700138
               7.86995277                8.38432011               48.81245282                0.00010000                0.93965687                0.59716886               -1.15175267               -0.81307227                9.80172472               -2.52758390
               8.88704958                8.05850909               48.78991087                0.00010000                1.80565122                0.45880705               -1.54332831               -1.57139377               19.68170855                0.15554569
               9.90606580                7.72179202               48.76716171                0.00010000                1.94149589                0.30565514               -1.91251600               -1.82172078               20.26196878                1.90858691
              10.92587950                7.37620880               48.74707962                0.00010000                1.93679660                0.23796294               -2.21843780               -1.96650373               20.99336663                2.96350011
              11.94480173                7.02288506               48.72936300                0.00010000                1.75500315                0.26680732               -2.40938359               -2.11615243               21.49900750                3.75362763
              12.96097956                6.66267246               48.71042815                0.00010000                1.41385659                0.34646857               -2.45036133               -2.15201255               21.42046315                4.27787801
              13.97307886                6.29698994               48.68435639                0.00010000                0.92623594                0.41003859               -2.32689434               -1.91371571               20.29989261                4.01821323
              14.97950428                5.92732488               48.63937891                0.00010000                0.70831708                0.68319096               -2.01337311               -0.72293524                9.80034779                1.09561246
              15.98724520                5.57142295               48.40121128                0.00010000                0.77409226                0.93787466               -3.20997989                0.08658141                0.11820218               -2.26443537
               6.17346519                9.99800408               49.16558715                0.00010000                0.06831605               -0.08845548                0.15535650               -0.03487171                0.00525600                0.70198176
               7.17414835                9.69414622               48.94330817                0.00010000                0.16921094                0.23789581               -0.62105755                0.03451724               -0.00811359               -0.72137910
               8.17684941                9.39018534               48.72066407                0.00010000                1.38303814                0.55685125               -1.36027055               -1.07520112               11.53345095               -2.20109515
               9.20180912                9.06231720               48.72855550                0.00010000                2.61049297                0.18066579               -1.72471440               -1.89253189               23.28433340               -0.11828666
              10.22905927                8.72342945               48.73025474                0.00010000                2.74139043               -0.08283722               -2.05867253               -1.76222133               23.53927473                1.27941063
              11.25663693                8.37716940               48.73082215                0.00010000                2.63222176               -0.05076277               -2.33141794               -1.65773215               24.18453529                2.27676847
              12.28170371                8.02438272               48.73239558                0.00010000                2.33823332                0.06105650               -2.53057973               -1.71948316               24.82954345                3.11445825
              13.30340159                7.66479869               48.73352613                0.00010000                1.99828249                0.18068452               -2.66547824               -1.85324718               24.71400260                4.03511219
              14.32166936                7.29953781               48.72282275                0.00010000                1.50838788                0.24225348               -2.68367890               -1.66710476               21.92181973                5.24540327
              15.33356935                6.93435920               48.66306599                0.00010000                1.03640540                0.74082337               -2.36907408               -0.65134811                9.85977919                1.09130454
              16.34239746                6.58143995               48.40838096                0.00010000                0.88281150                1.04457627               -3.50312424                0.06091945                0.09511678               -2.25023993
               6.47533685               10.99757200               49.09148394                0.00010000                0.14286770                0.00233987               -0.09945300               -0.03680691               -0.00506160                0.61717642
               7.47676552               10.69676165               48.86217829                0.00010000                0.24704594                0.28772105               -0.85796630                0.01521380                0.06772004               -0.58714764
               8.48027776               10.39545713               48.63416271                0.00010000                1.95946564                0.52768606               -1.57423445               -1.52748613               13.21631876               -1.34172412
               9.51595484               10.06212240               48.66716544                0.00010000                3.78457058               -0.57976987               -1.92451427               -1.73113656               26.39603356               -0.09461110
              10.55596918                9.72013527               48.68928056                0.00010000                3.79083787               -0.51120556               -2.23712216               -1.23251452               26.48927397                0.67780326
              11.59177159                9.37519354               48.70805415                0.00010000                3.34067986               -0.32118566               -2.49100586               -0.95760629               27.19341997                1.28340847
              12.62278277                9.02410619               48.72815155                0.00010000                2.84939654               -0.08669153               -2.69333435               -1.01072512               28.19847711                1.84500427
              13.64875952                8.66628615               48.75134619                0.00010000                2.36967434                0.15224177               -2.89559104               -1.23534458               29.20562073                2.62152459
              14.67017626                8.30183501               48.77748849                0.00010000                1.79078270                0.44209731               -3.23310437               -1.11687752               23.96644431                4.50459920
              15.68457518                7.94214135               48.68757669                0.00010000                1.20629145                0.80762373               -2.67200296               -0.52880182                9.09070382                1.06022613
              16.69430209                7.59231448               48.41515104                1.00000000                0.97269115                1.13129653               -3.76343893                0.04140716               -0.05298429               -1.83678969
               6.77434976               11.99805087               49.01570052                0.00010000                0.22177374                0.04788744               -0.35267692                0.08626779                0.31356252                0.52983488
               7.77656750               11.69990064               48.78293203                1.00000000                0.32945867                0.31389907               -1.10777986                0.11460693                0.75677272               -0.46915089
               8.78093893               11.40073906               48.55878990                0.00010000                3.29703749                0.52819318               -1.82681430               -2.39282473               14.93591800               -0.74316154
               9.84250825               11.05072181               48.60884382                0.00010000                5.51994551               -1.14005974               -2.17517676               -1.72134510               28.83242188               -0.21468198
              10.89133784               10.71320534               48.64441180                0.00010000                4.55028163               -0.69299311               -2.48400323               -0.46193933               28.81790456                0.21994079
              11.93351388               10.37074569               48.67638473                0.00010000                3.95293773               -0.44478558               -2.72552952               -0.35359416               29.66769445                0.54629600
              12.97039660               10.02264889               48.71064374                0.00010000                3.37260031               -0.14573070               -2.91037428               -0.38372545               31.01833925                0.84766371
              14.00096589                9.66784353               48.75113949                0.00010000                2.65400065                0.15573800               -3.11661666               -0.49282025               32.81518872                1.31382534
              15.02347661                9.30837976               48.80424553                0.00010000                1.57739781                0.65447501               -3.52234398               -0.53655766               26.67924961                2.65700514
              16.03251384                8.95051168               48.71041950                0.00010000                0.97013643                0.83703305               -2.91160620               -0.42182735               10.15629542                0.97683468
              17.04287934                8.60406588               48.43047438                1.00000000                1.03654978                1.17514041               -3.97005920                0.21314578                0.84274936               -1.42850014
               3.79147322                2.11607018               50.75159641                1.00000000               -0.63383727               -0.73081290                2.52443032               -0.18337465               -1.11332223                1.02035909
               4.78513485                1.77519001               50.57098957                1.00000000               -0.53323401               -0.40000060                1.51742055               -0.11697971               -1.51172119                0.17140478
               5.78080854                1.43340190               50.38302293                1.00000000               -0.36695682               -0.08877718                0.56474747               -0.14368974               -1.52091049               -0.21627008
               6.77779571                1.08805465               50.20233914                1.00000000               -0.69256932                0.32548633               -0.37883119               -0.55307386               -0.62246794               -0.88463932
               7.76695715                0.73090485               50.03190013                1.00000000               -0.84045880                0.62829401               -0.92556886               -0.24661575                0.31660314                0.01334546
               8.76098653                0.36399478               49.86982933                1.00000000               -0.50045855                0.79432160               -1.58395818               -0.30800166                0.95661436               -0.05601348
               9.75694798               -0.01325898               49.71400669                1.00000000               -0.55212796                1.19544508               -2.34184421               -0.81588689                2.35701214               -0.35284582
              10.74994397               -0.40937279               49.58323429                1.00000000                0.50649739                1.90335757               -3.18809846               -1.08944568                6.38997419               -0.28535007
              11.76707793               -0.81446252               49.52142867                1.00000000                1.84282338                0.38531124               -2.23452773               -2.22812152                2.96045389                2.05277765
              12.78680044               -1.15278139               49.37032276                1.00000000                1.34502023                0.29735460               -1.54789816               -0.53571391                0.24767405                0.26134136
              13.79397833               -1.47913032               49.20472497                1.00000000                0.71778916                0.62720440               -2.31883602               -0.27022376               -0.43102250               -0.34314960
               4.13051964                3.10876205               50.67672211                1.00000000               -0.52204515               -0.70001236                2.23935865               -0.00574968               -0.27893847                1.35683737
               5.12529919                2.77119001               50.49613711                1.00000000               -0.37901586               -0.36681042                1.22984463                0.05124176               -0.44361493                0.26227351
               6.12293932                2.43251413               50.31281942                1.00000000               -0.08928443               -0.05152569                0.24733013                0.02597427               -0.36670913               -0.36274707
               7.12351350                2.09130952               50.13391482                1.00000000                0.17908051                0.33208375               -0.73607143               -0.49887959                1.06401222               -1.22109613
               8.12652093                1.73718779               49.97913589                1.00000000                0.32374670                0.46545717               -1.43026804               -0.21184554                1.93593250                0.12472203
               9.12998843                1.37193800               49.82186658                1.00000000                0.44759835                0.77617148               -2.25746062               -0.28557109                1.94886360                0.03074175
              10.13547290                0.99869547               49.66933959                1.00000000                0.48314267                1.23871464               -3.29618551               -0.75359345                3.78119107               -0.51473360
              11.13965129                0.60966078               49.54962345                1.00000000               -0.94859420                2.31967132               -4.74935891               -2.57854713               11.34913102               -0.92076053
              12.11650101                0.18939059               49.54887804                1.00000000               -1.29370412               -0.02078968               -4.05003774               -4.62982648               11.05839101                4.77674823
              13.11377720               -0.14980785               49.41217224                1.00000000                0.05620042                0.22364082               -0.84379827               -0.64253279                1.46689863                0.44240879
              14.11762502               -0.47285828               49.24616476                1.00000000                0.38478191                0.54164305               -1.76119968               -0.09139145                0.03449474               -0.34643848
               4.46650231                4.10206993               50.60938645                1.00000000               -0.40947113               -0.63374428                1.91907485               -0.00785264               -0.02294772                1.68657963
               5.46240760                3.76785380               50.42331108                1.00000000               -0.26468984               -0.28641116                0.93553958                0.03246576                0.05651552                0.29098367
               6.46120851                3.43237139               50.23929701                1.00000000                0.03684302                0.04986487               -0.05671014               -0.04893119                0.28440965               -0.78271332
               7.46314446                3.09469633               50.05774149                1.00000000                1.04416237                0.37997917               -1.06124794               -0.89574531                2.91674644               -1.58789601
               8.48209176                2.74021399               49.92586289                1.00000000                1.53114858                0.47525720               -1.97037246               -1.86305062                3.86155800                0.08516349
               9.49376743                2.37951821               49.77235382                1.00000000                1.10307813                0.95522705               -2.91160811               -2.39318112                2.55580789                1.87914128
              10.50415332                2.01151531               49.61650199                1.00000000                0.69552373                1.44927199               -3.93004441               -3.32047680                4.04703126                3.83780432
              11.50767791                1.63702063               49.49185246                1.00000000               -3.51016472                2.25541646               -5.36913011               -8.25249382               17.79601975                6.33986270
              12.43395003                1.18512169               49.60622706                1.00000000               -3.57396254                0.57679144               -0.59025619               -6.59252177               15.37955165                3.51408141
              13.43619866                0.85169142               49.45741418                1.00000000                0.21506658                0.07112838               -0.27149402               -0.57882136                1.13584059                0.53880757
              14.43825136                0.53170254               49.28669418                1.00000000                0.20527061                0.35922582               -1.12744656               -0.07088973                0.03699075               -0.31507323
               4.79879484                5.09608716               50.54173340                1.00000000               -0.31477957               -0.54945202                1.59229255               -0.03406187                0.11212278                1.49078365
               5.79564704                4.76546178               50.34916373                1.00000000               -0.18383334               -0.17876497                0.63824381               -0.01304797                0.27840538                0.04911374
               6.79511817                4.43351143               50.16026407                1.00000000                0.10544725                0.18042584               -0.28379449               -0.14962637                0.96009627               -1.25315855
               7.79775599                4.09890910               49.98100459                0.00010000                0.46599319                0.51053000               -1.33667298               -1.12198490                4.84600863               -1.79365061
               8.80443804                3.74669293               49.86909041                0.00010000                0.65337510                0.85106814               -2.10083553               -2.75756938                8.14995669                1.00393344
               9.81082349                3.39104254               49.75876388                0.00010000                0.35614499                1.20284403               -2.84195881               -3.59786901                8.44274394                3.95136646
              10.81156094                3.02768091               49.65606427                0.00010000               -0.49142297                1.53348623               -3.46097347               -4.73059162               11.04198968                7.42712945
              11.80099503                2.65476911               49.60015665                0.00010000               -2.07905737                1.22999594               -3.15119173               -9.22558869               17.28590923                9.96683690
              12.76997979                2.20092642               49.62407423                0.00010000               -2.26875547                3.53019111               -2.20070707               -4.94900556               13.99037472               -0.75998434
              13.75561992                1.85161472               49.50193619                0.00010000               -0.68973990                1.18404400                0.15009674               -0.00932555                2.78698856                0.26869647
              14.75618499                1.53432624               49.32826255                0.00010000                0.05650691               -0.53292866               -0.56408523                1.49465550                0.17245115               -1.08358129
               5.12707184                6.09108089               50.47093291                1.00000000               -0.23494590               -0.45200957                1.27683339               -0.05626222                0.19652210                1.15893354
               6.12472238                5.76427850               50.27154282                1.00000000               -0.11515822               -0.04698974                0.32594330               -0.05488693                0.43107532               -0.39704703
               7.12476867                5.43597991               50.07706997                0.00010000                0.14004410                0.34622841               -0.58488668               -0.22040217                1.55782381               -1.73670536
               8.12752326                5.10490693               49.89983010                0.00010000                0.50191330                0.53662055               -1.48564240               -1.00882747                7.96414134                0.67527785
               9.13480694                4.75723535               49.83283238                0.00010000                0.66494089                0.96969414               -2.02990465               -1.94660898               12.77887525                2.47203561
              10.14082208                4.40357509               49.75164820                0.00010000                0.55039894                1.10289089               -2.62480214               -2.37727721               12.59699010                4.28451805
              11.14581492                4.04218503               49.68062030                0.00010000                0.45492711                1.08954630               -2.90409005               -3.19540977               14.19681008                5.83274636
              12.14992062                3.66162055               49.63050803                0.00010000               -0.38453023                0.84826831               -2.76301069               -4.54328603               15.60170398                4.97978197
              13.13812431                3.25572551               49.58480481                0.00010000               -2.36541459                4.13608197               -2.12486070               -3.22396131               15.96823784               -0.28778166
              14.10261233                2.87537230               49.54234286                0.00010000               -1.77014401                2.28518867               -0.71016720               -0.73581509                8.24124052                1.33300334
              15.10272143                2.52104397               49.35367519                0.00010000                0.01091045               -0.61052464               -1.64549551                0.69453872                0.51790654               -2.80663165
               5.45127437                7.08704697               50.39695220                1.00000000               -0.16240772               -0.35455914                0.98093295               -0.03878254                0.03444134                0.88044818
               6.44965029                6.76452199               50.18842074                0.00010000               -0.05963307                0.06478170                0.05627362               -0.04072921                0.42821050               -0.70223196
               7.45008171                6.44043600               49.98788947                0.00010000                0.33368501                0.51045834               -0.85129853               -0.40104818                5.05464216               -2.20541306
               8.45632399                6.10964151               49.87144956                0.00010000                0.83779943                0.51541283               -0.96136185               -0.81915489               11.88447168                2.91780081
               9.46683770                5.76608681               49.80468698                0.00010000                1.10021378                0.75640138               -1.99537168               -1.51859201               14.86545442                2.99995396
              10.47832827                5.41310035               49.74499462                0.00010000                1.13847916                0.76464070               -2.45827858               -1.95849067               15.74194459                4.13486103
              11.48960728                5.04947183               49.69181356                0.00010000                0.91302848                0.63325950               -2.66155019               -2.60681131               16.67436373                4.80258770
              12.49658884                4.67173448               49.64620528                0.00010000                0.10707672                0.93869111               -2.54951791               -3.39800881               17.58914068                4.25658331
              13.49174881                4.28364806               49.60690133                0.00010000               -1.05018368                2.09181957               -2.08153155               -2.95866653               18.28698977                3.09052264
              14.47558516                3.89731849               49.57270366                0.00010000               -0.65081883                1.61216876               -1.31893983               -0.61286208                9.49946567                1.41738770
              15.47873244                3.52211575               49.35867505                0.00010000                0.31472739                0.56222632               -2.64185610                0.23442062                0.39566397               -2.77759816
               5.77134615                8.08398971               50.32076801                0.00010000               -0.08273848               -0.26277795                0.70083073               -0.03432701                0.01281267                0.73210244
               6.77051877                7.76557414               50.10462635                0.00010000                0.01410162                0.13695176               -0.19051711               -0.00391167                0.32344305               -0.73344316
               7.77162819                7.44618907               49.89473769                0.00010000                0.74852868                0.60384508               -1.07445026               -0.55234964                8.04552990               -2.43900724
               8.78548934                7.11521518               49.83251251                0.00010000                1.46740337                0.55830167               -1.53610890               -0.97973913               16.12983051                1.47997225
               9.80097625                6.77236338               49.77887601                0.00010000                1.63889511                0.51569277               -2.00844386               -1.44484744               17.40939122                2.79135326
              10.81826724                6.41886790               49.73608894                0.00010000                1.70341562                0.43236131               -2.41034419               -1.83605914               18.58986721                3.76523971
              11.83504456                6.05485022               49.69897586                0.00010000                1.47584852                0.41634099               -2.57269868               -2.26272594               19.41175395                4.39273319
              12.84778421                5.68039438               49.66538234                0.00010000                0.91612003                0.66227082               -2.49450499               -2.55320133               19.94699522                4.39796084
              13.85336697                5.29756190               49.63258275                0.00010000                0.20515922                1.01355447               -2.18603758               -2.36091975               20.10003144                3.50845528
              14.85188740                4.90761568               49.59751781                0.00010000                0.22241848                0.88921198               -1.68672027               -0.77892810               10.19306502                1.18152866
              15.85781533                4.53228849               49.36378362                0.00010000                0.59279364                1.04582585               -2.99363792                0.16496789                0.22273233               -2.28210815
               6.08741897                9.08179141               50.24396568                0.00010000               -0.00462735               -0.17929882                0.43877952               -0.03698704                0.02615965                0.69918347
               7.08737269                8.76726102               50.02073955                0.00010000                0.09873509                0.19947015               -0.43634651                0.03006114                0.16634883               -0.72838059
               8.08939367                8.45251290               49.80028725                0.00010000                1.15911028                0.62557487               -1.28321605               -0.73178623               10.02051446               -2.45071132
               9.11055490                8.12080754               49.77347129                0.00010000                2.24471794                0.44372640               -1.75272839               -1.38591617               20.12003869                0.27701914
              10.13428803                7.77640067               49.74688520                0.00010000                2.42826711                0.22399800               -2.15474190               -1.62403887               20.78561695                2.10456256
              11.15912024                7.42174758               49.72383041                0.00010000                2.42691308                0.11393983               -2.44812501               -1.74814881               21.66477322                3.23019764
              12.18282629                7.05779865               49.70451707                0.00010000                2.18464461                0.14497848               -2.58182952               -1.91930797               22.37857253                4.01535729
              13.20281313                6.68497990               49.68570299                0.00010000                1.72414131                0.28554805               -2.52558099               -2.06245496               22.54718601                4.45904011
              14.21730911                6.30391915               49.66139995                0.00010000                1.12334371                0.44606054               -2.30261832               -2.08044311               21.66922644                4.06997292
              15.22528001                5.91510273               49.61917409                0.00010000                0.76885238                0.74038952               -2.01165645               -0.87792318               10.56462367                1.01867738
              16.23268616                5.54303227               49.36881574                0.00010000                0.74061551                1.06368216               -3.21114176                0.08753316                0.12437012               -2.14343736
               6.39966719               10.08040373               50.16726227                0.00010000                0.07313140               -0.09365307                0.18073766               -0.03536022                0.00431714                0.69860548
               7.40039851                9.76956354               49.93679562                0.00010000                0.18893740                0.25612442               -0.68168489                0.04132467                0.01260387               -0.69547713
               8.40344594                9.45870057               49.70640028                0.00010000                1.67423697                0.59244685               -1.49553762               -1.05551216               11.76671017               -2.13168351
               9.43388325                9.12408971               49.71030152                0.00010000                3.20547490                0.08733398               -1.93667420               -1.80217880               23.74864793                0.00144376
              10.46755544                8.77684334               49.70854234                0.00010000                3.40115193               -0.24851023               -2.29915485               -1.62622289               24.10229637                1.43905767
              11.50190628                8.42114670               49.70652360                0.00010000                3.29353263               -0.24536646               -2.54710165               -1.46703999               24.88391506                2.46089504
              12.53342609                8.05774979               49.70660709                0.00010000                2.92541666               -0.14383662               -2.64870995               -1.49141255               25.68910964                3.28641905
              13.56041462                7.68610534               49.70744572                0.00010000                2.41045872               -0.00160543               -2.57954885               -1.63836870               25.75995772                4.13479284
              14.58163527                7.30648311               49.69787051                0.00010000                1.74006020                0.15344920               -2.34896714               -1.69233420               23.13340628                5.21147829
              15.59521582                6.92242347               49.63948009                0.00010000                1.10358350                0.75324886               -2.31650645               -0.80013887               10.50414787                1.02332210
              16.60370693                6.55356214               49.37346277                0.00010000                0.84911138                1.06115832               -3.41630447                0.05735178                0.08197784               -2.15178634
               6.70839214               11.07991835               50.09055511                0.00010000                0.15102063               -0.00232116               -0.08446954               -0.03805472               -0.00181054                0.60979136
               7.70990235               10.77238351               49.85325112                0.00010000                0.26825563                0.31002615               -0.92818117                0.01780814                0.09478230               -0.56802571
               8.71375725               10.46436183               49.61771933                0.00010000                2.32331011                0.56834451               -1.71838375               -1.60985846               13.45387345               -1.29773431
               9.75636855               10.12255422               49.64689492                0.00010000                4.54746632               -0.78764350               -2.14040291               -1.74068739               26.87504256               -0.01883795
              10.80470658                9.77143047               49.66578975                0.00010000                4.62522192               -0.75330190               -2.47675409               -1.16049688               27.08071338                0.77487543
              11.84887299                9.41684025               49.68221555                0.00010000                4.16664105               -0.58946975               -2.69397415               -0.83173800               27.92121588                1.39163181
              12.88803940                9.05492192               49.70093927                0.00010000                3.62197264               -0.38841907               -2.76472226               -0.85042233               29.06326734                1.94393358
              13.92131244                8.68494779               49.72363762                0.00010000                2.95524480               -0.19231408               -2.66128880               -1.03094525               30.19418553                2.67422613
              14.94714430                8.30698814               49.75004349                0.00010000                2.04428815                0.11991034               -2.30154701               -1.01900428               25.08101961                4.43089897
              15.96219820                7.93016771               49.66097945                0.00010000                1.22057814                0.79754801               -2.60379423               -0.58167008                9.66847624                1.00490840
              16.97155586                7.56425543               49.37790157                0.00010000                0.93576562                1.09990326               -3.61780357                0.04268498               -0.08098439               -1.76199205
               7.01397578               12.08035731               50.01218404                0.00010000                0.23354075                0.04389563               -0.34867295                0.09903930                0.30488716                0.52215065
               8.01631119               11.77576406               49.77145487                1.00000000                0.35511404                0.33805530               -1.18881236                0.12639136                0.76729888               -0.45647885
               9.02107806               11.47006746               49.53974248                0.00010000                3.78448405                0.57056249               -1.98302266               -2.63928064               15.15832715               -0.72022152
              10.09200087               11.10833684               49.58602662                0.00010000                6.44907065               -1.42173810               -2.39716156               -1.85127613               29.31174857               -0.17551426
              11.15005947               10.76177730               49.61843846                0.00010000                5.48896007               -0.96531617               -2.72240046               -0.41368770               29.42593397                0.27167491
              12.20178007               10.40935731               49.64822203                0.00010000                4.91253181               -0.74829457               -2.91817090               -0.29908659               30.43195701                0.60383278
              13.24831011               10.04998141               49.68132670                0.00010000                4.29747150               -0.49405084               -2.95946610               -0.32784190               31.92999947                0.90024633
              14.28772950                9.68225905               49.72148580                0.00010000                3.38625735               -0.26887323               -2.81600935               -0.41329903               33.83257737                1.33346534
              15.31603526                9.30888132               49.77467929                0.00010000                1.92928125                0.18931834               -2.41072792               -0.30513552               27.75521301                2.61750366
              16.32631512                8.93837443               49.68125974                0.00010000                1.01749687                0.82067184               -2.86375039               -0.25436393               10.67534441                0.91436482
              17.33638519                8.57556020               49.39113516                1.00000000                1.00700695                1.13047712               -3.82037060                0.20151057                0.79302827               -1.38575268
               3.96628682                2.20234749               51.77757326                1.00000000               -0.66100448               -0.76893870                2.66081534               -0.20208086               -1.04916020                0.97256420
               4.95967678                1.85314841               51.58640448                1.00000000               -0.54626845               -0.40946317                1.55867650               -0.13451601               -1.41077949                0.16134273
               5.95536145                1.50304001               51.38846715                1.00000000               -0.34844483               -0.06904640                0.51659931               -0.15948598               -1.37393364               -0.21448349
               6.95270788                1.14952647               51.19787889                1.00000000               -0.63594868                0.37266678               -0.52467298               -0.49167697               -0.24244439               -0.86512945
               7.94264248                0.78617319               51.02158815                1.00000000               -0.79793242                0.76001017               -1.19598853               -0.26238236                0.98037197               -0.01096870
               8.93674923                0.41468911               50.85242626                1.00000000               -0.49628788                0.96461208               -2.00321192               -0.30181242                1.71552555               -0.08762930
               9.93271672                0.03317648               50.68830990                1.00000000               -0.71837931                1.43770418               -2.97871790               -0.83004329                3.36383143               -0.30525910
              10.92238164               -0.36762512               50.54786967                1.00000000               -1.68471235                2.42094698               -4.31245033               -2.31883067                8.97006069                0.12539712
              11.89902247               -0.80896046               50.49004368                1.00000000                1.58967359                2.56242109               -3.72076804               -0.21215877                6.16713498                2.50126387
              12.95417512               -1.19555728               50.35404051                1.00000000                3.08190493                0.33285500               -1.62244074               -2.81939285                1.73910605                0.30632003
              13.96066057               -1.52629174               50.18065351                1.00000000                0.64854553                0.66203012               -2.41802955               -0.26852801               -0.18786273               -0.24947585
               4.31346510                3.19465810               51.69978360                1.00000000               -0.54797419               -0.73357426                2.36406050               -0.00913081               -0.25666457                1.29560753
               5.30798535                2.84905377               51.50861150                1.00000000               -0.39437684               -0.37413458                1.25954704                0.05032610               -0.40073183                0.25031776
               6.30557756                2.50234955               51.31501692                1.00000000               -0.08804167               -0.03050488                0.18817077                0.03259448               -0.30457253               -0.35452340
               7.30622452                2.15325314               51.12579116                1.00000000                0.09298881                0.38016978               -0.89189916               -0.36571404                1.29464479               -1.19313263
               8.30743734                1.79377329               50.96390341                1.00000000                0.20024685                0.61789925               -1.66349106               -0.17556845                2.34086192                0.07136415
               9.31022946                1.42433523               50.79794792                1.00000000                0.40680326                0.93674483               -2.59889480               -0.22620779                2.25380303                0.00281078
              10.31557340                1.04755353               50.63436189                1.00000000                0.50161754                1.43643880               -3.78761654               -0.55341922                3.80843042               -0.37314527
              11.32026181                0.65658435               50.49792623                1.00000000               -0.23532174                2.54528799               -5.65826685               -2.76448219               11.61107259               -0.22253608
              12.31086697                0.21666375               50.48551064                1.00000000               -1.78074905                0.47685454               -7.89333339               -6.89038485               15.58900469               10.21169174
              13.28464683               -0.19222873               50.40341056                1.00000000               -1.10786097                0.23424657               -0.92584994               -3.95745015                4.65437684                0.43575756
              14.28870975               -0.51967144               50.22813971                1.00000000                0.40629186                0.56800054               -1.80664026               -0.10074575                0.01425685               -0.23294498
               4.65731286                4.18767600               51.62915454                1.00000000               -0.43210101               -0.65831503                2.02847177               -0.01008733               -0.01155091                1.60795360
               5.65299185                3.84566571               51.43276205                1.00000000               -0.27494427               -0.28971143                0.95087435                0.03661043                0.06803994                0.27526227
               6.65181398                3.50242991               51.23837818                1.00000000                0.04890019                0.06782630               -0.12812953               -0.02626365                0.28820289               -0.73150912
               7.65396986                3.15712986               51.04632063                1.00000000                0.81175209                0.42609328               -1.21789617               -0.67791820                2.99000325               -1.51771420
               8.66804902                2.79853117               50.90553310                1.00000000                1.22374909                0.59349026               -2.13393983               -1.47877659                3.98103293                0.21040538
               9.67844484                2.43342400               50.74211426                1.00000000                1.06750975                0.99002697               -3.17754981               -2.03620833                2.57050662                2.23696766
              10.68939921                2.06190526               50.57519206                1.00000000                0.97684679                1.32832774               -4.40186708               -2.99997919                3.81719286                4.71150444
              11.69798177                1.68328064               50.43526042                1.00000000               -3.96856782                1.73463576               -5.64054230               -9.36852848               20.52268713                8.66707184
              12.61002786                1.20057663               50.59587268                1.00000000               -4.33102352                0.06705078               -3.23245628              -10.88500957               18.94722672                7.32669986
              13.61136130                0.80912765               50.45458176                0.00010000                0.17516034                0.06103056               -0.32501381               -3.25611128                1.91137055                0.45575006
              14.61353106                0.48506827               50.27574594                1.00000000                0.21697608                0.36452281               -1.12369361               -0.07799145                0.05265405               -0.20819565
               4.99728393                5.18149180               51.55813660                1.00000000               -0.33202783               -0.56628517                1.68493727               -0.03435397                0.11911639                1.41909651
               5.99396365                4.84325954               51.35554630                1.00000000               -0.18478985               -0.17844490                0.63666293               -0.00767778                0.30202301                0.02553560
               6.99358814                4.50370607               51.15694940                1.00000000                0.13006222                0.19788365               -0.37926532               -0.12143650                0.93913421               -1.19788044
               7.99656490                4.16177500               50.96680965                0.00010000                0.39897655                0.55569360               -1.50045280               -0.90490072                4.92101003               -1.63800803
               9.00156767                3.80564309               50.84720211                0.00010000                0.47831530                0.89056249               -2.27990643               -2.22478170                8.35720189                1.39416549
              10.00613120                3.44413577               50.72924156                0.00010000                0.20747577                1.12617846               -3.06765726               -3.12845165                8.71383416                4.65837109
              11.00571718                3.07412008               50.62011075                0.00010000               -0.59556686                1.19936657               -3.69242079               -4.46436943               11.84471061                8.70984424
              11.99421987                2.69127706               50.56660420                0.00010000               -1.91987083                0.46947274               -3.61784819               -9.75983581               18.74631545               12.26080820
              12.96731977                2.21800477               50.59539832                0.00010000               -2.95934520                3.28803970               -3.12564350               -7.21422329               17.39373711                0.62498183
              13.93503296                1.80899188               50.50399594                0.00010000               -1.60255481                2.31588880                0.23982186               -1.67933847                4.71701994               -0.65820992
              14.93526867                1.48761902               50.32339590                0.00010000                0.02357058               -0.36977244               -0.48534786                2.33928714                0.23698442               -1.99082549
               5.33309030                6.17635030               51.48408476                1.00000000               -0.24662725               -0.46291310                1.35267222               -0.05381282                0.18014358                1.10744560
               6.33062403                5.84209682               51.27472042                1.00000000               -0.11102542               -0.04533018                0.30805314               -0.04462355                0.43589875               -0.40654860
               7.33086979                5.50638759               51.07069989                0.00010000                0.16553977                0.36787602               -0.69165625               -0.18662004                1.59313472               -1.70406971
               8.33393482                5.16824374               50.88408348                0.00010000                0.51614160                0.62978747               -1.65594296               -0.75733987                8.19334378                1.21988379
               9.34119262                4.81634242               50.81151348                0.00010000                0.67319990                0.96826986               -2.23718878               -1.52770206               13.15522122                2.90868312
              10.34739882                4.45594757               50.72424638                0.00010000                0.58889534                1.01203684               -2.85027178               -1.98896906               13.11416286                4.92916704
              11.35297053                4.08589259               50.65023582                0.00010000                0.57507758                0.82948056               -3.16653248               -2.91934082               15.11145254                6.76441627
              12.35890037                3.69267009               50.60102374                0.00010000               -0.24709753                0.41093369               -3.09233845               -4.67090217               17.08192885                5.98006781
              13.34802858                3.26633743               50.56205383                0.00010000               -2.53700433                3.76171511               -2.43039235               -4.33589992               18.28819341                0.79870596
              14.30816028                2.85544542               50.53283837                0.00010000               -2.24830262                3.85227758               -1.44981924               -1.06653272               10.16949129                0.98724918
              15.30306253                2.47767282               50.33503887                0.00010000               -0.50977587                0.21254163               -2.29908247                0.69303486                1.12959195               -3.87244004
               5.66471465                7.17223354               51.40706623                1.00000000               -0.16807502               -0.36229395                1.04133931               -0.03814058                0.02414003                0.85043258
               6.66303390                6.84235294               51.18883257                0.00010000               -0.05029171                0.06800548                0.02584825               -0.02762978                0.42681800               -0.68162109
               7.66370881                6.51106359               50.97875109                0.00010000                0.42146840                0.53382277               -0.97683284               -0.31056638                5.46813919               -2.14910504
               8.67146327                6.17437075               50.86080764                0.00010000                0.98004886                0.62375177               -1.19877714               -0.54113653               12.26477271                3.24870082
               9.68330979                5.82500849               50.78357629                0.00010000                1.26691944                0.73013866               -2.22930838               -1.16910410               15.07085210                3.35200370
              10.69680165                5.46437650               50.71918250                0.00010000                1.36490269                0.64657868               -2.70882723               -1.64700379               16.37589523                4.60069551
              11.71060784                5.09070969               50.66390970                0.00010000                1.17776674                0.41525676               -2.92255151               -2.42095985               17.64866711                5.35844737
              12.72035699                4.69949574               50.61941995                0.00010000                0.36092959                0.68303645               -2.81431337               -3.52456306               19.00264651                4.83379344
              13.71782644                4.29323907               50.58463902                0.00010000               -0.89950384                2.03350467               -2.39484068               -3.35128154               20.21477676                3.48101084
              14.70236691                3.88603743               50.55814222                0.00010000               -0.65759344                2.12050510               -1.68786547               -0.72040033               10.76684461                1.39723552
              15.70467457                3.49186985               50.33054087                0.00010000                0.23076551                1.46133886               -2.99599428                0.46936605                0.68692416               -2.81144448
               5.99208868                8.16910442               51.32801922                0.00010000               -0.08473082               -0.27015071                0.74977103               -0.03578097                0.01749911                0.72098102
               6.99124138                7.84345693               51.10251537                0.00010000                0.02759834                0.14569548               -0.23257996                0.00937904                0.33117485               -0.70366934
               7.99264065                7.51706404               50.88331452                0.00010000                0.89629082                0.62898515               -1.21120157               -0.44078243                8.27293404               -2.36001334
               9.00916719                7.18071877               50.81602724                0.00010000                1.75820689                0.59448576               -1.76124639               -0.73648556               16.56494282                1.40878060
              10.02780479                6.83094520               50.75755572                0.00010000                1.97951753                0.46042230               -2.26641831               -1.18651979               17.90510733                3.02290251
              11.04875754                6.46887915               50.71072922                0.00010000                2.08136542                0.30007951               -2.67525668               -1.60030141               19.26945975                4.06766107
              12.06943210                6.09419773               50.67208235                0.00010000                1.85610939                0.24256435               -2.82645108               -2.13277857               20.38887710                4.72492003
              13.08587973                5.70633082               50.63941941                0.00010000                1.25145787                0.51470714               -2.72781690               -2.62533981               21.25442258                4.69934903
              14.09446125                5.30700752               50.60987705                0.00010000                0.46208830                0.99312817               -2.39659044               -2.66547194               21.75848471                3.70903734
              15.09512150                4.89785553               50.58019569                0.00010000                0.31618739                0.98493579               -1.80734280               -0.95469336               11.16403104                1.19819753
              16.10078500                4.50689960               50.33338414                0.00010000                0.56635056                1.35026049               -3.05839697                0.19314431                0.30143926               -1.98192057
               6.31529402                9.16683053               51.24855319                0.00010000               -0.00321645               -0.18588302                0.47839657               -0.03656016                0.02701536                0.69850945
               7.31526186                8.84526685               51.01610062                0.00010000                0.11686476                0.21340871               -0.49061314                0.04169087                0.18558208               -0.69768792
               8.31763132                8.52364330               50.78678850                0.00010000                1.37952714                0.65277725               -1.42149042               -0.64846581               10.24716675               -2.36757943
               9.34285240                8.18626047               50.75485630                0.00010000                2.68938521                0.41018393               -1.97705988               -1.19767699               20.56821362                0.37804175
              10.37141902                7.83421694               50.72406687                0.00010000                2.93453471                0.11804287               -2.42238402               -1.44020250               21.34589928                2.24487169
              11.40154309                7.47037809               50.69811712                0.00010000                2.95407874               -0.04384943               -2.71600933               -1.55815109               22.39800986                3.42547153
              12.43050060                7.09556098               50.67772641                0.00010000                2.67486524               -0.02544127               -2.80700711               -1.77282659               23.34206047                4.22262413
              13.45504040                6.70978988               50.65991653                0.00010000                2.12458485                0.16145503               -2.67357980               -2.05008771               23.75983241                4.66456360
              14.47299229                6.31310163               50.63830402                0.00010000                1.41702825                0.40581592               -2.36601277               -2.31059349               23.07464978                4.27368876
              15.48338096                5.90573615               50.59914578                0.00010000                0.87285055                0.75823778               -1.99530796               -1.06440101               11.32095369                1.00284519
              16.49044930                5.51887506               50.33698844                0.00010000                0.70683397                1.12094022               -3.12031570                0.07822435                0.14501350               -1.89015063
               6.63448483               10.16538676               51.16920190                0.00010000                0.07775911               -0.09922382                0.20823610               -0.03543733                0.00501215                0.69567002
               7.63526242                9.84772510               50.92967447                0.00010000                0.20964437                0.27375177               -0.74270626                0.04839560                0.03988398               -0.66513333
               8.63867772                9.53011959               50.69075332                0.00010000                1.96887948                0.62584729               -1.63883209               -1.03612654               12.00708199               -2.06006205
               9.67464001                9.18892245               50.68982202                0.00010000                3.81026974               -0.01199616               -2.16891263               -1.71403350               24.21636281                0.09962908
              10.71488311                8.83330605               50.68427164                0.00010000                4.08052341               -0.42401395               -2.57232708               -1.50382518               24.69287983                1.55599285
              11.75625048                8.46800216               50.67988011                0.00010000                3.98403327               -0.45251688               -2.80655262               -1.30569243               25.64575933                2.59221501
              12.79456378                8.09368890               50.67942138                0.00010000                3.55434209               -0.36478639               -2.82313764               -1.31583896               26.67198053                3.42970866
              13.82733732                7.70955992               50.68193516                0.00010000                2.88696706               -0.20296438               -2.57328220               -1.50332273               26.97804101                4.31217172
              14.85230312                7.31512384               50.67584340                0.00010000                2.03613641                0.02712875               -2.12145659               -1.75385565               24.29920753                5.56592430
              15.86806005                6.91302028               50.61673586                0.00010000                1.18842689                0.73618558               -2.22170991               -0.95498842               11.00575007                0.98115624
              16.87607166                6.52931841               50.34005487                0.00010000                0.80116077                1.02635928               -3.23135474                0.04925614                0.08039346               -1.96568597
               6.94990860               11.16484605               51.08979455                0.00010000                0.15883434               -0.00753751               -0.06608050               -0.03936499                0.00183615                0.60404254
               7.95149694               10.85074189               50.84361466                0.00010000                0.29014170                0.33192381               -0.99917476                0.02034051                0.12738658               -0.54758526
               8.95571143               10.53616024               50.59979503                0.00010000                2.69441604                0.60843749               -1.86832973               -1.69326680               13.70084154               -1.25312693
              10.00538526               10.18602054               50.62435738                0.00010000                5.32756888               -0.99871599               -2.37799213               -1.75081798               27.35845470                0.04632398
              11.06226281                9.82573666               50.63974548                0.00010000                5.48305665               -0.99823152               -2.74985320               -1.09573937               27.69786406                0.84781567
              12.11504640                9.46132776               50.65417467                0.00010000                5.01816196               -0.85963788               -2.93842794               -0.72285530               28.71754650                1.46915356
              13.16262605                9.08826525               50.67285711                0.00010000                4.42463051               -0.69049780               -2.88390247               -0.72140660               30.09387718                2.02765180
              14.20353901                8.70573059               50.69812041                0.00010000                3.59143850               -0.53717232               -2.49629713               -0.88467605               31.58944824                2.79535635
              15.23445482                8.31364421               50.73145755                0.00010000                2.32738109               -0.18328003               -1.51207604               -0.93834619               26.05757456                4.72389322
              16.25008663                7.92045986               50.63550081                0.00010000                1.21916794                0.76090573               -2.47159290               -0.63685767                9.80817669                0.94742203
              17.25883818                7.53940225               50.34279497                0.00010000                0.87515504                1.02826182               -3.36917548                0.04010966               -0.09174575               -1.62789835
               7.26190586               12.16523601               51.00872707                0.00010000                0.24491810                0.03899620               -0.34052641                0.11248211                0.29672884                0.51567487
               8.26435504               11.85436358               50.75915579                1.00000000                0.38139333                0.36216891               -1.27056494                0.13842577                0.78478176               -0.44382709
               9.26953372               11.54228834               50.51912945                0.00010000                4.28460987                0.61280942               -2.14101641               -2.88854323               15.39406621               -0.69578331
              10.35004724               11.16894813               50.56090059                0.00010000                7.40636951               -1.70724131               -2.63643610               -1.98114857               29.80615017               -0.13314798
              11.41766111               10.81334142               50.58996379                0.00010000                6.46087726               -1.23952361               -2.98627944               -0.36710637               30.07302644                0.32000166
              12.47926478               10.45080940               50.61802131                0.00010000                5.90358476               -1.05183566               -3.14025300               -0.25128549               31.27405350                0.65651000
              13.53573281               10.07987895               50.65145442                0.00010000                5.25000307               -0.83863058               -3.03900592               -0.28897031               33.02270490                0.96029124
              14.58426484                9.69881648               50.69481930                0.00010000                4.15370611               -0.69141165               -2.56307778               -0.34845189               35.31050313                1.42058973
              15.61880693                9.31145824               50.75603098                0.00010000                2.26500081               -0.21859712               -1.43273665               -0.09369293               28.62806573                2.82212348
              16.62956486                8.92823840               50.65314449                0.00010000                1.00910694                0.77785394               -2.72280093               -0.13090690               10.62417605                0.84380556
              17.63898907                8.54988364               50.35406697                1.00000000                0.94242117                1.04813947               -3.54804532                0.17961360                0.74334793               -1.29057370
               4.15282757                2.29110079               52.80481272                1.00000000               -0.68022038               -0.80078656                2.77456140               -0.21949940               -0.98010999                0.92292407
               5.14602537                1.93400283               52.60216310                1.00000000               -0.54860582               -0.41640298                1.58556916               -0.15181811               -1.30347516                0.15127444
               6.14185546                1.57601270               52.39335492                1.00000000               -0.30997728               -0.05000727                0.45525887               -0.17249030               -1.22726780               -0.20950284
               7.13982583                1.21492752               52.19184568                1.00000000               -0.49191155                0.40776017               -0.68675568               -0.42848058                0.08913167               -0.84141522
               8.13201723                0.84605494               52.00798036                1.00000000               -0.56252652                0.86151724               -1.56303407               -0.27001449                1.52113872               -0.01029649
               9.12857529                0.47119886               51.82976510                1.00000000               -0.16180150                1.11073442               -2.58161839               -0.27308219                2.25140768               -0.10975059
              10.12878120                0.08853185               51.65443233                1.00000000               -0.04819441                1.58185495               -3.85162053               -0.62064051                3.76365195               -0.28772545
              11.12761141               -0.30697796               51.49698528                1.00000000               -2.22657052                2.47972759               -5.64971588               -2.88389282               10.93193502                0.30390438
              12.08424979               -0.75537116               51.44701331                1.00000000                0.16806604                4.31665918               -5.17756092               -3.06615730               11.35333263               -0.65429214
              13.13097273               -1.24539509               51.33787394                1.00000000                2.63726436                0.37611374               -1.67108492               -7.85975865                3.48144573                0.29059410
              14.13699507               -1.57909222               51.15636438                1.00000000                0.60223462                0.64826265               -2.40841600               -0.22403511               -0.11983694               -0.24787329
               4.50773054                3.28309292               52.72400332                1.00000000               -0.56793069               -0.76123917                2.46867242               -0.01397726               -0.23000726                1.23273916
               5.50205123                2.92983880               52.52132805                1.00000000               -0.40311658               -0.37892869                1.27774964                0.04695429               -0.35030633                0.23752698
               6.49966821                2.57551263               52.31658283                1.00000000               -0.07656682               -0.01019896                0.12192895                0.03624244               -0.23620261               -0.34503206
               7.50051990                2.21900512               52.11607683                1.00000000                0.07566008                0.41980214               -1.04980365               -0.24393646                1.51634052               -1.15810794
               8.50118141                1.85467011               51.94586607                1.00000000                0.20430599                0.75342297               -1.97412697               -0.13986752                2.74177137                0.04529052
               9.50460602                1.48230620               51.76988868                1.00000000                0.52408962                1.08825339               -3.04754802               -0.16881986                2.54594409               -0.04328708
              10.51166320                1.10435040               51.59358726                1.00000000                0.80589843                1.57323417               -4.37688693               -0.29585313                3.69707296               -0.38720883
              11.52072399                0.71781931               51.43645811                1.00000000                0.55667859                2.43310308               -6.26686919               -2.33576760               10.62060057                0.38887239
              12.52279678                0.28779543               51.39101137                1.00000000               -2.82441574               -1.14304185               -6.62032140              -12.50649155               18.39835180                9.77035719
              13.46423567               -0.24163395               51.39365524                1.00000000               -2.71724575                0.28080637               -1.02146592               -9.84124729                9.30304087                0.41869173
              14.46845186               -0.57260960               51.21003196                1.00000000                0.42161889                0.56873308               -1.81714324               -0.09851364                0.01400336               -0.21533823
               4.85905628                4.27587600               52.64995588                1.00000000               -0.45115261               -0.67770249                2.12336784               -0.01381379                0.00426723                1.52645114
               5.85454475                3.92642425               52.44232856                1.00000000               -0.28211474               -0.29123374                0.95846010                0.03780902                0.08903897                0.25623133
               6.85341398                3.57580872               52.23673442                1.00000000                0.06224272                0.08597432               -0.20128356               -0.00656965                0.30883351               -0.68853306
               7.85578961                3.22332356               52.03338357                1.00000000                0.62524039                0.46904882               -1.36669799               -0.46408671                3.10178389               -1.44820183
               8.86591879                2.86112340               51.88318409                1.00000000                0.98645012                0.69628745               -2.36408233               -1.11954397                4.22504463                0.32096971
               9.87551861                2.49296393               51.70880282                1.00000000                1.07161168                0.98858162               -3.50979130               -1.67706750                2.67285821                2.52558765
              10.88735103                2.11999654               51.52846465                1.00000000                1.09662091                1.12418122               -4.87359601               -2.59252628                4.00327089                5.45065004
              11.89745103                1.74168410               51.37904162                1.00000000               -4.68889040                0.82013195               -5.42176126              -10.91593774               21.10822364               10.52421634
              12.79357322                1.22176800               51.54157794                0.00010000               -5.14491101               -2.02752611               -5.45669559              -16.18985228               23.60062342               10.30518577
              13.79455281                0.76022104               51.45091391                0.00010000                0.17014402                0.09139317               -0.40662691               -6.58792436                4.87264118                0.45916592
              14.79697610                0.43228244               51.26422031                1.00000000                0.24232903                0.39131988               -1.20318358               -0.11021508                0.09035148               -0.17562159
               5.20635777                5.26953887               52.57543214                1.00000000               -0.34830676               -0.57879199                1.76828914               -0.03511945                0.13005987                1.34349556
               6.20287470                4.92401412               52.36189699                1.00000000               -0.18601292               -0.17814988                0.63196395               -0.00131470                0.33112094               -0.00348727
               7.20263751                4.57723211               52.15267877                1.00000000                0.15243910                0.21440506               -0.47502094               -0.08868519                0.93720686               -1.15371594
               8.20592348                4.22838610               51.95099553                0.00010000                0.32563277                0.59915227               -1.66205812               -0.69246566                5.05304403               -1.48664403
               9.20915016                3.86859586               51.82349228                0.00010000                0.31340256                0.89557160               -2.47563411               -1.72392992                8.66308489                1.69469518
              10.21219153                3.50207784               51.69741073                0.00010000                0.09711715                0.96267788               -3.30833040               -2.64487281                9.15848700                5.23548086
              11.21109251                3.12683403               51.58221585                0.00010000               -0.57788829                0.68389369               -3.89501061               -4.19701518               12.72949978                9.85732377
              12.20063377                2.73422195               51.52779969                0.00010000               -1.53148599               -0.66389732               -4.02119854               -9.86494803               20.42375301               13.67778621
              13.18046279                2.24724491               51.56156136                0.00010000               -3.93355104                3.03454680               -4.21274667               -9.77638532               20.73143319                2.31318953
              14.12196275                1.76019391               51.50673263                0.00010000               -2.91690110                4.03749833                0.29724479               -3.67818997                6.97674552               -2.07262590
              15.12212477                1.43521680               51.31855559                0.00010000                0.01620191                0.20838793               -0.52598692                3.69909756                0.31048923               -3.40285081
               5.54940339                6.26430017               52.49798636                1.00000000               -0.25781710               -0.47088539                1.42333311               -0.05055477                0.16528005                1.05094059
               6.54682522                5.92286126               52.27770388                1.00000000               -0.10675417               -0.04597521                0.28870894               -0.02881258                0.44636774               -0.41987672
               7.54726831                5.58009682               52.06323684                0.00010000                0.18756621                0.38035770               -0.80215465               -0.13613687                1.65506088               -1.68048352
               8.55057654                5.23530661               51.86671124                0.00010000                0.52400732                0.71428346               -1.81283150               -0.50956127                8.46866373                1.71332128
               9.55774845                4.87903483               51.78808860                0.00010000                0.69032235                0.92443945               -2.45526342               -1.11797029               13.61425190                3.23195363
              10.56438299                4.51221749               51.69464277                0.00010000                0.67590768                0.82767956               -3.08164040               -1.60195973               13.74344273                5.40221448
              11.57126661                4.13367441               51.61728965                0.00010000                0.76790984                0.39801152               -3.42603995               -2.62803374               16.17267534                7.37443475
              12.57974119                3.72840615               51.56866126                0.00010000                0.04034711               -0.21036339               -3.41752529               -4.79683957               18.69531157                6.63088421
              13.57207355                3.28245894               51.53619696                0.00010000               -2.33620363                2.91000749               -2.71689893               -5.52879258               20.41774630                1.36473046
              14.53301712                2.84097101               51.51334647                0.00010000               -2.55806355                5.88559864               -2.72429761               -1.14756424               12.08527184                0.03226423
              15.52091228                2.43645020               51.30769354                0.00010000               -1.21048367                1.61623957               -3.20546753                0.82536161                2.15936160               -5.07054497
               5.88822449                7.26012116               52.41777899                1.00000000               -0.17226975               -0.36888943                1.09811778               -0.03763211                0.01657587                0.81704376
               6.88650179                6.92309462               52.18893770                0.00010000               -0.03775345                0.06857253               -0.00497318               -0.01300775                0.42618147               -0.66134901
               7.88746942                6.58483927               51.96835281                0.00010000                0.51462257                0.54272894               -1.09946112               -0.20580829                5.85422301               -2.09790009
               8.89679424                6.24267177               51.84747401                0.00010000                1.12052289                0.70177671               -1.48657574               -0.28920792               12.66170484                3.51189738
               9.90987988                5.88708465               51.76010081                0.00010000                1.43592592                0.66480090               -2.47259294               -0.87061877               15.36766258                3.59065004
              10.92551276                5.51863143               51.69081807                0.00010000                1.62316436                0.45345124               -2.97712503               -1.37717892               17.08966138                4.88623402
              11.94234317                5.13479426               51.63336253                0.00010000                1.51998437                0.09287521               -3.21124283               -2.28757155               18.70793902                5.67603898
              12.95591245                4.73001468               51.58991901                0.00010000                0.74894572                0.27393141               -3.11962892               -3.70062141               20.46246458                5.11063044
              13.95732208                4.30544506               51.55900451                0.00010000               -0.54461241                1.78093563               -2.81684197               -3.82109856               22.07853196                3.54498817
              14.94502020                3.87790589               51.53894635                0.00010000               -0.48242299                2.48025333               -2.30095872               -0.96298212               11.99332049                1.55835320
              15.94767362                3.46754159               51.29875516                0.00010000                0.26534194                2.48761589               -3.36925306                0.79131795                1.04471067               -2.54809514
               6.22270384                8.25692238               52.33576343                0.00010000               -0.08568780               -0.27711240                0.79592889               -0.03697109                0.02125450                0.70963085
               7.22184696                7.92423271               52.09997475                0.00010000                0.04355766                0.15267692               -0.27493068                0.01881259                0.33734684               -0.67241943
               8.22357499                7.59095140               51.87051366                0.00010000                1.03500183                0.64416224               -1.34617281               -0.33893323                8.49882346               -2.27971656
               9.24254700                7.24934214               51.79728758                0.00010000                2.04007107                0.59509147               -1.98781761               -0.53869989               17.01220827                1.31542647
              10.26437642                6.89233085               51.73354764                0.00010000                2.32914042                0.37487655               -2.54725574               -0.99951569               18.43826236                3.14633922
              11.28912981                6.52128651               51.68258381                0.00010000                2.48777523                0.12373453               -2.97493323               -1.44454008               19.99962806                4.21999028
              12.31413192                6.13553191               51.64244684                0.00010000                2.29740760                0.00589239               -3.13469396               -2.09384072               21.41256733                4.87973569
              13.33507796                5.73388478               51.61082600                0.00010000                1.68142277                0.28703661               -3.04248239               -2.79672696               22.58404503                4.82425706
              14.34776038                5.31807765               51.58465094                0.00010000                0.82914886                0.89907612               -2.71069937               -3.05289623               23.43768287                3.81114801
              15.35166094                4.89057607               51.56137095                0.00010000                0.48534265                1.03567893               -2.01593715               -1.19403390               12.15263974                1.32266297
              16.35746723                4.48620251               51.30261568                0.00010000                0.58062912                1.55084622               -3.10005444                0.17401817                0.40921922               -1.55019319
               6.55286441                9.25457892               52.25353361                0.00010000               -0.00153865               -0.19233037                0.51570549               -0.03715328                0.02527924                0.69863107
               7.55284902                8.92614816               52.01092728                0.00010000                0.13584573                0.22570613               -0.54199300                0.04707008                0.20398213               -0.66417091
               8.55558132                8.59772251               51.77185744                0.00010000                1.58958864                0.67706960               -1.56378181               -0.58547620               10.47462114               -2.28318300
               9.58464079                8.25457359               51.73393010                0.00010000                3.11819362                0.36195365               -2.21486085               -1.04975738               21.01480105                0.43405330
              10.61794520                7.89458218               51.69843752                0.00010000                3.43900519               -0.00231284               -2.71936031               -1.32444749               21.92205583                2.29764381
              11.65342090                7.52110612               51.66951022                0.00010000                3.49614436               -0.21765329               -3.03366457               -1.45640791               23.16541796                3.50415332
              12.68786808                7.13491210               51.64837693                0.00010000                3.20056389               -0.21593199               -3.10611257               -1.73359835               24.35138040                4.31844760
              13.71743218                6.73575542               51.63223140                0.00010000                2.58523902                0.01300549               -2.92195890               -2.15050355               25.00905847                4.82266339
              14.73957286                6.32342658               51.61407970                0.00010000                1.77912410                0.32852073               -2.55086377               -2.60388081               24.50993118                4.54987555
              15.75301466                5.89861946               51.57926793                0.00010000                1.01641211                0.75577461               -2.00287133               -1.27048244               12.09425232                1.02729517
              16.75990111                5.49855851               51.30640943                0.00010000                0.68864468                1.11196875               -2.99281494                0.05438267                0.18243098               -1.58897352
               6.87882230               10.25307577               52.17142699                0.00010000                0.08224749               -0.10524385                0.23715443               -0.03668278                0.00591249                0.69461965
               7.87964477                9.92874683               51.92194149                0.00010000                0.23088683                0.29011682               -0.80275398                0.05087962                0.06874032               -0.63289251
               8.88344003                9.60449279               51.67362363                0.00010000                2.25237048                0.66003263               -1.78626259               -1.03577843               12.24624930               -1.98593830
               9.92469218                9.25658121               51.66692326                0.00010000                4.39574549               -0.10857300               -2.42118180               -1.66308959               24.67332676                0.15988097
              10.97135494                8.89228459               51.65709580                0.00010000                4.74897743               -0.59437797               -2.88323846               -1.43731975               25.29107863                1.60570632
              12.01967173                8.51693344               51.65039255                0.00010000                4.67278568               -0.65119965               -3.12407445               -1.21899647               26.44498835                2.64220127
              13.06481066                8.13121327               51.65014433                0.00010000                4.19408432               -0.57350920               -3.08058001               -1.23427159               27.73922628                3.51368005
              14.10355342                7.73414489               51.65598008                0.00010000                3.40040273               -0.38923219               -2.68582059               -1.47482142               28.31043659                4.52521787
              15.13281871                7.32464806               51.65544138                0.00010000                2.37829681               -0.10740754               -2.05465274               -1.85553965               25.43411675                6.22955414
              16.15111935                6.90569157               51.59504589                0.00010000                1.29290358                0.70440287               -2.12769324               -1.10982556               11.42168026                0.94364717
              17.15867678                6.50844189               51.30883567                0.00010000                0.75574305                0.95634282               -3.00812313                0.03660771                0.09173990               -1.75325051
               7.20078863               11.25247404               52.08923350                0.00010000                0.16609592               -0.01350000               -0.04482894               -0.04082371                0.00541315                0.60070771
               8.20244959               10.93195049               51.83326763                0.00010000                0.31213686                0.35292245               -1.06930807                0.02043946                0.16504371               -0.52708808
               9.20703137               10.61092316               51.58035274                0.00010000                3.05688041                0.64950855               -2.02237065               -1.78869051               13.94979472               -1.20774251
              10.26358720               10.25240213               51.59933508                0.00010000                6.09075994               -1.19968753               -2.63734101               -1.78155976               27.83034321                0.09186888
              11.32884657                9.88269462               51.61079269                0.00010000                6.32625447               -1.22719447               -3.06272212               -1.06378361               28.32481902                0.88361718
              12.39011229                9.50808213               51.62344700                0.00010000                5.85623182               -1.10696079               -3.24107961               -0.65769587               29.56496366                1.50150384
              13.44597121                9.12344192               51.64326122                0.00010000                5.21943348               -0.96103285               -3.08392094               -0.64778964               31.25737040                2.08439587
              14.49450096                8.72797077               51.67371168                0.00010000                4.24720945               -0.84359088               -2.45857370               -0.81769525               33.30910893                2.96501620
              15.53091539                8.32127843               51.71980197                0.00010000                2.62616810               -0.42355579               -0.95923620               -0.89052915               26.91623442                5.30378086
              16.54702432                7.91270752               51.61154760                0.00010000                1.21086100                0.71358012               -2.32720485               -0.69748773                9.61300130                0.88066706
              17.55513261                7.51768537               51.31051806                0.00010000                0.81082931                0.93814246               -3.08686601                0.03430585               -0.08362322               -1.47474111
               7.51905292               12.25280577               52.00537352                0.00010000                0.25515210                0.03317290               -0.32789560                0.12637912                0.28949322                0.51110074
               8.52160444               11.93580528               51.74604357                1.00000000                0.40808328                0.38547848               -1.35059390                0.14934406                0.80993210               -0.43167094
               9.52721458               11.61748296               51.49692215                0.00010000                4.78425447                0.65597985               -2.30440060               -3.14256970               15.64137231               -0.67427301
              10.61728953               11.23258746               51.53329790                0.00010000                8.35923493               -1.98146719               -2.89245498               -2.11688036               30.30618374               -0.09028921
              11.69439928               10.86774070               51.55871287                0.00010000                7.42404947               -1.49539188               -3.28289281               -0.33439066               30.75044576                0.35918695
              12.76577052               10.49479423               51.58541697                0.00010000                6.87834684               -1.32878966               -3.40990415               -0.22158187               32.18516314                0.69800416
              13.83196622               10.11199262               51.62054658                0.00010000                6.17962442               -1.14493034               -3.18508776               -0.27655674               34.27346292                1.02271018
              14.88936300                9.71727307               51.67022425                0.00010000                4.91525805               -1.06976998               -2.42156745               -0.30457910               37.15547930                1.56859423
              15.93027138                9.31617695               51.74602456                0.00010000                2.56998246               -0.51014806               -0.74618806                0.07010309               29.31799132                3.17437667
              16.94076265                8.91996317               51.62680372                0.00010000                0.95679117                0.72556458               -2.54407394               -0.07477734               10.15153078                0.77203442
              17.94940720                8.52720474               51.32017425                0.00010000                0.86445482                0.95193660               -3.22621923                0.15161556                0.70758078               -1.16876034
               4.35198386                2.38242476               53.83306449                1.00000000               -0.69187869               -0.82550379                2.86242088               -0.23491038               -0.91260466                0.87530394
               5.34506507                2.01784400               53.61811587                1.00000000               -0.54251718               -0.42051520                1.59821189               -0.16806589               -1.20100092                0.14219369
               6.34113351                1.65239413               53.39757233                1.00000000               -0.25999958               -0.03247219                0.38634234               -0.18328638               -1.10016524               -0.20133147
               7.33986508                1.28423586               53.18414378                1.00000000               -0.29938372                0.43172312               -0.84905356               -0.36961391                0.31000422               -0.81457029
               8.33514584                0.91019583               52.99032746                1.00000000               -0.22698354                0.92795386               -1.95828351               -0.26793858                1.80299211                0.00770974
               9.33532541                0.53224693               52.80079389                1.00000000                0.28118667                1.21848316               -3.17937334               -0.24401047                2.35984900               -0.12069471
              10.34076957                0.14911213               52.61127748                1.00000000                0.65569785                1.66649080               -4.64411176               -0.41939542                3.45785735               -0.30443045
              11.34843936               -0.24049269               52.43487535                1.00000000               -2.77845512                2.27981534               -6.30580992               -4.27669227               11.15789213                0.28037633
              12.28520047               -0.71004241               52.38649246                1.00000000               -1.69932004                2.75486854               -7.31478886               -9.39712554               13.34425581               -5.39285320
              13.31445296               -1.30130801               52.32061881                1.00000000                1.80412403                0.44131420               -2.03987583              -12.70368753                5.90220757                0.25880994
              14.32128295               -1.63858435               52.13248519                1.00000000                0.68299868                0.67502226               -2.68658171               -0.23229065               -0.01496891               -0.46627735
               4.71421551                3.37416972               53.74915705                1.00000000               -0.58157865               -0.78242734                2.54993840               -0.01963736               -0.20190919                1.17289618
               5.70839972                3.01363885               53.53416649                1.00000000               -0.40553945               -0.38113007                1.28437609                0.04143629               -0.29873290                0.22540229
               6.70610472                2.65206941               53.31745549                1.00000000               -0.05658148                0.00845925                0.05211127                0.03581861               -0.17210062               -0.33368209
               7.70726809                2.28855309               53.10479509                1.00000000                0.11780997                0.45056372               -1.20107209               -0.14516319                1.67674462               -1.11567990
               8.70846092                1.91947537               52.92442087                1.00000000                0.30795306                0.85642652               -2.30735073               -0.10682553                3.01037611                0.05025437
               9.71342715                1.54443176               52.73699696                1.00000000                0.72422544                1.20833877               -3.51165754               -0.12011480                2.68138393               -0.08855654
              10.72294543                1.16577703               52.54682415                1.00000000                1.09112782                1.65887711               -4.89783019               -0.18350166                3.56431863               -0.46215252
              11.73524971                0.78230546               52.37258884                1.00000000               -0.06542778                2.14580422               -6.25717044               -4.48385815               12.33497075                0.89416349
              12.72163687                0.31750627               52.35310421                0.00010000               -4.17813254               -2.69136144               -2.29965202              -17.71163794               20.57958074                2.00336828
              13.65168706               -0.29689487               52.38298124                1.00000000               -3.27002415                0.32707951               -1.17423756              -13.88108070               11.03574916                0.42810891
              14.65623639               -0.63183413               52.19179684                1.00000000                0.45493301                0.58082786               -1.92057714               -0.12180958                0.05084572               -0.34328252
               5.07265285                4.36677621               53.67162190                1.00000000               -0.46587470               -0.69192390                2.19979623               -0.01848443                0.02312378                1.44736862
               6.06799410                4.01022140               53.45193125                1.00000000               -0.28586032               -0.29121831                0.95846896                0.03634189                0.11648132                0.23651466
               7.06693564                3.65256332               53.23435251                1.00000000                0.07808791                0.10299570               -0.27403240                0.00773736                0.34043683               -0.65375081
               8.06955586                3.29324713               53.01898667                1.00000000                0.50975086                0.50806822               -1.51087891               -0.28473949                3.20616595               -1.38387153
               9.07713066                2.92732436               52.85825146                1.00000000                0.85327917                0.75785608               -2.62012089               -0.84400945                4.44874393                0.44336238
              10.08662144                2.55641370               52.67191844                1.00000000                1.10475885                0.92868394               -3.86373783               -1.39422349                2.79783648                2.77891463
              11.09922584                2.18228967               52.47772014                1.00000000                1.02057584                0.83322599               -5.23460274               -2.35087566                4.66042504                6.06754862
              12.10703296                1.80242339               52.32682519                0.00010000               -4.45288994               -0.35461564               -4.95175098              -12.90297972               22.14676497               11.46642108
              13.01016804                1.23613036               52.48673877                0.00010000               -6.04306031               -2.39283712               -5.73896104              -20.79055973               28.40896830                8.38273507
              13.98617175                0.70523358               52.44644923                1.00000000               -1.07213748                0.10008310               -0.44185036               -9.86057880                7.83030844                0.51016137
              14.98872529                0.37303220               52.25168226                1.00000000                0.25535342                0.39614515               -1.23836526               -0.14033107                0.11262091               -0.24388151
               5.42695544                5.36033124               53.59350238                1.00000000               -0.36159902               -0.58769722                1.83798699               -0.03627561                0.14542919                1.26762564
               6.42333945                5.00781448               53.36818558                1.00000000               -0.18608546               -0.17814177                0.62353528                0.00524387                0.36351241               -0.03537515
               7.42323373                4.65412933               53.14744898                1.00000000                0.17364067                0.22702773               -0.56712369               -0.05360086                0.94839182               -1.12359688
               8.42681226                4.29871446               52.93356848                1.00000000                0.25902149                0.63922716               -1.82080393               -0.52981794                5.22063095               -1.34396784
               9.42841416                3.93463249               52.79768943                0.00010000                0.18825550                0.85243024               -2.69596647               -1.36467740                9.02725116                1.93609386
              10.43057737                3.56300544               52.66307495                0.00010000                0.07520319                0.70854082               -3.57513089               -2.28728777                9.72594764                5.70600578
              11.42991822                3.18244155               52.54221054                0.00010000               -0.36139756               -0.00275307               -4.10233015               -4.23062896               13.76472548               10.72749343
              12.42334942                2.77521315               52.48618023                0.00010000               -1.34513688               -1.96274697               -4.26161076              -10.29628448               21.51496490               14.07351007
              13.40301549                2.26964953               52.51114339                0.00010000               -5.28878918                3.00292593               -5.22309521              -13.42880496               24.02734911                2.75325778
              14.31757364                1.70510680               52.50994084                0.00010000               -4.25914817                5.93216996                0.33544428               -5.06816844               10.10461648               -4.26674053
              15.31783252                1.37608877               52.31287616                0.00010000                0.02588851                1.15150750               -0.60175906                5.53971409                0.32960571               -5.34359735
               5.77696085                6.35502226               53.51255142                1.00000000               -0.26599588               -0.47669502                1.48356682               -0.04770530                0.15341995                0.99131488
               6.77430089                6.00665856               53.28049460                1.00000000               -0.09986002               -0.04796951                0.26949973               -0.01370668                0.45794332               -0.43673594
               7.77496365                5.65710387               53.05465680                0.00010000                0.20777229                0.38497261               -0.90487579               -0.08018267                1.74038383               -1.66431266
               8.77845634                5.30603168               52.84782685                0.00010000                0.52912383                0.76589486               -1.95117484               -0.32969087                8.77692328                2.12368650
               9.78554613                4.94437296               52.76240821                0.00010000                0.73051413                0.83649817               -2.68405860               -0.82711686               14.11945783                3.44675328
              10.79306662                4.57058452               52.66261358                0.00010000                0.84297088                0.55773513               -3.33752439               -1.36912834               14.45966871                5.68588148
              11.80240555                4.18223461               52.58171502                0.00010000                1.04163346               -0.16841317               -3.70671453               -2.58343005               17.28802733                7.63015396
              12.81389929                3.76316845               52.53267324                0.00010000                0.46463721               -0.78347750               -3.79457832               -5.27154251               20.39545753                6.74267483
              13.81169829                3.29618888               52.50771585                0.00010000               -1.77650735                2.30176632               -3.15956561               -6.59686137               21.93005490                1.80483752
              14.77836914                2.82387698               52.47835242                0.00010000               -2.70713365                8.20366088               -4.21324257               -0.76087442               13.38500667               -2.20670211
              15.75755562                2.39606235               52.27092952                0.00010000               -2.08135268                3.49485169               -4.00580542                1.62446930                3.41856589               -7.04876229
               6.12272874                7.35079734               53.42902859                1.00000000               -0.17450286               -0.37399237                1.14488867               -0.03771037                0.01138327                0.78041071
               7.12098371                7.00685509               53.18873311                0.00010000               -0.02358865                0.06801966               -0.03486277               -0.00156841                0.42643934               -0.64189782
               8.12225696                6.66182878               52.95676187                0.00010000                0.59828243                0.54306054               -1.21023968               -0.12410522                6.18563952               -2.04777159
               9.13294936                6.31403235               52.83107613                0.00010000                1.25310088                0.72697714               -1.78975273               -0.12726461               13.05136956                3.68267044
              10.14731898                5.95136245               52.73412443                0.00010000                1.61919030                0.55811562               -2.72801986               -0.70722654               15.74452921                3.69967134
              11.16533316                5.57416014               52.65964000                0.00010000                1.91733541                0.20011418               -3.27513720               -1.27524355               17.84186869                4.96522895
              12.18566569                5.17907329               52.59968485                0.00010000                1.93155682               -0.27282798               -3.55785885               -2.37904187               19.80034532                5.69536174
              13.20396430                4.75954360               52.55702738                0.00010000                1.23520205               -0.13324394               -3.52683023               -4.09655977               21.85463113                5.02296579
              14.21036973                4.31568486               52.52830218                0.00010000               -0.07408124                1.59832092               -3.40449546               -4.46959543               23.69821501                3.10571311
              15.20248267                3.86918001               52.51212305                0.00010000               -0.22092831                3.00551122               -3.27182878               -1.39293238               13.10645791                1.94448578
              16.20595116                3.44598581               52.26315581                0.00010000                0.34684901                3.60895575               -3.83264536                1.12679441                1.50688315               -2.30834017
               6.46409114                8.34754242               53.34393780                1.00000000               -0.08530532               -0.28288732                0.83459268               -0.03816974                0.02549896                0.69866138
               7.46323809                8.00801896               53.09701675                0.00010000                0.06065732                0.15807991               -0.31508678                0.02283173                0.34122872               -0.64021808
               8.46530429                7.66796508               52.85639106                0.00010000                1.15696434                0.65204428               -1.47242579               -0.27918860                8.71529037               -2.20016235
               9.48637737                7.32057122               52.77627088                0.00010000                2.29847614                0.56367509               -2.21573934               -0.44054140               17.44907966                1.19901823
              10.51127381                6.95553527               52.70661060                0.00010000                2.67367691                0.26296047               -2.85011883               -0.95116940               18.97634409                3.13670810
              11.53985091                6.57458680               52.65123056                0.00010000                2.90837205               -0.07538599               -3.32034313               -1.45891724               20.74176151                4.18664039
              12.56944125                6.17677805               52.60938847                0.00010000                2.77528074               -0.24204280               -3.52354714               -2.24709447               22.42791226                4.80922259
              13.59535653                5.76050357               52.57856976                0.00010000                2.16143580                0.07727369               -3.48126077               -3.15341247               23.87610101                4.70529303
              14.61266997                5.32815530               52.55566307                0.00010000                1.24265109                0.88119239               -3.18988118               -3.53658584               25.08484771                3.76136995
              15.62020955                4.88398721               52.53987695                0.00010000                0.69049772                1.17135484               -2.38056112               -1.47301115               13.15479891                1.61316201
              16.62647992                4.46824147               52.27138305                0.00010000                0.62703723                1.74448971               -3.19968375                0.11861465                0.57132835               -1.09723844
               6.80101226                9.34513959               53.25886730                0.00010000                0.00054130               -0.19815730                0.55049576               -0.03814386                0.02421858                0.70208258
               7.80101768                9.01001669               53.00526076                0.00010000                0.15543327                0.23539745               -0.59011888                0.04662828                0.21932190               -0.63035091
               8.80412093                8.67486966               52.75551286                0.00010000                1.77753310                0.69702191               -1.70200299               -0.56970942               10.68992286               -2.19764047
               9.83656834                8.32530585               52.71055908                0.00010000                3.50795411                0.30719334               -2.46415131               -0.99954970               21.43811476                0.42532489
              10.87428001                7.95662166               52.66967967                0.00010000                3.91718540               -0.12351318               -3.04885108               -1.33459219               22.48426048                2.23857497
              11.91491205                7.57265242               52.63744382                0.00010000                4.02635091               -0.38386963               -3.41323531               -1.50692138               23.92687559                3.43384104
              12.95480703                7.17423243               52.61560416                0.00010000                3.73033763               -0.38499159               -3.50440576               -1.86219120               25.35920187                4.26326926
              13.98951880                6.76108907               52.60147735                0.00010000                3.06736765               -0.09597880               -3.31039519               -2.40156231               26.24607404                4.88652517
              15.01615438                6.33330871               52.58728674                0.00010000                2.17087402                0.29186756               -2.90165756               -2.96161408               25.98904238                4.83337090
              16.03293628                5.89260711               52.55908835                0.00010000                1.18302746                0.78131780               -2.07914823               -1.47716467               12.92312132                1.10457172
              17.03981493                5.48087560               52.27713214                0.00010000                0.68786519                1.09516500               -2.88980256                0.01919716                0.24150542               -1.28306701
               7.13357407               10.34357927               53.17394499                0.00010000                0.08665131               -0.11129583                0.26678076               -0.03841977                0.00698224                0.69802555
               8.13444058               10.01272691               52.91361939                0.00010000                0.25234322                0.30406806               -0.86066712                0.04935761                0.09804091               -0.60267948
               9.13862093                9.68190552               52.65502807                0.00010000                2.50969001                0.69186063               -1.93212505               -1.07464350               12.47184338               -1.91385981
              10.18463438                9.32671509               52.64139838                0.00010000                4.93072326               -0.19112820               -2.69306311               -1.69283364               25.09620967                0.16841341
              11.23723540                8.95306501               52.62660687                0.00010000                5.37336641               -0.74148658               -3.23765825               -1.47192054               25.86856407                1.56713425
              12.29210171                8.56690941               52.61739862                0.00010000                5.32626875               -0.81595020               -3.51617442               -1.25108496               27.24541281                2.58630152
              13.34376077                8.16907821               52.61780978                0.00010000                4.80736483               -0.73407558               -3.45025032               -1.28118334               28.84667226                3.51165469
              14.38824901                7.75858400               52.62821875                0.00010000                3.90794362               -0.51511621               -2.95164205               -1.57119666               29.70069165                4.73996573
              15.42191965                7.33399265               52.63475035                0.00010000                2.74251765               -0.20860282               -2.20542637               -2.00906120               26.57641220                7.12495715
              16.44309936                6.89961356               52.57418200                0.00010000                1.42036190                0.68541255               -2.07832257               -1.25767934               11.82674280                0.90402381
              17.45032688                6.49014477               52.27989241                0.00010000                0.72275238                0.88466221               -2.80135310                0.02361403                0.11548927               -1.55030191
               7.46194860               11.34291368               53.08889797                0.00010000                0.17299784               -0.02006422               -0.02097594               -0.04248511                0.00941683                0.60153879
               8.46367858               11.01609805               52.82222850                0.00010000                0.33456389                0.37256860               -1.13830919                0.01788308                0.20545235               -0.50912318
               9.46863988               10.68870688               52.55934762                0.00010000                3.39367993                0.68792628               -2.17559353               -1.90644266               14.19015280               -1.16816216
              10.53155218               10.32148329               52.57161056                0.00010000                6.80036998               -1.37491860               -2.92005579               -1.85845704               28.27008013                0.11119155
              11.60464728                9.94179193               52.57849104                0.00010000                7.11624836               -1.41901077               -3.42447622               -1.09171567               28.93563042                0.87016882
              12.67387714                9.55633342               52.58935308                0.00010000                6.64307487               -1.30399342               -3.62348681               -0.66041910               30.43337718                1.47516054
              13.73750877                9.15955092               52.61117869                0.00010000                5.96516441               -1.16578967               -3.39982528               -0.64563283               32.51461454                2.10073990
              14.79318043                8.75078675               52.64894894                0.00010000                4.87174098               -1.07103860               -2.58462265               -0.83834129               35.26940300                3.16795875
              15.83494359                8.32913665               52.71227283                0.00010000                2.92250699               -0.57460228               -0.67676388               -0.89018755               27.72615395                6.08108543
              16.85163057                7.90631536               52.58895671                0.00010000                1.21406018                0.67766339               -2.22521681               -0.76106943                9.20951144                0.80005721
              17.85922480                7.49856884               52.28105765                0.00010000                0.75942259                0.85256354               -2.82831694                0.02898546               -0.06128265               -1.33412049
               7.78635562               12.34317799               53.00216915                1.00000000                0.26494268                0.02643105               -0.31108902                0.14073098                0.28499793                0.51040575
               8.78900505               12.02017828               52.73214391                1.00000000                0.43756118                0.40802266               -1.42950645                0.15694978                0.84029586               -0.42190827
               9.79510684               11.69566405               52.47304144                0.00010000                5.26875723                0.69571718               -2.46445544               -3.40138164               15.89157597               -0.66131735
              10.89438019               11.29921671               52.50305149                0.00010000                9.27220587               -2.22665752               -3.16905591               -2.26616125               30.79823353               -0.04919188
              11.98055096               10.92468480               52.52430594                0.00010000                8.33770730               -1.71071327               -3.62414314               -0.32899039               31.43785727                0.38347261
              13.06113434               10.54082954               52.54982323                0.00010000                7.79219133               -1.55038751               -3.75262129               -0.22039951               33.14270912                0.72180756
              14.13639479               10.14576242               52.58775266                0.00010000                7.03810590               -1.37885010               -3.43755253               -0.29471459               35.65293553                1.07995593
              15.20189645                9.73716323               52.64638795                0.00010000                5.60962482               -1.36235224               -2.43182902               -0.29148868               39.25371023                1.76733419
              16.24858728                9.32250060               52.74110721                0.00010000                2.82746617               -0.66360471               -0.39697181                0.16454905               29.91584539                3.55921043
              17.25844578                8.91316683               52.60226301                0.00010000                0.89061728                0.68514680               -2.39667386               -0.08370754                9.44400635                0.70072888
              18.26639963                8.50719604               52.28954258                0.00010000                0.79538507                0.86271953               -2.92116153                0.12040410                0.69032979               -1.04933162
               4.56447273                2.47642175               54.86206113                1.00000000               -0.69752133               -0.84283120                2.92355663               -0.24755768               -0.85026565                0.83203856
               5.55749752                2.10474544               54.63412734                1.00000000               -0.53242441               -0.42139820                1.59835318               -0.18203974               -1.10903037                0.13476356
               6.55382424                1.73221973               54.40108177                1.00000000               -0.21133728               -0.01609361                0.31734059               -0.19326183               -0.99883682               -0.18979709
               7.55327077                1.35733349               54.17486461                1.00000000               -0.11986415                0.45151387               -0.99655726               -0.32800652                0.41458962               -0.78623249
               8.55142696                0.97802232               53.96881469                1.00000000                0.07757413                0.97288897               -2.30528423               -0.27172310                1.83841467                0.03425439
               9.55482225                0.59637882               53.76617763                1.00000000                0.62149608                1.30317070               -3.67111986               -0.23280359                2.17900334               -0.13249574
              10.56385688                0.21134992               53.56155010                1.00000000                1.03660106                1.73147837               -5.17235988               -0.30873022                3.04733162               -0.37310120
              11.57555427               -0.17679742               53.37086909                1.00000000               -4.92327196                2.05501585               -6.37055282              -11.83117591                9.94984732                0.08151954
              12.46539144               -0.79645173               53.30071754                0.00010000               -3.62650652                2.40682177               -6.86311299              -13.54686114               14.91423415               -2.74974084
              13.50302414               -1.36494374               53.29707642                1.00000000                2.37857459                0.60415573               -3.08382143              -11.20607916                9.17267943                0.29089137
              14.51296293               -1.70704107               53.10263275                1.00000000                0.99387885                0.83687504               -3.76372881               -0.32226932                0.08671322               -0.71613979
               4.93367346                3.46799344               54.77500209                1.00000000               -0.58953331               -0.79718539                2.60690538               -0.02483190               -0.17444500                1.11874694
               5.92777813                3.10053146               54.54701557                1.00000000               -0.40379303               -0.38049890                1.28073995                0.03558003               -0.25000491                0.21512256
               6.92559760                2.73205880               54.31762506                1.00000000               -0.03443587                0.02602412               -0.01575673                0.03301085               -0.11719190               -0.31969404
               7.92708941                2.36184862               54.09205539                1.00000000                0.17947300                0.47696254               -1.33968572               -0.07821867                1.76747094               -1.07016137
               8.92918706                1.98775121               53.89971906                1.00000000                0.43705039                0.93498869               -2.61862182               -0.09515749                3.13337775                0.08521151
               9.93583042                1.60941052               53.69965553                1.00000000                0.90853171                1.30427079               -3.92657541               -0.09510524                2.70302278               -0.13238615
              10.94735770                1.22866470               53.49563065                1.00000000                1.26564596                1.73056010               -5.30170679               -0.19309474                3.66657361               -0.59684705
              11.96114334                0.84375274               53.31131470                1.00000000               -1.16808519                1.71092761               -6.01058452              -12.26173947               15.64981553                1.35937617
              12.92399599                0.22761649               53.34501833                0.00010000               -5.74426582                1.39176257               -2.85959695              -21.29589085               23.62148978                0.06993204
              13.84625802               -0.35890219               53.37017049                1.00000000               -3.60792122                0.42042059               -1.54884868              -12.15487366               11.13229924                0.51306818
              14.85183757               -0.69867232               53.17162041                1.00000000                0.55795452                0.66832795               -2.30011154               -0.18703820                0.13437906               -0.45911440
               5.29890005                4.46047804               54.69395181                1.00000000               -0.47562889               -0.70157907                2.25551568               -0.02293316                0.04397226                1.37395239
               6.29414376                4.09713547               54.46149794                1.00000000               -0.28663779               -0.28940951                0.95159995                0.03411927                0.14741617                0.21731169
               7.29316730                3.73274021               54.23125377                1.00000000                0.09351113                0.11985470               -0.34247856                0.01810544                0.37453218               -0.62472845
               8.29601398                3.36687274               54.00316599                1.00000000                0.43973069                0.54089714               -1.64543002               -0.15059382                3.28944001               -1.32782344
               9.30196191                2.99672209               53.83078167                1.00000000                0.79963373                0.77048870               -2.89955760               -0.67034211                4.62143524                0.58469015
              10.31200666                2.62246423               53.63152807                1.00000000                1.18454306                0.80461438               -4.22693159               -1.22010105                2.92537097                3.01804894
              11.32565277                2.24596112               53.42377259                1.00000000                0.96805197                0.43621536               -5.57792743               -2.45595286                5.81210285                6.60784091
              12.33136770                1.85742113               53.28000660                0.00010000               -4.17621099               -1.69543160               -4.08869560              -15.68603616               23.19243288               11.42692619
              13.24212855                1.23138352               53.42679872                0.00010000               -7.25761101                2.68582441               -5.82360851              -25.03516492               31.57041108                4.86523372
              14.18621548                0.64346467               53.44207690                1.00000000               -2.66830556                0.09290470               -0.45286475              -12.44968741               11.06568599                0.51148143
              15.18876244                0.30632549               53.23945301                1.00000000                0.25469610                0.38849598               -1.29704300               -0.16348480                0.21395924               -0.44884664
               5.65989996                5.45396186               54.61219188                1.00000000               -0.37016133               -0.59388960                1.89106800               -0.03758935                0.16325250                1.19403535
               6.65619835                5.09474327               54.37436769                1.00000000               -0.18387598               -0.17782307                0.61068801                0.01144893                0.39645875               -0.06824070
               7.65622244                4.73445589               54.14133629                1.00000000                0.19486557                0.23787331               -0.64607064               -0.02501317                0.96225718               -1.10072367
               8.66009566                4.37266657               53.91457945                1.00000000                0.19831421                0.66999773               -1.95861543               -0.44726480                5.38983054               -1.19894428
               9.66018872                4.00316098               53.76957295                0.00010000                0.10468591                0.74063990               -2.92109376               -1.18873918                9.38979492                2.14264368
              10.66218937                3.62550281               53.62590811                0.00010000                0.15465077                0.34529147               -3.86011671               -2.17545412               10.36519905                6.10862225
              11.66328174                3.23738901               53.50016925                0.00010000               -0.00945808               -0.85789678               -4.28377072               -4.71719908               14.88924428               11.32648048
              12.66200021                2.80984411               53.44256747                0.00010000               -1.30162897               -3.25043179               -4.37501171              -11.28871098               22.34808792               13.65296383
              13.63724916                2.28133297               53.45709945                0.00010000               -6.98389533                3.50066886               -5.20091154              -17.20106430               27.44127023                2.70081974
              14.52232231                1.64295591               53.51344151                0.00010000               -5.72014626                7.55950427                0.36735151               -6.04736352               13.48050814               -7.27791072
              15.52284623                1.30909760               53.30652041                0.00010000                0.05239272                1.94349059               -0.77670076                7.38251717                0.36157744               -7.76084617
               6.01658544                6.44860025               54.52765769                1.00000000               -0.27067307               -0.48094272                1.53213583               -0.04496701                0.14344472                0.92931315
               7.01387871                6.09357900               54.28309388                1.00000000               -0.09208528               -0.05043819                0.24898192               -0.00018087                0.47018001               -0.45464989
               8.01474373                5.73749768               54.04513933                0.00010000                0.22424426                0.38468394               -0.98507110               -0.03447784                1.84166762               -1.64443703
               9.01836359                5.38027269               53.82768774                0.00010000                0.53035729                0.76072838               -2.04946872               -0.27996874                9.08249859                2.45016837
              10.02535088                5.01153489               53.73440743                0.00010000                0.79529791                0.68573524               -2.90745360               -0.74423802               14.61620437                3.57530274
              11.03426955                4.62937006               53.62789228                0.00010000                1.08083060                0.19081073               -3.60560438               -1.40656795               15.20080992                5.81118132
              12.04696749                4.22880318               53.54315536                0.00010000                1.36899786               -0.81804802               -4.01095577               -2.96383032               18.36338451                7.56893468
              13.06164951                3.79241250               53.49276969                0.00010000                0.90139858               -1.26333154               -4.17217618               -6.25093794               21.92673426                6.35545866
              14.06499546                3.30139690               53.47300565                0.00010000               -1.20729635                1.91395643               -3.78885506               -7.94080965               22.70893237                1.62359124
              15.03750358                2.79465475               53.42908162                0.00010000               -3.04330312               10.61575831               -5.23126211               -0.31140875               13.94700845               -5.66861553
              16.00412940                2.34519530               53.22757743                0.00010000               -3.33741817                5.59118292               -4.68253749                2.69903082                4.71745474              -10.30194500
               6.36904312                7.44434300               54.44067676                1.00000000               -0.17458163               -0.37716770                1.17930510               -0.03732629                0.01250642                0.74219461
               7.36729730                7.09373451               54.18824045                0.00010000               -0.01019610                0.06608464               -0.06145894                0.00730622                0.42948505               -0.62363240
               8.36883919                6.74214957               53.94414802                0.00010000                0.65808856                0.53497399               -1.30093329               -0.09852187                6.45228826               -1.99632451
               9.38045907                6.38788114               53.81167896                0.00010000                1.36836986                0.67834299               -2.06757300               -0.11642111               13.41687973                3.75276639
              10.39620659                6.01687569               53.70554042                0.00010000                1.81653274                0.39874440               -2.98344263               -0.74846809               16.16619922                3.67933953
              11.41678973                5.62931903               53.62531533                0.00010000                2.23780527               -0.10772843               -3.59705883               -1.44650114               18.57422836                4.84570786
              12.44096270                5.22102805               53.56220536                0.00010000                2.37990066               -0.65030669               -3.96244829               -2.81790397               20.83203340                5.42262729
              13.46438774                4.78457748               53.51938241                0.00010000                1.76140068               -0.44359170               -4.06006137               -4.83700349               23.06388875                4.56558196
              14.47619071                4.31961210               53.49091461                0.00010000                0.39539950                1.64617925               -4.16047432               -5.30758630               24.84197805                2.31147381
              15.47229573                3.85527107               53.47350978                0.00010000               -0.02224755                4.06096277               -4.67072063               -1.85787470               14.04165167                2.31852652
              16.47574576                3.42092126               53.22210226                0.00010000                0.34500303                5.25430558               -4.59584611                1.65262801                2.23780721               -2.51492526
               6.71705591                8.44105690               54.35245529                1.00000000               -0.08376397               -0.28648159                0.86769059               -0.03968328                0.03297539                0.69284333
               7.71621827                8.09490070               54.09367302                0.00010000                0.07853796                0.16019950               -0.35215651                0.02164278                0.34274833               -0.61010796
               8.71862667                7.74819716               53.84106514                0.00010000                1.25453918                0.64915654               -1.58141125               -0.29094409                8.91166151               -2.12495541
               9.74130905                7.39383955               53.75297280                0.00010000                2.51584790                0.50357288               -2.43914156               -0.49550838               17.85158870                1.05157145
              10.76894363                7.01950978               53.67654527                0.00010000                2.99390593                0.12408639               -3.16460560               -1.10424928               19.48451376                2.98455171
              11.80118717                6.62721549               53.61617695                0.00010000                3.32036677               -0.28520780               -3.70873922               -1.72342706               21.44189490                3.95503100
              12.83535096                6.21579705               53.57197589                0.00010000                3.25691055               -0.46359340               -4.00432683               -2.68094676               23.35979463                4.49770974
              13.86632538                5.78354066               53.54120079                0.00010000                2.63995894               -0.03702730               -4.07562184               -3.75966140               25.03848888                4.33502191
              14.88815014                5.33432048               53.52085332                0.00010000                1.63557759                1.06973057               -3.90711592               -4.10573262               26.64705258                3.52705354
              15.89903694                4.87587401               53.51375973                0.00010000                0.88657275                1.55673869               -3.02695458               -1.73515569               14.20436501                2.18342671
              16.90588160                4.45028141               53.23862201                0.00010000                0.68446610                2.17332767               -3.48285051                0.08563376                0.86089938               -0.61942871
               7.06056185                9.43861337               54.26454353                0.00010000                0.00280392               -0.20256460                0.58471236               -0.03962619                0.02263388                0.71271657
               8.06058989                9.09693850               53.99912491                0.00010000                0.17598014                0.24123995               -0.63590181                0.04117856                0.23048905               -0.60089895
               9.06408146                8.75513270               53.73781738                0.00010000                1.93231953                0.70918374               -1.83066041               -0.62573320               10.88232474               -2.11941471
              10.09923628                8.39795259               53.68464707                0.00010000                3.83321026                0.25292266               -2.71879700               -1.10233838               21.81423891                0.33872496
              11.14074566                8.01935742               53.63746050                0.00010000                4.33988159               -0.23469345               -3.40719547               -1.52776821               22.99609377                2.04979426
              12.18603392                7.62361487               53.60124552                0.00010000                4.51364644               -0.52326373               -3.85875005               -1.77056676               24.62987955                3.19196895
              13.23101859                7.21175618               53.57828881                0.00010000                4.23185803               -0.49626035               -4.02180970               -2.21024615               26.29877973                4.03106243
              14.27067108                6.78383693               53.56602349                0.00010000                3.53620605               -0.10340223               -3.88449642               -2.82240828               27.41354941                4.82902011
              15.30174271                6.34100671               53.55604655                0.00010000                2.54803047                0.39203178               -3.47205641               -3.35987608               27.52913743                5.08346016
              16.32163169                5.88640585               53.53768497                0.00010000                1.34504594                0.90148371               -2.28416307               -1.65718471               13.85429112                1.29141200
              17.32864363                5.46438781               53.24861338                0.00010000                0.70119452                1.16144648               -2.87606464               -0.01759650                0.34074136               -0.94352230
               7.39961314               10.43700561               54.17676260                0.00010000                0.09093767               -0.11663595                0.29703156               -0.04030867                0.00795715                0.70724870
               8.40052251               10.09972550               53.90472815                0.00010000                0.27423856                0.31525091               -0.91658472                0.04471606                0.12644245               -0.57882842
               9.40509791                9.76238084               53.63498113                0.00010000                2.72575276                0.72069244               -2.07451572               -1.17282890               12.67194839               -1.84977882
              10.45503757                9.39889800               53.61306200                0.00010000                5.38140377               -0.24898657               -2.98118773               -1.84779102               25.45882238                0.11128461
              11.51272598                9.01481591               53.59234263                0.00010000                5.91697524               -0.84792421               -3.63753200               -1.65383951               26.38723356                1.42158189
              12.57337707                8.61675022               53.58006906                0.00010000                5.90989969               -0.92270688               -3.99594269               -1.44429022               27.99463660                2.40103647
              13.63092398                8.20587184               53.58113933                0.00010000                5.36248031               -0.81211712               -3.96307183               -1.48142765               29.93569930                3.39698347
              14.68062668                7.78147262               53.59694724                0.00010000                4.37298620               -0.53380945               -3.41262873               -1.77934608               31.08287073                4.92943438
              15.71838370                7.34216112               53.61133285                0.00010000                3.09427318               -0.22317227               -2.61132523               -2.19404731               27.78011387                8.21195172
              16.74251214                6.89390368               53.55347944                0.00010000                1.55910194                0.71109014               -2.11178105               -1.39263664               12.30125021                0.87466926
              17.74956574                6.47351034               53.25280861                0.00010000                0.70535967                0.84824895               -2.64905324                0.01373802                0.15049010               -1.34957807
               7.73431590               11.43628065               54.08881398                0.00010000                0.17930830               -0.02670461                0.00549506               -0.04420248                0.01249790                0.60734125
               8.73610899               11.10324352               53.81050144                1.00000000                0.35682336                0.39054031               -1.20548080                0.01407243                0.25100322               -0.49754657
               9.74145237               10.76954655               53.53684087                0.00010000                3.68682011                0.72440737               -2.32691911               -2.06150219               14.40995575               -1.13440696
              10.80984539               10.39297286               53.54093396                0.00010000                7.41821433               -1.50881202               -3.22729761               -2.00977454               28.64747609                0.09451099
              11.88981666               10.00239893               53.54230316                0.00010000                7.81233963               -1.55177790               -3.84332887               -1.20767128               29.49229394                0.79544403
              12.96609218                9.60516073               53.55097726                0.00010000                7.34254907               -1.42300674               -4.10806422               -0.75420987               31.27200786                1.37507511
              14.03666764                9.19551384               53.57526471                0.00010000                6.63513484               -1.27140271               -3.87261544               -0.72318830               33.80845205                2.05978757
              15.09879488                8.77316074               53.62201923                0.00010000                5.43815318               -1.18654452               -2.91844172               -0.92572954               37.40939023                3.38426510
              16.14543070                8.33654327               53.70626669                0.00010000                3.18174259               -0.62343655               -0.60548622               -0.91017855               28.55620700                7.01354042
              17.16242973                7.90062765               53.56704326                0.00010000                1.21371875                0.67307264               -2.20751922               -0.82476060                8.68480183                0.70435039
              18.16970508                7.48135279               53.25395172                0.00010000                0.72753472                0.78689503               -2.61788947                0.02695969               -0.03011142               -1.20795311
               8.06480337               12.43647151               53.99915174                1.00000000                0.27347030                0.01908603               -0.28970796                0.15522502                0.28189580                0.51378137
               9.06753807               12.10753630               53.71745344                1.00000000                0.46675767                0.42927864               -1.50521656                0.16278168                0.88359349               -0.41797850
              10.07413852               11.77686898               53.44763304                0.00010000                5.72258135                0.73224342               -2.61946785               -3.67211197               16.13516204               -0.65181370
              11.18198970               11.36872176               53.46991678                0.00010000               10.11230839               -2.42510972               -3.47092914               -2.44000075               31.25160255               -0.01548578
              12.27638469               10.98378035               53.48623001                0.00010000                9.15941385               -1.86185789               -4.02333172               -0.36478092               32.10087126                0.38695494
              13.36517797               10.58829009               53.51036454                0.00010000                8.60377579               -1.68706481               -4.19791563               -0.25824908               34.10067564                0.72050341
              14.44846020               10.18044379               53.55179553                0.00010000                7.79523418               -1.50700490               -3.84515551               -0.34816130               37.11031404                1.12270789
              15.52108266                9.75774173               53.62158767                0.00010000                6.21265099               -1.54190132               -2.64104546               -0.30879209               41.51357546                2.00503476
              16.57271322                9.32969239               53.73808512                0.00010000                3.00623775               -0.68508821               -0.31362805                0.20942245               30.48400150                3.90055574
              17.58120741                8.90736514               53.57887025                0.00010000                0.79707176                0.67374855               -2.33331476               -0.14443905                8.62446756                0.62580708
              18.58865466                8.48924824               53.26175102                0.00010000                0.74472462                0.78954519               -2.65871247                0.08326860                0.68778000               -0.94062264
               4.79084614                2.57318361               55.89153562                1.00000000               -0.69823088               -0.85296291                2.95841855               -0.25672825               -0.79421693                0.79379164
               5.78386383                2.19476281               55.65008293                1.00000000               -0.52133178               -0.41921164                1.58784643               -0.19231688               -1.02820575                0.12880644
               6.78041950                1.81551161               55.40391914                1.00000000               -0.17199384               -0.00080824                0.25377533               -0.20150282               -0.91960350               -0.17579808
               7.78042395                1.43412965               55.16421263                1.00000000                0.00908055                0.47188371               -1.12099190               -0.31201617                0.43705728               -0.75788340
               8.78060111                1.04907217               54.94422178                1.00000000                0.28730545                1.01404366               -2.57237597               -0.28169915                1.73931016                0.05081229
               9.78617006                0.66264121               54.72737149                1.00000000                0.82118174                1.37923859               -4.02457229               -0.23856424                1.93048272               -0.15548426
              10.79702475                0.27348899               54.50783029                1.00000000                1.10494052                1.81286074               -5.51139432               -0.36044001                2.88043078               -0.48086520
              11.80826887               -0.11975354               54.30746429                1.00000000               -6.98734672                2.01090101               -6.35207339              -17.29744261               10.70794549               -0.15528695
              12.65727781               -0.85363881               54.24923020                0.00010000               -5.61387654                4.64625482               -5.70643515              -18.30293238               16.83378946               -0.05751848
              13.69599134               -1.44167832               54.25894238                1.00000000                2.73133765                1.00443390               -5.02478365              -11.68822160                9.91562781                0.60040385
              14.71190457               -1.79088248               54.05721062                1.00000000                1.59132261                1.30458045               -5.85524299               -0.50846026                0.11575747               -0.76701421
               5.16669966                3.56465398               55.80129515                1.00000000               -0.59229976               -0.80590719                2.63999057               -0.02863450               -0.14883924                1.07095317
               6.16077666                3.19057069               55.55978129                1.00000000               -0.39893005               -0.37736508                1.26861085                0.03130932               -0.20548745                0.20636957
               7.15872106                2.81550353               55.31714036                1.00000000               -0.01265743                0.04229507               -0.07724029                0.03082625               -0.07370578               -0.30449752
               8.16052351                2.43884848               55.07800138                1.00000000                0.24036409                0.50184811               -1.45886740               -0.04490594                1.78997647               -1.02411454
               9.16352834                2.05921261               54.87204844                1.00000000                0.55262499                1.00460465               -2.89933978               -0.09093532                3.15689987                0.10939888
              10.17157601                1.67643360               54.65846545                1.00000000                1.05446932                1.39404410               -4.28967649               -0.08135670                2.69633227               -0.19289385
              11.18461772                1.29161760               54.44079001                1.00000000                1.36411674                1.82094513               -5.66418831               -0.30567580                4.09339406               -0.77100391
              12.19885835                0.90035547               54.25237715                1.00000000               -2.47034226                0.97313444               -5.81432866              -16.96036172               17.20224087                2.22800077
              13.13521088                0.19282374               54.29591227                0.00010000               -7.55636934                3.74963613               -5.11298034              -25.48806527               27.08752565                3.06873315
              14.04773096               -0.43163398               54.35200427                1.00000000               -3.95933758                0.69352537               -2.60647929              -13.59102841               13.04354505                0.83115693
              15.05602413               -0.77783668               54.14579461                1.00000000                0.82931688                1.00188770               -3.49730272               -0.30288500                0.39610982               -0.51387428
               5.53844003                4.55706547               55.71673221                1.00000000               -0.47995588               -0.70739600                2.29010778               -0.02653535                0.06534700                1.30750817
               6.53364047                4.18721551               55.47096325                1.00000000               -0.28408941               -0.28584788                0.93870938                0.03198017                0.17891014                0.19778723
               7.53275824                3.81635751               55.22750294                1.00000000                0.10881441                0.13628799               -0.40274116                0.02485806                0.40632636               -0.59894259
               8.53581676                3.44416661               54.98607807                1.00000000                0.42195262                0.56826691               -1.75527800               -0.06722729                3.30851951               -1.27165087
               9.54119729                3.06916426               54.80026030                1.00000000                0.81605925                0.73234977               -3.22416455               -0.61457275                4.73114862                0.75387654
              10.55213794                2.69052210               54.58737980                1.00000000                1.28960353                0.61900343               -4.61762789               -1.17736641                3.05795204                3.27583661
              11.56698936                2.30990789               54.36616159                1.00000000                0.78587781               -0.10146004               -5.95819697               -3.21934576                7.76313189                7.20529390
              12.56785550                1.89970915               54.24505128                0.00010000               -4.37417013               -3.24230692               -2.60225173              -18.70156745               24.28954625               10.36223038
              13.47950596                1.22135391               54.37026660                0.00010000               -8.65121562                4.23176274               -5.15827275              -29.08804950               33.56704905                4.11533809
              14.39483118                0.57219219               54.43739193                1.00000000               -4.06268478                0.20889205               -0.71698444              -15.10833761               14.25393412                0.49212837
              15.39825226                0.22915527               54.22574140                1.00000000                0.34210783                0.52920491               -1.94391860               -0.15958425                0.52694637               -0.96526829
               5.90586887                5.55050606               55.63132374                1.00000000               -0.37446533               -0.59709106                1.92629210               -0.03936477                0.18187054                1.12635499
               6.90212422                5.18485374               55.38039934                1.00000000               -0.18008760               -0.17613492                0.59459881                0.01528103                0.43204193               -0.10422010
               7.90226712                4.81822929               55.13452757                1.00000000                0.21239993                0.25229471               -0.70787842               -0.00975056                0.98288768               -1.08163991
               8.90637221                4.45021382               54.89439617                1.00000000                0.13071389                0.68844637               -2.05638096               -0.46741151                5.53877812               -1.03027007
               9.90488139                4.07385960               54.73926755                0.00010000                0.04564213                0.53736432               -3.11675916               -1.24658834                9.70586419                2.36380937
              10.90728506                3.68881367               54.58587261                0.00010000                0.30811799               -0.15605831               -4.12556306               -2.40371311               11.04796973                6.51341609
              11.91104375                3.28958839               54.45653512                0.00010000                0.30479599               -1.91653491               -4.40559394               -5.77489349               16.12838560               11.80521807
              12.91338098                2.83550933               54.39867999                0.00010000               -1.50384529               -4.31232294               -4.35682939              -12.87006065               23.27404197               12.19505701
              13.88096685                2.27745899               54.40712516                0.00010000               -8.78090669                3.67458204               -4.61844875              -20.64532092               30.80182964                1.84601200
              14.73776284                1.57254386               54.51728787                0.00010000               -7.10302865                8.91221075                0.35134835               -6.84026098               16.86155336              -10.79182713
              15.73890628                1.23274742               54.29734215                0.00010000                0.11434328                2.26431685               -1.26087752                8.85339717                0.46742911              -10.74409873
               6.26895738                6.54512365               55.54319414                1.00000000               -0.27345245               -0.48312116                1.56749484               -0.04395237                0.13155737                0.86744396
               7.26622286                6.18369281               55.28547424                1.00000000               -0.08771215               -0.05252153                0.22637348                0.01288524                0.49007768               -0.47358010
               8.26720314                5.82140341               55.03495538                0.00010000                0.23076761                0.38735912               -1.04955822               -0.00800863                1.98096510               -1.63034527
               9.27083821                5.45793554               54.80683747                0.00010000                0.52312676                0.67944008               -2.08674299               -0.39847607                9.36911866                2.69706866
              10.27766568                5.07991155               54.70425914                0.00010000                0.87483380                0.44758998               -3.09603238               -0.92047028               15.06185517                3.63936019
              11.28833489                4.68740093               54.59050149                0.00010000                1.35650751               -0.30120194               -3.85003470               -1.77333125               15.92556156                5.82612917
              12.30479583                4.27157719               54.50149591                0.00010000                1.71244000               -1.54415448               -4.30686133               -3.83713548               19.38842205                7.23229651
              13.32258369                3.81346269               54.44922971                0.00010000                1.23845918               -1.65425966               -4.51459467               -7.67898966               23.27023162                5.48008066
              14.32956501                3.29484555               54.43193875                0.00010000               -0.99230772                1.83038395               -4.38690990               -9.54556083               23.22490418                0.51792957
              15.30273753                2.75043641               54.37372718                0.00010000               -3.73259615               12.91642867               -5.64251083               -0.30193625               14.13796850              -10.22513223
              16.25491309                2.27444161               54.17727877                0.00010000               -4.78244463                7.59476515               -5.54456554                3.13132454                5.97317865              -14.41750186
               6.62785149                7.54084364               55.45261469                1.00000000               -0.17493369               -0.37955628                1.21311273               -0.03614294                0.02590539                0.70768537
               7.62610216                7.18380330               55.18750393                0.00010000                0.00063619                0.06197653               -0.08618278                0.01965862                0.44306740               -0.60893574
               8.62786422                6.82597647               54.93074320                0.00010000                0.68961960                0.51966029               -1.37391212               -0.14830439                6.66840230               -1.95650883
               9.63989455                6.46380262               54.78972467                0.00010000                1.45711882                0.53495020               -2.28783597               -0.30371275               13.75708399                3.71498312
              10.65700659                6.08281140               54.67445558                0.00010000                2.01291204                0.16973379               -3.21142099               -1.04593673               16.59839149                3.53919146
              11.68015279                5.68278963               54.58769882                0.00010000                2.56163443               -0.48218465               -3.91420999               -1.95914006               19.24635146                4.54609184
              12.70823928                5.25870530               54.52043588                0.00010000                2.81900170               -1.04642040               -4.39388782               -3.67740065               21.73884980                4.87888598
              13.73653282                4.80242414               54.47582615                0.00010000                2.24213173               -0.64498843               -4.67812227               -5.99867208               24.02828267                3.71681747
              14.75308192                4.31406667               54.44509269                0.00010000                0.77976168                1.93594377               -5.05965446               -6.40323167               25.37310028                1.10967644
              15.75212806                3.83087244               54.41870864                0.00010000                0.02202190                5.65220723               -6.47864309               -2.28166600               14.79430867                1.93468613
              16.75352236                3.38464273               54.17123889                0.00010000                0.13942978                7.74500804               -5.95793048                2.33004196                3.39602388               -3.48894442
               6.98231519                8.53753252               55.36129161                1.00000000               -0.08319954               -0.28785149                0.90535209               -0.03748368                0.04425845                0.69914405
               7.98148320                8.18493234               55.08997362                0.00010000                0.09612709                0.15701352               -0.38789563                0.02577721                0.34996342               -0.58800601
               8.98423773                7.83179661               54.82476284                0.00010000                1.32229139                0.62944537               -1.67155785               -0.39583793                9.08598747               -2.06651508
              10.00792903                7.46863454               54.72748805                0.00010000                2.67610997                0.40942634               -2.64299986               -0.75874711               18.20363863                0.85802275
              11.03775993                7.08330623               54.64331849                0.00010000                3.26645797               -0.04956121               -3.46829990               -1.51402293               19.93846769                2.68744550
              12.07325818                6.67775724               54.57705577                0.00010000                3.69266842               -0.50949715               -4.11723642               -2.30644552               22.05173747                3.52239141
              13.11161330                6.25064878               54.52930193                0.00010000                3.69953481               -0.65075287               -4.55834552               -3.47144757               24.13706357                3.93203088
              14.14724888                5.80056292               54.49705732                0.00010000                3.07193886               -0.02505573               -4.82696091               -4.67925649               25.97136028                3.68348406
              15.17305208                5.33356443               54.47752075                0.00010000                1.96396383                1.52158521               -4.93063999               -4.75443170               28.02578275                3.03448699
              16.18652816                4.86348055               54.47933786                0.00010000                1.04606340                2.39216029               -4.24835330               -1.94477217               15.34582160                3.03971241
              17.19397335                4.42934177               54.20172604                0.00010000                0.74451903                3.15879131               -4.16688439                0.14865127                1.44341068               -0.03648671
               7.33230218                9.53508661               55.27056154                0.00010000                0.00514259               -0.20393621                0.61759806               -0.03995717                0.02038337                0.73175023
               8.33235361                9.18694358               54.99254272                0.00010000                0.19715393                0.24207302               -0.67872526                0.03732380                0.24153297               -0.57908641
               9.33624526                8.83856538               54.71889965                0.00010000                2.04281933                0.70449213               -1.94379260               -0.77320542               11.04589873               -2.06085743
              10.37320999                8.47199115               54.65618314                0.00010000                4.06790891                0.20096730               -2.96810393               -1.41124473               22.12382954                0.16303748
              11.41760344                8.08182018               54.60153576                0.00010000                4.67356642               -0.33261222               -3.77893681               -1.95891933               23.42489000                1.71675280
              12.46668132                7.67259969               54.56026882                0.00010000                4.92006034               -0.62794196               -4.35682249               -2.30951836               25.21829031                2.75780603
              13.51600465                7.24569025               54.53516797                0.00010000                4.66753649               -0.53033993               -4.65963733               -2.83466902               27.08407414                3.58811570
              14.56003205                6.80192303               54.52378742                0.00010000                3.95355054                0.03070152               -4.68078782               -3.43639283               28.42626786                4.60234790
              15.59507566                6.34449837               54.51784562                0.00010000                2.87116085                0.72235548               -4.35289953               -3.76348681               29.12869581                5.24694558
              16.61745527                5.87871564               54.51340509                0.00010000                1.48486411                1.21340529               -2.73377380               -1.77796870               14.94294973                1.69479614
              17.62477294                5.44781855               54.21961085                0.00010000                0.73176688                1.42365492               -3.04206101               -0.05445959                0.52785337               -0.47027576
               7.67780212               10.53345380               55.17988562                0.00010000                0.09487853               -0.12076195                0.32810365               -0.04192753                0.00902491                0.72281843
               8.67875090               10.18977380               54.89528770                0.00010000                0.29619674                0.32391287               -0.97048399                0.03754032                0.15517262               -0.56363487
               9.68372605                9.84588646               54.61353775                0.00010000                2.88492143                0.74007237               -2.20832251               -1.34793517               12.83658389               -1.80455314
              10.73644933                9.47265389               54.58177463                0.00010000                5.71234793               -0.27362077               -3.27964908               -2.17015348               25.73683595               -0.02636179
              11.79797301                9.07665398               54.55385623                0.00010000                6.33742089               -0.90033736               -4.07528970               -2.03045332               26.80635431                1.15022443
              12.86319775                8.66519840               54.53747977                0.00010000                6.38117865               -0.95301230               -4.56340451               -1.84687827               28.62468111                2.05914967
              13.92559658                8.24004199               54.53854834                0.00010000                5.82575743               -0.77998888               -4.64146050               -1.86951216               30.91605531                3.12922803
              14.97971290                7.80117695               54.55996617                0.00010000                4.76965715               -0.40457017               -4.12332833               -2.08481246               32.36533456                5.04838524
              16.02098973                7.34801154               54.58252384                0.00010000                3.39678540               -0.09215917               -3.31794832               -2.37301262               29.07446025                9.48739232
              17.04764861                6.88774866               54.53194638                0.00010000                1.68443053                0.81479586               -2.26299649               -1.50051755               12.91626542                0.88854460
              18.05467834                6.45781487               54.22691135                0.00010000                0.70297314                0.88244100               -2.58036860                0.00825725                0.20200417               -1.09502397
               8.01882362               11.53267137               55.08900787                0.00010000                0.18481303               -0.03378488                0.03453336               -0.04555320                0.01553934                0.61947679
               9.02067175               11.19342183               54.79811889                1.00000000                0.37914246                0.40704595               -1.26990862                0.00700814                0.29967121               -0.49303716
              10.02640647               10.85336683               54.51280924                0.00010000                3.91838227                0.75784817               -2.47976417               -2.26412032               14.59679155               -1.11646576
              11.09903940               10.46651873               54.50706461                0.00010000                7.90216938               -1.58562565               -3.55859254               -2.25937262               28.93549821                0.03089009
              12.18444986               10.06381343               54.50162446                0.00010000                8.36581778               -1.60418890               -4.32119833               -1.44158409               29.94751138                0.64564443
              13.26635575                9.65353944               54.50719179                0.00010000                7.90929933               -1.43666746               -4.70910575               -0.96691916               32.00499174                1.18213023
              14.34263585                9.23009047               54.53372638                0.00010000                7.20052493               -1.24435229               -4.54277741               -0.89632313               35.03993893                1.93415989
              15.41036625                8.79383162               54.59058010                0.00010000                5.92039272               -1.15249556               -3.52651915               -1.06349018               39.67958662                3.58378999
              16.46104370                8.34265519               54.70016311                0.00010000                3.36376659               -0.55683350               -0.69359337               -0.94125280               29.43245046                8.08703384
              17.47764159                7.89501156               54.54480632                0.00010000                1.18809773                0.71401714               -2.29892649               -0.87835996                8.05149368                0.59090548
              18.48480566                7.46546737               54.22869986                0.00010000                0.71640708                0.74850532               -2.45526885                0.03134821                0.01168152               -1.06824571
               8.35539013               12.53277810               54.99637499                1.00000000                0.28054801                0.01067287               -0.26326807                0.17031250                0.28339695                0.52298288
               9.35819561               12.19791472               54.70203958                1.00000000                0.49783081                0.44928866               -1.57743398                0.16565150                0.93745013               -0.41913939
              10.36534674               11.86104342               54.42065208                0.00010000                6.13098330                0.76765929               -2.78042894               -3.95464020               16.36154259               -0.65383624
              11.48081527               11.44094137               54.43363291                0.00010000               10.83869391               -2.55773619               -3.80157216               -2.64607330               31.63837673                0.00514118
              12.58212062               11.04457020               54.44383930                0.00010000                9.83835271               -1.92432275               -4.49051487               -0.45674000               32.69021601                0.36195136
              13.67758233               10.63646505               54.46586491                0.00010000                9.26286587               -1.70743923               -4.77142089               -0.34810590               34.98264829                0.68477900
              14.76737794               10.21515494               54.51084955                0.00010000                8.41480228               -1.49355300               -4.46109719               -0.44269105               38.55210233                1.14035417
              15.84587837                9.77812704               54.59356704                0.00010000                6.68033968               -1.57045801               -3.11524548               -0.36279167               43.85519055                2.27424817
              16.90098473                9.33687487               54.73483465                0.00010000                3.06954260               -0.57803245               -0.44475878                0.18920104               31.01803319                4.14408088
              17.90726923                8.90202900               54.55559672                0.00010000                0.67044719                0.70174393               -2.37462099               -0.24173042                7.72016966                0.53415019
              18.91439368                8.47278498               54.23636833                0.00010000                0.71244512                0.73176048               -2.42807014                0.03439987                0.68940483               -0.82706941
               5.03149378                2.67277852               56.92122951                1.00000000               -0.69438914               -0.85626035                2.96819731               -0.26230563               -0.74475443                0.76060150
               6.02454989                2.28792484               56.66588427                1.00000000               -0.50956546               -0.41463079                1.56823111               -0.19853085               -0.95784247                0.12375059
               7.02130247                1.90226133               56.40615727                1.00000000               -0.14203062                0.01237143                0.19809860               -0.20623212               -0.85756366               -0.16219127
               8.02170927                1.51459833               56.15244477                1.00000000                0.08759171                0.49025620               -1.21721764               -0.31664465                0.40910699               -0.72810589
               9.02305430                1.12338525               55.91736717                1.00000000                0.40570628                1.05154102               -2.75864817               -0.29518833                1.59817772                0.04626523
              10.02982340                0.73108121               55.68568618                1.00000000                0.91591942                1.44631271               -4.26076292               -0.25939580                1.71979132               -0.19143614
              11.04137269                0.33581316               55.45132221                1.00000000                0.92449362                1.91001601               -5.74993489               -0.64638509                2.96203637               -0.57910854
              12.04831327               -0.06972887               55.24382762                1.00000000               -9.53917754                2.04546399               -6.38637567              -21.16370779               11.01166627               -0.38853170
              12.85058914               -0.89096625               55.18658883                0.00010000               -7.74784950                5.89209988               -6.89398107              -21.91350306               17.14100646                0.94500295
              13.89335628               -1.53905943               55.19658075                1.00000000                3.40762371                1.83308355               -8.13475201              -14.04012483                9.99033234                0.94004002
              14.91874162               -1.89954934               54.98552789                1.00000000                2.53853327                2.20687508               -9.29508882               -0.70524578                0.09694517               -1.05296907
               5.41372440                3.66421592               56.82780190                1.00000000               -0.59012244               -0.80894488                2.65027858               -0.03118137               -0.12568546                1.02954094
               6.40782318                3.28377853               56.57238778                1.00000000               -0.39104979               -0.37258379                1.24958959                0.02852338               -0.16598024                0.19833078
               7.40590340                2.90238504               56.31608025                1.00000000                0.00788447                0.05564130               -0.12963434                0.02994416               -0.04174241               -0.29069880
               8.40798087                2.51950089               56.06287804                1.00000000                0.29787887                0.52232952               -1.54908573               -0.03833198                1.74076599               -0.97530260
               9.41186098                2.13390066               55.84173226                1.00000000                0.65173116                1.05976279               -3.12542648               -0.08638555                3.08912515                0.08660675
              10.42101549                1.74554433               55.61386200                1.00000000                1.17264488                1.47462992               -4.59574698               -0.07731635                2.66891613               -0.27725473
              11.43531388                1.35491332               55.38234689                1.00000000                1.45252047                1.92543620               -6.00552863               -0.64736622                4.81281893               -0.92343932
              12.45006590                0.95072577               55.19502813                1.00000000               -3.45972445               -0.59541148               -5.51218478              -21.11091122               18.85550889                3.75037677
              13.36611939                0.16795475               55.24275872                0.00010000               -9.64096571                4.67218197               -5.43084371              -30.04573124               29.76409090                3.42482248
              14.25724658               -0.52072859               55.31804091                1.00000000               -4.69701592                1.35415321               -4.91635208              -16.14861388               14.49732060                1.44166515
              15.27217907               -0.87748059               55.10167436                1.00000000                1.49324885                1.75109666               -6.11607949               -0.48215975                0.84481756               -0.70986430
               5.79174492                4.65659962               56.73975396                1.00000000               -0.47936843               -0.70944439                2.30467427               -0.02955682                0.08585685                1.24889571
               6.78695123                4.28047317               56.48027213                1.00000000               -0.27829602               -0.28153272                0.92103577                0.02933533                0.20893449                0.17787600
               7.78617900                3.90337415               56.22319894                1.00000000                0.12378909                0.14928086               -0.45206575                0.02758517                0.43715427               -0.57655885
               8.78942701                3.52504492               55.96806043                1.00000000                0.45520777                0.59004382               -1.83078149               -0.03216362                3.21953692               -1.20938394
               9.79528315                3.14458051               55.76629838                1.00000000                0.89187012                0.62688356               -3.52291263               -0.67512648                4.69114517                0.96693439
              10.80726442                2.76057381               55.53917551                1.00000000                1.39803905                0.35525583               -4.99186283               -1.26964575                3.15337952                3.60120616
              11.82324393                2.37432188               55.30460866                1.00000000                0.28946000               -0.83771367               -6.32713390               -5.22413564               10.78179982                7.99720726
              12.81305362                1.91836290               55.22796156                0.00010000               -5.10575256               -5.05794769               -1.20592589              -22.25096858               25.81148838                8.50524817
              13.72112888                1.20247739               55.32363326                0.00010000               -9.86171320                4.43131532               -4.38903539              -33.08903900               34.79215225                3.44793146
              14.61581935                0.48802363               55.42773721                1.00000000               -4.92632307                0.57563567               -1.55274539              -17.74575000               16.95261490                0.78246873
              15.62260242                0.13547259               55.20057463                1.00000000                0.67830675                1.00794276               -3.56865158               -0.25974514                0.80992917               -1.62572213
               6.16538618                5.65002703               56.65071772                1.00000000               -0.37508224               -0.59707216                1.94387326               -0.04234093                0.20134832                1.06559859
               7.16163535                5.27814788               56.38625967                1.00000000               -0.17514108               -0.17351800                0.57695251                0.01557112                0.47104814               -0.14445133
               8.16188335                4.90537066               56.12717872                1.00000000                0.22479416                0.26504945               -0.75720968               -0.00126533                1.01758586               -1.07325093
               9.16613124                4.53130177               55.87345183                1.00000000                0.04731066                0.69203255               -2.11952354               -0.59585668                5.67233433               -0.82556401
              10.16282957                4.14643833               55.70723777                0.00010000               -0.01250197                0.22767789               -3.25465950               -1.55057508                9.97375217                2.65861852
              11.16588120                3.75264945               55.54339685                0.00010000                0.51062521               -0.82536843               -4.32701803               -2.99998433               11.78449157                6.99987584
              12.17304207                3.33815905               55.41205737                0.00010000                0.55049097               -3.23867637               -4.48068488               -7.51594290               17.54146079               12.32527682
              13.17689102                2.84956682               55.35543088                0.00010000               -1.91820976               -4.67474726               -4.36589767              -14.90101510               24.73839645                9.57520181
              14.13467788                2.25658106               55.36473048                0.00010000              -10.37773142                3.56552814               -4.01207615              -23.74577475               34.35701419                0.09613063
              14.96933639                1.49078412               55.52046848                0.00010000               -8.12958080               10.03538542                0.04619030               -7.73996064               20.27400779              -14.54154708
              15.97208626                1.14267826               55.28130286                1.00000000                0.27498722                2.37379659               -2.33172461                9.88378303                0.80050601              -14.27213355
               6.53465640                6.64465818               56.55900759                1.00000000               -0.27373694               -0.48138934                1.58661928               -0.04570881                0.11997739                0.81689353
               7.53191903                6.27700281               56.28762135                1.00000000               -0.08282973               -0.05457373                0.20322851                0.02058716                0.51756015               -0.49776413
               8.53299980                5.90867514               56.02414816                0.00010000                0.22615890                0.39206358               -1.10668009               -0.00070433                2.18575308               -1.63536503
               9.53644220                5.53888557               55.78595288                0.00010000                0.49620834                0.51142235               -2.05078997               -0.68919696                9.65344287                2.86668159
              10.54292397                5.14913407               55.67248678                0.00010000                0.95509062                0.10809165               -3.21733347               -1.37242186               15.44323018                3.66359457
              11.55554402                4.74406644               55.55089159                0.00010000                1.65418705               -0.94814349               -4.03458483               -2.48652248               16.63178789                5.77928948
              12.57600771                4.30954836               55.45701814                0.00010000                2.05336424               -2.36796523               -4.56249899               -5.23140933               20.41366885                6.66913330
              13.59661130                3.82486796               55.40247780                0.00010000                1.44941872               -1.92402987               -4.82564588               -9.61774189               24.54864209                4.16687722
              14.60499608                3.27378796               55.38526745                0.00010000               -1.08441822                1.98212878               -4.92117873              -11.50221295               23.95236479               -1.64261679
              15.57492294                2.68873134               55.31623140                0.00010000               -4.42531438               14.87850003               -5.89554920               -0.90700586               14.46937181              -16.00334657
              16.51648979                2.18294852               55.11668612                0.00010000               -5.84331416                9.20084193               -6.61430582                2.74769130                7.15918786              -19.13134338
               6.89978275                7.64039924               56.46493902                1.00000000               -0.17526099               -0.37826256                1.24327314               -0.03825083                0.03403636                0.68844614
               7.89803014                7.27705641               56.18651679                0.00010000                0.01018790                0.05494891               -0.11076504                0.03199843                0.46454920               -0.60152470
               8.89998650                6.91321193               55.91666977                0.00010000                0.69291189                0.50176339               -1.43700206               -0.28470021                6.86484430               -1.94085962
               9.91188837                6.54153022               55.76592224                0.00010000                1.51068809                0.28279807               -2.42866545               -0.71138962               14.09021352                3.55859144
              10.93020027                6.14860017               55.64131200                0.00010000                2.19240419               -0.14777767               -3.37937559               -1.63111694               17.02307112                3.29309896
              11.95573646                5.73368658               55.54703113                0.00010000                2.87060509               -0.94865566               -4.18736159               -2.85529802               19.85085620                4.09405921
              12.98761237                5.29079974               55.47432760                0.00010000                3.22800611               -1.49213900               -4.80808564               -5.02586938               22.51867211                4.09632661
              14.02029658                4.81108622               55.42581996                0.00010000                2.65789314               -0.78094422               -5.32433331               -7.68268174               24.78416144                2.46212412
              15.04077023                4.29622363               55.38972152                0.00010000                1.08695639                2.42346717               -6.07018896               -8.06714598               25.32104917               -0.68366846
              16.04203571                3.78835412               55.34393692                0.00010000               -0.10822494                7.66202304               -8.46216132               -3.13516965               15.32238459                0.09740214
              17.03860573                3.32669510               55.10294365                0.00010000               -0.34299760               10.91155977               -8.12497101                2.50828065                5.05584648               -5.57106363
               7.26057705                8.63709293               56.37056233                1.00000000               -0.08307446               -0.28724400                0.94283769               -0.03789345                0.04296801                0.71166465
               8.25974631                8.27810179               56.08591510                0.00010000                0.11274672                0.14931428               -0.41940027                0.03348934                0.36197461               -0.57495658
               9.26283199                7.91871041               55.80763399                0.00010000                1.35399332                0.59643544               -1.74753678               -0.60938715                9.24924481               -2.03733273
              10.28682617                7.54454153               55.70011280                0.00010000                2.76566383                0.26982753               -2.80854250               -1.26717499               18.51319962                0.59807605
              11.31814526                7.14617851               55.60717927                0.00010000                3.47061532               -0.27227168               -3.73068376               -2.22453469               20.33289065                2.24893090
              12.35623848                6.72509332               55.53383222                0.00010000                3.99727098               -0.76697940               -4.50662312               -3.27209402               22.55014596                2.89808170
              13.39809068                6.27970558               55.48080898                0.00010000                4.06476466               -0.82638306               -5.14075101               -4.71375735               24.72115218                3.10395880
              14.43753377                5.80924907               55.44466157                0.00010000                3.41472896                0.09444108               -5.69340344               -6.06130346               26.58889613                2.68337639
              15.46638526                5.32225730               55.42224052                0.00010000                2.21071524                2.23594482               -6.27679285               -5.66742670               28.95835494                2.10828991
              16.48174808                4.84197180               55.42879266                0.00010000                1.17940926                3.96695654               -6.64280610               -2.21939225               16.58932839                3.86600576
              17.48997345                4.40117972               55.15528432                0.00010000                0.82253689                5.15509434               -5.73229937                0.32996362                2.67913394                0.60647701
               7.61700716                9.63465436               56.27689549                0.00010000                0.00752789               -0.20386404                0.64883241               -0.04054552                0.02006255                0.75380320
               8.61708244                9.28004269               55.98555040                0.00010000                0.21759249                0.23874244               -0.71752607                0.03569030                0.25928641               -0.56623170
               9.62135901                8.92514064               55.69894152                0.00010000                2.09971641                0.68348886               -2.04380366               -1.03026277               11.18173706               -2.03567797
              10.65907677                8.54692677               55.62528499                0.00010000                4.18993840                0.14738856               -3.19790664               -1.96781343               22.36288957               -0.11424832
              11.70515778                8.14315473               55.56188176                0.00010000                4.88453712               -0.42234069               -4.13721526               -2.67885529               23.75785388                1.23147674
              12.75676751                7.71834699               55.51410907                0.00010000                5.20118460               -0.70415409               -4.87243679               -3.19712745               25.65264861                2.11809303
              13.80918147                7.27427208               55.48509607                0.00010000                4.98756372               -0.49037934               -5.38544508               -3.83519762               27.63178129                2.89170081
              14.85651879                6.81297504               55.47240774                0.00010000                4.27587451                0.31992878               -5.70436080               -4.34527251               29.15436568                4.12026004
              15.89469896                6.34094253               55.46898856                0.00010000                3.11033295                1.36670868               -5.68951789               -4.18871750               30.73645368                5.21788527
              16.91872545                5.86769325               55.48300949                0.00010000                1.60451078                1.91507691               -3.75057113               -1.82218364               16.26606199                2.50727546
              17.92678918                5.42979699               55.18777216                0.00010000                0.80637328                2.06705671               -3.59107950               -0.10450441                0.95015884                0.28726562
               7.96898948               10.63301565               56.18332468                0.00010000                0.09843537               -0.12367722                0.35897242               -0.04402663                0.00880695                0.74640338
               8.96997384               10.28287663               55.88531847                0.00010000                0.31765859                0.32941016               -1.02086304                0.02915688                0.18728860               -0.56047715
               9.97534266                9.93238019               55.59081468                0.00010000                2.97409862                0.74811328               -2.33877685               -1.61519305               12.95968667               -1.79702903
              11.02945581                9.54748930               55.54746902                0.00010000                5.89026373               -0.25971895               -3.58018771               -2.69925622               25.91774336               -0.26083380
              12.09314793                9.13773170               55.51083684                0.00010000                6.58613864               -0.89129935               -4.53105650               -2.64985737               27.10103102                0.73717561
              13.16117858                8.71101024               55.48880097                0.00010000                6.68053761               -0.89643996               -5.19462528               -2.52555632               29.07115105                1.53347371
              14.22675868                8.26989799               55.48831012                0.00010000                6.13896448               -0.61881280               -5.47866368               -2.52329797               31.67123343                2.65296460
              15.28395787                7.81564765               55.51448067                0.00010000                5.05670094               -0.08696838               -5.13734018               -2.54377096               33.41238787                5.00992920
              16.32789270                7.34959147               55.54497389                0.00010000                3.62460386                0.25153024               -4.45724046               -2.51098890               30.47512033               10.96329080
              17.35644995                6.88027334               55.50821951                0.00010000                1.78915922                1.05510849               -2.59379176               -1.54366106               13.75956395                1.01744280
              18.36367589                6.44252085               55.20120124                0.00010000                0.72259362                1.03669512               -2.66199448               -0.00712645                0.29230717               -0.69744563
               8.31640466               11.63218082               56.08950464                0.00010000                0.18963831               -0.04093625                0.06591994               -0.04735954                0.01810329                0.63946268
               9.31830104               11.28663089               55.78510327                1.00000000                0.40189120                0.42177496               -1.33149113               -0.00208840                0.34965207               -0.49956956
              10.32444248               10.94010290               55.48724558                0.00010000                4.07195463                0.78631941               -2.64210530               -2.52325610               14.73800663               -1.12898350
              11.39974013               10.54173239               55.46976211                0.00010000                8.20986071               -1.59006581               -3.91525061               -2.63299803               29.11602845               -0.09303827
              12.48863970               10.12532875               55.45587920                0.00010000                8.71749808               -1.55710046               -4.84877290               -1.82525624               30.26393361                0.40668178
              13.57409009                9.70041819               55.45679514                0.00010000                8.27192064               -1.31854077               -5.42035285               -1.33954070               32.54757507                0.87424204
              14.65407811                9.26189582               55.48440916                0.00010000                7.59298947               -1.04467326               -5.43211735               -1.20705409               36.06807793                1.68638183
              15.72594988                8.81123567               55.55148884                0.00010000                6.28876904               -0.91974153               -4.48368486               -1.28395972               41.99174473                3.71691665
              16.77985349                8.34597314               55.69239483                0.00010000                3.44864818               -0.31802816               -1.06487636               -0.96443721               30.29569317                9.28833941
              17.79492285                7.88879542               55.52106473                0.00010000                1.11490716                0.80970060               -2.49744400               -0.89075359                7.30509539                0.45358698
              18.80215163                7.45053089               55.20484634                0.00010000                0.72287849                0.74245302               -2.34422584                0.03472877                0.07887274               -0.87211632
               8.65914214               12.63219692               55.99388637                1.00000000                0.28678437                0.00161045               -0.23218760                0.18526940                0.28836035                0.54039807
               9.66200998               12.29131213               55.68590476                1.00000000                0.53169503                0.46812387               -1.64724050                0.16637700                0.99867038               -0.43089651
              10.66977604               11.94810657               55.39202446                0.00010000                6.47800114                0.80036707               -2.95587745               -4.24785125               16.55461508               -0.67408451
              11.79157001               11.51568799               55.39388533                0.00010000               11.40904789               -2.60443992               -4.17037541               -2.89285682               31.93528080                0.00395268
              12.89795700               11.10658969               55.39641971                0.00010000               10.31253413               -1.87390566               -5.02802595               -0.62069771               33.15924158                0.29908252
              13.99782069               10.68463943               55.41493612                0.00010000                9.69215613               -1.57787673               -5.48418431               -0.50619868               35.69605250                0.60248683
              15.09180012               10.24900452               55.46257359                0.00010000                8.81903384               -1.28913002               -5.32792260               -0.59712919               39.84437467                1.11882900
              16.17420137                9.79725282               55.55928276                0.00010000                6.96220439               -1.39828569               -3.93463545               -0.46353242               46.16986962                2.59239744
              17.23104421                9.34323091               55.72918994                0.00010000                2.99378790               -0.27422258               -0.86668842                0.07979895               31.41192564                4.15989770
              18.23407713                8.89646735               55.53137783                0.00010000                0.49276570                0.76719335               -2.48468331               -0.37762226                6.73679866                0.40128485
              19.24089952                8.45736991               55.21318962                0.00010000                0.68223988                0.68390215               -2.20816008               -0.03495519                0.68328104               -0.67452158
               5.28664153                2.77525084               57.95089957                1.00000000               -0.68623173               -0.85305030                2.95456285               -0.26474042               -0.70201838                0.73238933
               6.27977921                2.38423078               57.68144755                1.00000000               -0.49669035               -0.40813396                1.54090345               -0.20150087               -0.89760479                0.11917930
               7.27670772                1.99242183               57.40788111                1.00000000               -0.11915056                0.02260504                0.15144815               -0.20766731               -0.80875753               -0.15027875
               8.27739620                1.59870098               57.13986828                1.00000000                0.13077678                0.50257880               -1.28302278               -0.32866532                0.35261729               -0.69714664
               9.27932326                1.20126729               56.88904882                1.00000000                0.46073208                1.07462417               -2.87117846               -0.31164325                1.45209731                0.02375861
              10.28661084                0.80246086               56.64215623                1.00000000                0.94003921                1.49383208               -4.40360308               -0.29760467                1.56086125               -0.23788354
              11.29812404                0.39985746               56.39283159                1.00000000                0.33123664                2.00049011               -5.90330968               -1.46091001                3.22677558               -0.63615250
              12.29323557               -0.02992520               56.17973678                1.00000000              -12.53896161                2.11542596               -6.37348155              -25.11468821               10.22336941               -0.88312570
              13.04734481               -0.94707853               56.11135058                0.00010000               -9.81883207                7.13542882               -7.64370133              -25.78012022               15.79788584                1.04002147
              14.09685893               -1.66579783               56.09624734                1.00000000                4.43021934                3.18406924              -12.21765356              -16.66753367                9.01185590                1.54712423
              15.13594920               -2.04423480               55.87130884                1.00000000                3.90902630                3.71540969              -13.96932208               -0.87325987               -0.14618570               -1.20111532
               5.67501419                3.76672034               57.85430073                1.00000000               -0.58354778               -0.80616415                2.63929563               -0.03312467               -0.10507004                0.99494019
               6.66917871                3.38014944               57.58477309                1.00000000               -0.38091190               -0.36648195                1.22489120                0.02612546               -0.13153461                0.19082934
               7.66739595                2.99264788               57.31454767                1.00000000                0.02540564                0.06530156               -0.17101408                0.02913148               -0.01833590               -0.27918259
               8.66968682                2.60372677               57.04701966                1.00000000                0.34654694                0.53520793               -1.60678711               -0.04612497                1.63696394               -0.92385054
               9.67432689                2.21201353               56.80953991                1.00000000                0.73264428                1.08650795               -3.26745989               -0.08728657                2.93095741                0.02683348
              10.68433971                1.81739918               56.56655051                1.00000000                1.26905422                1.52752523               -4.81372723               -0.09333740                2.58350662               -0.37295272
              11.69970797                1.41986237               56.32067944                1.00000000                1.56084916                2.01420446               -6.27756856               -1.52274306                5.89536203               -1.00523926
              12.71555669                0.99122906               56.14213346                0.00010000               -4.61140248               -3.03317193               -4.74337644              -26.18807614               20.60089059                5.06134570
              13.60747992                0.12427576               56.18729540                0.00010000              -11.83974779                5.77096566               -5.76717216              -34.84788247               30.23412047                3.16043763
              14.47876173               -0.63395714               56.25367722                1.00000000               -5.09131739                2.56059098               -9.23567067              -18.56366445               14.76261183                2.82314579
              15.50565357               -1.00708071               56.02347302                1.00000000                2.68918400                3.06235667              -10.88640200               -0.67101687                1.62860224               -0.55062181
               6.05912083                4.75912756               57.76282569                1.00000000               -0.47466533               -0.70779669                2.30022429               -0.03275373                0.10446922                1.19896208
               7.05437418                4.37690114               57.48938396                1.00000000               -0.27039042               -0.27669746                0.89966162                0.02528877                0.23663978                0.15870286
               8.05371302                3.99372786               57.21846163                1.00000000                0.13669395                0.15835835               -0.48937730                0.02673617                0.46937689               -0.55909951
               9.05710806                3.60940514               56.94946244                1.00000000                0.50960474                0.60416601               -1.87436531               -0.03286924                3.04461745               -1.14506021
              10.06390512                3.22299745               56.72980205                1.00000000                0.98936000                0.44150230               -3.70684471               -0.81546243                4.47470828                1.23343423
              11.07689526                2.83301136               56.48754255                1.00000000                1.49670918               -0.01520370               -5.25986896               -1.45201558                3.14893274                4.03363724
              12.09383930                2.44014155               56.23961891                1.00000000               -0.59172991               -1.80889574               -6.60345990               -8.67345160               14.41046090                9.02449838
              13.06506066                1.90941136               56.22093276                0.00010000               -5.91329726               -6.93659622               -1.18022068              -26.59408305               28.20623904                7.04239933
              13.97557336                1.16834078               56.28248589                0.00010000              -10.40592744                4.67358260               -4.19524647              -36.42038783               35.77505475                2.70429429
              14.85694211                0.38541399               56.40633702                1.00000000               -5.33986768                1.35879326               -2.96995453              -20.17097857               19.19321782                1.98946778
              15.86877600                0.01701233               56.15436837                1.00000000                1.18338924                1.91369852               -6.02038766               -0.46046319                0.89742151               -1.92211813
               6.43881195                5.75256441               57.67020120                1.00000000               -0.37277663               -0.59436696                1.94718716               -0.04446174                0.22161301                1.01291054
               7.43508418                5.37461549               57.39193839                1.00000000               -0.16926369               -0.17103709                0.55824707                0.01549774                0.51041819               -0.18706791
               8.43542667                4.99581505               57.11938338                1.00000000                0.23378380                0.27385966               -0.79705854                0.00341218                1.06332195               -1.07518691
               9.43975986                4.61581009               56.85200570                1.00000000               -0.05076279                0.66968076               -2.15792612               -0.82555409                5.80535323               -0.56538067
              10.43441142                4.22084357               56.67417436                0.00010000               -0.08022846               -0.19441156               -3.31320050               -2.05142646               10.22596136                3.05240452
              11.43815529                3.81709511               56.49933225                0.00010000                0.77137627               -1.68294615               -4.43245047               -3.88075445               12.57861530                7.62051556
              12.44983894                3.38368445               56.36692143                0.00010000                0.86602559               -4.87259622               -4.56491960               -9.84771398               19.08411675               13.00026099
              13.45547580                2.85249714               56.31136204                0.00010000               -2.33847032               -4.15001019               -4.50070917              -17.28452436               26.77676216                6.51511498
              14.40306953                2.21774741               56.32688364                0.00010000              -11.44025910                3.43306968               -3.87599507              -26.99965306               38.33383363               -2.06997866
              15.22667062                1.39321873               56.51821167                0.00010000               -8.49109505               11.07435226               -0.97559443               -9.13949776               23.76002767              -18.17177000
              16.23324763                1.03119326               56.25070765                1.00000000                0.65770181                2.65808145               -4.18162594               10.21802359                1.35032550              -17.95490178
               6.81412942                6.74724022               57.57492652                1.00000000               -0.26959338               -0.47532919                1.58415789               -0.04774571                0.10984397                0.77662589
               7.81143349                6.37348040               57.28953881                1.00000000               -0.07713774               -0.05682201                0.18376724                0.02715221                0.54691614               -0.52600586
               8.81258667                5.99920506               57.01282177                0.00010000                0.20674816                0.39292036               -1.14993144               -0.01763289                2.47309186               -1.65626420
               9.81556845                5.62279876               56.76582167                0.00010000                0.45024528                0.25022195               -1.92501312               -1.13995517                9.95300593                2.96796865
              10.82159157                5.21910921               56.63991247                0.00010000                1.04354196               -0.34313391               -3.25125185               -2.07493030               15.76321757                3.68327626
              11.83643929                4.79935244               56.50980979                0.00010000                1.99457093               -1.76824634               -4.14014270               -3.52102795               17.33434268                5.72364685
              12.86148299                4.34268963               56.41024593                0.00010000                2.44339601               -3.34217298               -4.76333048               -7.14781639               21.47391098                6.00284927
              13.88530721                3.82641116               56.35271680                0.00010000                1.66878542               -2.15071434               -5.14849314              -12.21705564               25.89665952                2.64358465
              14.89485870                3.23700218               56.33351518                0.00010000               -1.23004548                2.28364136               -5.45316215              -14.05968562               25.11237815               -4.54131472
              15.86070630                2.60690104               56.25581619                0.00010000               -4.88356467               16.35202451               -6.23228992               -2.40726068               15.18348222              -22.58900944
              16.79718741                2.07017396               56.04499265                0.00010000               -6.35188948               10.17149952               -7.60145946                1.49620189                8.15351424              -24.34159204
               7.18537667                7.74305782               57.47748015                1.00000000               -0.17142843               -0.37154393                1.25395989               -0.04089776                0.04039604                0.68214409
               8.18366239                7.37347905               57.18528863                0.00010000                0.01894931                0.04595993               -0.13206650                0.04165892                0.48861065               -0.59911785
               9.18575566                7.00367346               56.90200316                0.00010000                0.66971043                0.47865750               -1.49267735               -0.51131284                7.07194590               -1.95346516
              10.19705660                6.62081453               56.74115136                0.00010000                1.53017342               -0.07827243               -2.47799446               -1.33066391               14.44826392                3.27119882
              11.21635913                6.21398090               56.60686807                0.00010000                2.35488580               -0.56970669               -3.46363475               -2.49887985               17.43880473                2.96683973
              12.24415431                5.78173018               56.50395159                0.00010000                3.17323852               -1.53557536               -4.38415995               -4.14739027               20.40172018                3.54930471
              13.27982390                5.31684099               56.42427417                0.00010000                3.63339124               -2.03650674               -5.16917198               -6.92616638               23.20138560                3.15907793
              14.31682214                4.80948285               56.36933948                0.00010000                3.07810236               -0.93842433               -5.95199735              -10.05663476               25.37545121                0.90107519
              15.34138594                4.26342024               56.32368891                0.00010000                1.42657419                2.97305038               -7.15965860              -10.79971206               24.87720963               -3.10987645
              16.34535362                3.72025922               56.24946541                0.00010000               -0.23800578                9.74135262              -10.01892810               -5.21161819               15.43729612               -3.49065866
              17.33662583                3.23462325               56.00873947                0.00010000               -0.87277924               14.32344201              -10.63002126                1.30566850                6.78818554               -8.86637535
               7.55246901                8.73980934               57.38014836                1.00000000               -0.08179744               -0.28287486                0.97087759               -0.04012749                0.03838086                0.73376191
               8.55165103                8.37439960               57.08158562                0.00010000                0.12779633                0.13682593               -0.44369407                0.03998889                0.37931019               -0.57276080
               9.55502493                8.00877821               56.78981210                0.00010000                1.34983518                0.54988334               -1.81647269               -0.93882683                9.41251081               -2.05132091
              10.57864774                7.62123331               56.67131720                0.00010000                2.78366971                0.07677162               -2.92130179               -2.02960877               18.80809253                0.25722544
              11.61069833                7.20771508               56.56870482                0.00010000                3.59918273               -0.55943756               -3.92344005               -3.25075306               20.68755447                1.69160871
              12.65063139                6.76864093               56.48692331                0.00010000                4.22543340               -1.08686922               -4.83308642               -4.66949533               22.95029016                2.12928435
              13.69520700                6.30195949               56.42648691                0.00010000                4.34819392               -1.04089309               -5.69162145               -6.52402795               25.12225776                2.06380770
              14.73759527                5.80764267               56.38318925                0.00010000                3.64405462                0.25131379               -6.60475380               -8.15457851               26.86573785                1.32168350
              15.76808809                5.29646318               56.35198489                0.00010000                2.38378264                3.13512364               -7.80634234               -7.40487755               28.94299523                0.61819894
              16.78527092                4.80172809               56.34648173                0.00010000                1.32423107                6.45875431              -10.70083950               -3.05905497               17.82036948                3.87341408
              17.79457271                4.35664280               56.08708005                0.00010000                0.93017875                8.65118456               -9.23889263                0.37271875                5.28502105                0.69730799
               7.91539361                9.73740033               57.28353819                0.00010000                0.00996929               -0.20183173                0.67714635               -0.04239242                0.01913729                0.78256570
               8.91549330                9.37621557               56.97819220                0.00010000                0.23759025                0.23058935               -0.75104174                0.03132173                0.28028758               -0.56807974
               9.92014541                9.01467112               56.67802358                0.00010000                2.10171240                0.64318055               -2.13975593               -1.40606526               11.29496760               -2.06862444
              10.95752755                8.62234996               56.59222501                0.00010000                4.18955139                0.08633889               -3.39653661               -2.78723369               22.55448264               -0.49986609
              12.00393644                8.20279214               56.51879145                0.00010000                4.94962215               -0.51575103               -4.45021976               -3.71969080               24.01708400                0.60654347
              13.05651999                7.75999280               56.46282009                0.00010000                5.32025801               -0.77295698               -5.35224612               -4.51264572               25.93865088                1.29593176
              14.11034160                7.29602313               56.42745907                0.00010000                5.13534424               -0.40856564               -6.13184460               -5.36745573               27.90315574                1.93664782
              15.15922688                6.81450912               56.40970021                0.00010000                4.44306875                0.73258797               -6.88392570               -5.80994002               29.45366386                3.29670659
              16.19920298                6.32612271               56.40405526                0.00010000                3.23830156                2.37039487               -7.57385238               -4.82048038               32.07281773                4.78109652
              17.22399291                5.84943431               56.43839367                0.00010000                1.75239045                3.41570926               -6.26819143               -1.85670779               17.88357008                3.99262789
              18.23425078                5.40764694               56.14778926                0.00010000                1.02578770                3.50744886               -5.11028615               -0.17932079                2.06411780                1.54144626
               8.27399067               10.73577271               57.18706507                0.00010000                0.10160023               -0.12506999                0.38814548               -0.04639079                0.00884367                0.77894548
               9.27500667               10.37901139               56.87487044                0.00010000                0.33892855                0.33142909               -1.06616698                0.01498336                0.21603857               -0.57328080
              10.28076924               10.02164182               56.56676221                0.00010000                2.98876872                0.74531258               -2.48250151               -1.98444744               13.03634483               -1.85671448
              11.33478204                9.62296009               56.51017088                0.00010000                5.89462212               -0.20541546               -3.87980627               -3.45214777               26.02154285               -0.60902595
              12.39866168                9.19740006               56.46323510                0.00010000                6.61827245               -0.82139749               -4.97522261               -3.55096157               27.28901778                0.18139368
              13.46714749                8.75318179               56.43358726                0.00010000                6.73399362               -0.75518325               -5.83578640               -3.56772891               29.31452648                0.82062961
              14.53334155                8.29378818               56.42897507                0.00010000                6.20746977               -0.32342457               -6.41820764               -3.59626295               32.10279263                1.92021660
              15.59129689                7.82229443               56.45721937                0.00010000                5.17058735                0.44293722               -6.46454910               -3.34642457               34.04346121                4.70811717
              16.63675330                7.34387108               56.49337903                0.00010000                3.76578222                0.90416049               -6.30741870               -2.70367266               32.02671828               12.60175896
              17.66661253                6.87004227               56.48007054                0.00010000                1.89038586                1.57453362               -3.30593399               -1.48901171               15.01043718                1.49543940
              18.67456102                6.42679178               56.17367146                0.00010000                0.79484845                1.41948598               -3.08378355               -0.09659448                0.51427524               -0.00736655
               8.62798843               11.73489893               57.09032627                0.00010000                0.19354230               -0.04750538                0.09865332               -0.04898228                0.01972636                0.66998972
               9.62992386               11.38284415               56.77148906                1.00000000                0.42596648                0.43412137               -1.38892106               -0.01486461                0.38892518               -0.52086506
              10.63650776               11.02957738               56.45996713                0.00010000                4.14012476                0.81810742               -2.84969652               -2.84566331               14.82017031               -1.19346400
              11.71272635               10.61824165               56.42875959                0.00010000                8.30938688               -1.50930519               -4.30757939               -3.14347915               29.20355840               -0.29590159
              12.80269550               10.18636419               56.40464900                0.00010000                8.80254695               -1.39646163               -5.40611337               -2.38797685               30.44952356                0.07128423
              13.88877729                9.74488913               56.39878474                0.00010000                8.33041019               -1.04744830               -6.20009178               -1.93037725               32.84747341                0.43843635
              14.96930371                9.28955464               56.42508403                0.00010000                7.67190964               -0.62927544               -6.52688827               -1.74720079               36.75366912                1.27470992
              16.04221548                8.82336787               56.50090641                0.00010000                6.40389868               -0.39536336               -5.85746085               -1.69930978               44.18902163                3.72119386
              17.09738168                8.34420592               56.67886558                0.00010000                3.45382476                0.13057514               -2.02398017               -1.10340062               31.12156742               10.68262110
              18.11129198                7.88092498               56.49485744                0.00010000                1.07191066                0.96931140               -2.78120170               -0.83881318                6.59728888                0.33114014
              19.11881989                7.43603666               56.18181534                0.00010000                0.75279126                0.79081047               -2.35573742                0.00490343                0.20866439               -0.57628013
               8.97712056               12.73482260               56.99173124                1.00000000                0.29103612               -0.00763252               -0.19687394                0.20033441                0.29855906                0.56807940
               9.98003093               12.38769381               56.66909477                1.00000000                0.56689529                0.48496607               -1.71113909                0.16977517                1.05584559               -0.45592990
              10.98845847               12.03800397               56.36153453                0.00010000                6.75473579                0.84265909               -3.18870488               -4.55092093               16.69549853               -0.71840635
              12.11512564               11.59277398               56.35022540                0.00010000               11.78980978               -2.54676711               -4.59935605               -3.18672811               32.14089574               -0.03336746
              13.22425467               11.16947083               56.34327879                0.00010000               10.51119310               -1.68933675               -5.63264193               -0.87114128               33.49886207                0.19037588
              14.32534950               10.73223283               56.35618123                0.00010000                9.78320658               -1.26563020               -6.31865639               -0.75618650               36.17153194                0.46080896
              15.41991880               10.28120267               56.40429110                0.00010000                8.86549525               -0.83519649               -6.46853668               -0.83077401               40.85324041                1.03273426
              16.50265941                9.81438716               56.51487433                0.00010000                6.86046896               -0.89807053               -5.20372948               -0.69161194               48.34838946                2.99604385
              17.55712818                9.34648258               56.71750088                0.00010000                2.76730573                0.22766647               -1.67612441               -0.27328326               31.68822148                3.89620747
              18.55800552                8.88942850               56.50590305                0.00010000                0.36537679                0.85035239               -2.58668775               -0.52237559                5.80892755                0.22859366
              19.56443571                8.44260799               56.19220513                0.00010000                0.64301892                0.65713207               -2.04868770               -0.12046966                0.67811007               -0.45218605
               5.55635745                2.88062399               58.98032076                1.00000000               -0.67411953               -0.84353971                2.91943286               -0.26457965               -0.66568310                0.70918949
               6.54961625                2.48365736               58.69670233                1.00000000               -0.48254275               -0.39986496                1.50705255               -0.20213972               -0.84665591                0.11496505
               7.54670659                2.08592262               58.40918624                1.00000000               -0.10111683                0.02982461                0.11440519               -0.20688440               -0.77008858               -0.13977328
               8.54759391                1.68635263               58.12678432                1.00000000                0.15508529                0.50770832               -1.32047930               -0.33881941                0.28079279               -0.66717535
               9.54980830                1.28287824               57.85994360                1.00000000                0.48319688                1.08058530               -2.92491481               -0.32678497                1.30871662               -0.00938763
              10.55725785                0.87753497               57.59761412                1.00000000                0.92596786                1.51639911               -4.47227691               -0.34536831                1.44462889               -0.29267966
              11.56832765                0.46739441               57.33325602                1.00000000               -1.14980897                2.06268064               -5.96508396               -3.55493291                3.67727708               -0.64965817
              12.53426167               -0.01218473               57.11635799                0.00010000              -15.91456794                2.29414351               -5.94457352              -28.35188521                8.03514730               -2.10752151
              13.25003630               -1.02205546               57.03371481                0.00010000              -11.03132674                8.20836513               -7.45017000              -29.61742511               12.78165966                1.64757651
              14.31363514               -1.82297671               56.95222768                1.00000000                5.78293055                4.86213482              -15.82026511              -20.02362202                6.52778767                2.46349806
              15.36569491               -2.22790001               56.70614145                1.00000000                5.20597690                5.63474507              -18.33571592               -0.54586919               -0.78263157               -0.87245446
               5.95067828                3.87218860               58.88058782                1.00000000               -0.57327440               -0.79728030                2.60864751               -0.03497247               -0.08695282                0.96689078
               6.94494554                3.47965871               58.59688561                1.00000000               -0.36940853               -0.35877187                1.19542592                0.02320596               -0.10127536                0.18386952
               7.94329011                3.08622087               58.31265997                1.00000000                0.03911865                0.07169168               -0.20095554                0.02762328                0.00009359               -0.27009553
               8.94572791                2.69142972               58.03074230                1.00000000                0.38295834                0.54025202               -1.63518315               -0.05758749                1.50508705               -0.87205621
               9.95094928                2.29368410               57.77638306                1.00000000                0.79090880                1.08682464               -3.32812099               -0.09209184                2.71054241               -0.04469135
              10.96154609                1.89269896               57.51758745                1.00000000                1.33444502                1.54649188               -4.92446142               -0.12472613                2.43230343               -0.46115321
              11.97763818                1.48802121               57.25679552                1.00000000                1.69608329                2.05877287               -6.43008506               -3.61034907                7.58392152               -1.00298021
              12.99546775                1.01075670               57.10016060                0.00010000               -5.91900734               -4.89164820               -3.34012830              -31.39716367               21.88886817                4.34485128
              13.85925803                0.06002820               57.12741528                0.00010000              -13.95732783                6.95152479               -6.06531349              -39.19613207               27.34150080                3.32352612
              14.71632120               -0.77435536               57.13332749                1.00000000               -4.70492550                4.31276233              -15.97715051              -20.87073361               12.85639310                6.61969020
              15.76515952               -1.17155256               56.88394632                1.00000000                4.88383254                4.88478038              -18.28117865               -0.78005825                2.52216155                1.76246297
               6.34071777                4.86467839               58.78575845                1.00000000               -0.46696707               -0.70020923                2.27802506               -0.03635676                0.12155346                1.16006448
               7.33604809                4.47648192               58.49826536                1.00000000               -0.26148568               -0.27035158                0.87498869                0.01970401                0.26236102                0.14066121
               8.33548805                4.08735646               58.21341140                1.00000000                0.14654220                0.16429507               -0.51506412                0.02340580                0.50449951               -0.54839586
               9.33897894                3.69715767               57.93057313                1.00000000                0.56045807                0.61026054               -1.89044910               -0.05111583                2.83355599               -1.08268150
              10.34669721                3.30461474               57.69216149                1.00000000                1.07236366                0.18459535               -3.76809745               -0.98099479                4.14688946                1.55801414
              11.36042621                2.90846481               57.43397813                1.00000000                1.56828609               -0.49532230               -5.37540395               -1.64422593                3.04970697                4.57830608
              12.37806293                2.50856987               57.17253946                1.00000000               -1.30573967               -3.02419837               -6.73454927              -12.67130321               17.60729796               10.21486281
              13.33431142                1.88998230               57.20435715                0.00010000               -6.34186100               -8.13358097               -2.39019101              -31.72992644               31.59442475                6.34715244
              14.25122571                1.11697504               57.23972833                0.00010000              -10.32550977                5.20620012               -4.71902069              -39.57284400               37.07408391                2.29195378
              15.12780122                0.26327854               57.36833812                1.00000000               -5.33687826                2.61124533               -4.23421661              -22.13938578               20.99287838                5.87997417
              16.14448815               -0.13020441               57.08016688                1.00000000                1.66869266                3.22542550               -8.19502338               -0.90123007                0.41181751                0.19798003
               6.72634407                5.85818441               58.68966147                1.00000000               -0.36825269               -0.58833191                1.93553231               -0.04772574                0.23713846                0.96398455
               7.72266155                5.47425168               58.39742461                1.00000000               -0.16307983               -0.16747384                0.53884128                0.01181827                0.54501220               -0.22854939
               8.72308248                5.08950677               58.11123755                1.00000000                0.23928849                0.27868063               -0.82669609                0.00369838                1.11646442               -1.08539752
               9.72744732                4.70363493               57.83029331                1.00000000               -0.15301156                0.59708080               -2.17027265               -1.13490408                5.95910142               -0.21186074
              10.72002225                4.29737600               57.64097376                0.00010000               -0.13704383               -0.72544266               -3.28284137               -2.66697115               10.50842915                3.54673210
              11.72470644                3.88279252               57.45474784                0.00010000                1.13361880               -2.72723876               -4.43579463               -4.91837782               13.40301361                8.39154634
              12.74269462                3.42753725               57.32075898                0.00010000                1.38788052               -6.81586316               -4.67984433              -12.50957231               20.70397064               13.84435122
              13.75246405                2.84808508               57.26541670                0.00010000               -2.40948534               -3.51100494               -4.77203015              -20.32106118               29.03492431                4.17053938
              14.69450491                2.16415220               57.28721058                0.00010000              -11.58755620                3.45906731               -4.29944260              -30.86485011               42.29632048               -3.90972004
              15.52071293                1.27786955               57.50095659                1.00000000               -8.02020515               12.12094395               -3.14102478              -11.59411834               27.08305662              -20.71732704
              16.53410081                0.89295595               57.19767034                1.00000000                1.33878858                3.41446354               -6.78030868                9.34459071                2.04514249              -20.48527061
               7.10762871                6.85291175               58.59069075                1.00000000               -0.26666147               -0.46820619                1.58099900               -0.04644809                0.11851709                0.74396472
               8.10496210                6.47313245               58.29129669                1.00000000               -0.07249709               -0.06122207                0.17169044                0.03180584                0.58254053               -0.55765947
               9.10617877                6.09293007               58.00114954                0.00010000                0.17247635                0.38227626               -1.17697110               -0.07764701                2.87311644               -1.69229208
              10.10841163                5.70909929               57.74745262                0.00010000                0.40107141               -0.10881334               -1.68615827               -1.71413794               10.28889999                3.00837724
              11.11420020                5.29010588               57.60746174                0.00010000                1.17428933               -0.91156936               -3.20112645               -2.95126864               16.01821428                3.73965398
              12.13189741                4.85392004               57.46808873                0.00010000                2.41893622               -2.76166800               -4.16847723               -4.80974783               18.03817170                5.72344534
              13.16257892                4.37225260               57.36175153                0.00010000                2.96889161               -4.48984649               -4.91335356               -9.53001321               22.51652173                5.41895141
              14.19127524                3.81976220               57.29950793                0.00010000                2.07826617               -2.47249088               -5.51452557              -15.50847045               27.25016276                1.22077127
              15.20414425                3.18615639               57.27620421                0.00010000               -1.20800690                2.57020967               -6.09843518              -17.51906014               26.60573047               -7.47656250
              16.16711511                2.50569742               57.19158560                0.00010000               -5.14685410               17.50029292               -6.46775504               -5.15266855               16.24821730              -28.77867712
              17.10120716                1.93808487               56.96465693                0.00010000               -6.59079409               10.71621236               -8.46821668               -0.67522978                9.03023200              -29.25369850
               7.48497371                7.84882029               58.49001822                1.00000000               -0.16943747               -0.36008089                1.26657886               -0.03723249                0.05888381                0.70131889
               8.48327934                7.47302724               58.18387546                0.00010000                0.02944890                0.03052763               -0.14835130                0.05193411                0.51367544               -0.60708445
               9.48556269                7.09715230               57.88681623                0.00010000                0.63547021                0.43667512               -1.53386695               -0.81983664                7.31681566               -1.99733095
              10.49598874                6.70145866               57.71636235                0.00010000                1.53067171               -0.52434488               -2.44396002               -2.11619972               14.87051058                2.84266145
              11.51617613                6.27914462               57.57203930                0.00010000                2.51880097               -1.10092900               -3.46004670               -3.59047272               17.85192345                2.61200611
              12.54636476                5.82755916               57.45934793                0.00010000                3.50380305               -2.25547599               -4.49202710               -5.79197621               20.91091188                3.02158153
              13.58625219                5.33774032               57.37094416                0.00010000                4.10130465               -2.72278857               -5.45511953               -9.36164613               23.79705448                2.24579815
              14.62839086                4.79863527               57.30678001                0.00010000                3.59681544               -1.22200944               -6.53073547              -13.20543092               25.78891903               -0.66814994
              15.65818850                4.21555639               57.24652834                0.00010000                1.86701090                3.40492745               -8.15633488              -14.64757099               24.45628548               -5.75284493
              16.66573107                3.62787541               57.14355836                0.00010000               -0.11835866               11.24072038              -10.77506762               -8.61654964               15.12242734               -8.75382020
              17.65582132                3.10728019               56.89034322                0.00010000               -0.99097514               16.89956094              -12.27191935               -1.39601762                7.50001098              -13.08298077
               7.85847016                8.84571013               58.38997988                1.00000000               -0.08013909               -0.27156598                0.98865216               -0.04130442                0.03008394                0.77275261
               8.85766877                8.47374300               58.07704122                0.00010000                0.14402273                0.11845183               -0.46127311                0.04384532                0.39184300               -0.58380443
               9.86135062                8.10166357               57.77130453                0.00010000                1.32132709                0.48328703               -1.87684540               -1.37338714                9.58775626               -2.11276371
              10.88409531                7.69861239               57.64168676                0.00010000                2.74698159               -0.16914442               -2.97990150               -3.00832322               19.13411951               -0.16320769
              11.91629025                7.26808730               57.52871047                0.00010000                3.66834376               -0.91946490               -4.03119946               -4.55368107               21.04133036                1.07665894
              12.95746219                6.80881052               57.43717049                0.00010000                4.39898231               -1.49787428               -5.06251357               -6.48911599               23.29281665                1.33422154
              14.00426989                6.31779683               57.36697655                0.00010000                4.59441825               -1.36117187               -6.15230903               -8.96881106               25.37710509                0.97825414
              15.04935055                5.79532202               57.31256649                0.00010000                3.88413959                0.31218960               -7.46229263              -11.14684396               26.87684689               -0.20356437
              16.08195269                5.25425493               57.26611367                0.00010000                2.68548788                3.98069640               -9.40452024              -10.77684132               27.44161926               -1.34570678
              17.10306031                4.73051183               57.21477587                0.00010000                1.62622755                9.30407969              -14.88816124               -5.56235402               18.15540791                2.30427709
              18.11447724                4.27607608               56.97050647                0.00010000                1.14169271               13.33771552              -14.99233239               -0.77062297                8.87654705               -0.58103300
               8.22808189                9.84338897               58.29043842                0.00010000                0.01209143               -0.19518255                0.69937891               -0.04499611                0.01731552                0.81913848
               9.22820280                9.47539627               57.97052957                0.00010000                0.25718337                0.21855780               -0.77730332                0.01788833                0.29538159               -0.58737635
              10.23322556                9.10681804               57.65614641                0.00010000                2.05978731                0.58193852               -2.23800160               -1.89510012               11.38928462               -2.17846516
              11.26939855                8.69807577               57.55735426                0.00010000                4.08394127                0.00809040               -3.56294577               -3.83721246               22.74562257               -0.99159690
              12.31490438                8.26075532               57.47287737                0.00010000                4.87371834               -0.62926394               -4.69132558               -5.06262248               24.26701883               -0.10415420
              13.36687292                7.79760167               57.40706415                0.00010000                5.27300421               -0.86761658               -5.73725296               -6.29857415               26.14022592                0.39362683
              14.42036447                7.31051688               57.36245917                0.00010000                5.10614785               -0.35597375               -6.80886967               -7.59050384               27.95161240                0.83193632
              15.46899587                6.80487906               57.33472922                0.00010000                4.35486962                1.16408886               -8.09945047               -8.21369896               29.28105162                2.15566146
              16.50746186                6.29517032               57.31751151                0.00010000                3.18334857                3.62806982               -9.68032736               -6.36494243               32.45351281                3.67594069
              17.53266284                5.81395700               57.35764566                0.00010000                2.09092454                6.16032629              -12.03955902               -2.39149261               19.87890220                6.07182572
              18.54928035                5.37403451               57.08556644                0.00010000                1.66175044                6.61356751               -9.59030480               -0.37813330                5.30489609                3.40900303
               8.59355562               10.84180648               58.19108759                0.00010000                0.10418417               -0.12372629                0.41381719               -0.04964713                0.00731469                0.82284496
               9.59459747               10.47811416               57.86399513                0.00010000                0.36067456                0.32964953               -1.10404568               -0.01341300                0.22250681               -0.60602424
              10.60076912               10.11330234               57.54116465                0.00010000                2.94081580                0.73216342               -2.66630142               -2.44950771               13.05575352               -2.03344880
              11.65341378                9.69877420               57.46987289                0.00010000                5.73713912               -0.11579695               -4.19274906               -4.40347175               26.10158413               -1.08799855
              12.71551190                9.25550202               57.41133239                0.00010000                6.41576802               -0.70222864               -5.38041298               -4.73076875               27.45825220               -0.48562736
              13.78172914                8.79145818               57.37208524                0.00010000                6.48352670               -0.55043574               -6.40682807               -5.05465273               29.42726291               -0.01414745
              14.84518243                8.31067736               57.35994596                0.00010000                5.93469954                0.07785565               -7.35279242               -5.30945172               32.20340692                0.95455636
              15.90042313                7.81860379               57.38518969                0.00010000                5.01967308                1.15627640               -8.01281797               -4.84540637               34.05495534                4.02153009
              16.94557589                7.32681633               57.41882551                0.00010000                3.79715688                2.01666942               -9.15392141               -3.20067498               33.82079364               14.21433695
              17.97636627                6.85371835               57.44210083                0.00010000                2.05918337                2.78143564               -5.27865673               -1.36064412               17.02252488                2.99587105
              18.98675956                6.40834743               57.13952557                0.00010000                1.03932900                2.32185533               -4.43569781               -0.38065335                1.28152214                1.32385381
               8.95447360               11.84091444               58.09147771                0.00010000                0.19650840               -0.05289582                0.13055516               -0.05098512                0.01941261                0.71413089
               9.95643868               11.48198927               57.75732485                1.00000000                0.45508811                0.44339872               -1.43930891               -0.03634971                0.37563125               -0.56020846
              10.96357536               11.12146131               57.43025165                0.00010000                4.13453772                0.86506534               -3.16761498               -3.22215832               14.81436328               -1.35937366
              12.03912943               10.69575983               57.38361053                0.00010000                8.20148329               -1.33425845               -4.77494122               -3.77603367               29.26045680               -0.60151961
              13.12760502               10.24671075               57.34775693                0.00010000                8.57375486               -1.11821930               -5.98329487               -3.13501812               30.60479573               -0.35131062
              14.21060453                9.78659296               57.33279331                0.00010000                7.97123998               -0.61977792               -6.95504379               -2.80634409               32.95887360               -0.09845184
              15.28702982                9.31207399               57.35387140                0.00010000                7.26721199                0.02838593               -7.73357623               -2.67994893               36.99720313                0.68007198
              16.35594877                8.82800459               57.43433963                0.00010000                6.06519880                0.53170231               -7.75273365               -2.45170233               46.05755920                3.48880644
              17.40833380                8.33550371               57.65191522                0.00010000                3.39850443                0.85340583               -3.98620111               -1.51074225               32.19714249               12.49378990
              18.42391886                7.86958571               57.46544070                0.00010000                1.20376601                1.26148300               -3.18577839               -0.79234686                6.35106851                0.41914454
              19.43240912                7.42047161               57.15773159                0.00010000                0.84902599                0.95995911               -2.72603833               -0.15650994                0.47812012               -0.13551160
               9.31038627               12.84074856               57.98994889                1.00000000                0.29373322               -0.01658784               -0.15888159                0.21462458                0.31672283                0.61025611
              10.31332361               12.48698213               57.65168198                1.00000000                0.60845531                0.49928644               -1.76776197                0.18124713                1.06018398               -0.49702942
              11.32255538               12.13060365               57.32825037                0.00010000                6.96600312                0.91423440               -3.54624086               -4.84665258               16.74204360               -0.81561121
              12.45264367               11.67208903               57.30189821                0.00010000               11.97115150               -2.36708022               -5.15296385               -3.52187702               32.29047066               -0.12544683
              13.56197841               11.23313764               57.28376687                0.00010000               10.37976720               -1.35731070               -6.32413580               -1.21398151               33.78838755                0.03248410
              14.66023901               10.77906263               57.28856299                0.00010000                9.40967072               -0.75303321               -7.20410494               -1.13117997               36.43943616                0.25963896
              15.75017183               10.31124507               57.33320285                0.00010000                8.38601794               -0.08289186               -7.83765277               -1.17703908               41.45620171                0.84834211
              16.82795937                9.82923784               57.45520817                0.00010000                6.18040475                0.12332536               -7.15735880               -1.16697119               50.38558200                3.45931538
              17.87377992                9.34388445               57.69566746                0.00010000                2.37960286                0.83807402               -2.97416581               -0.96987917               32.34741069                3.76582068
              18.87555143                8.87894801               57.47964407                0.00010000                0.40388225                0.93622993               -2.67643898               -0.65363457                5.23728482                0.07214501
              19.88185757                8.42754662               57.17221587                0.00010000                0.63061360                0.70750045               -2.17123829               -0.19529502                0.72952774               -0.16664118
               5.84056472                2.98890053               60.00928823                1.00000000               -0.65841032               -0.82800572                2.86465693               -0.26221680               -0.63503829                0.69039657
               6.83398062                2.58616354               59.71158860                1.00000000               -0.46703774               -0.38997304                1.46759081               -0.20103821               -0.80365738                0.11100882
               7.83122397                2.18267890               59.41016921                1.00000000               -0.08629614                0.03419088                0.08680741               -0.20438560               -0.73925680               -0.13046799
               8.83225470                1.77744151               59.11345869                1.00000000                0.17219089                0.50553334               -1.33261393               -0.34283796                0.19829382               -0.64001083
               9.83466778                1.36820060               58.83055052                1.00000000                0.49681510                1.07012098               -2.93180875               -0.33656544                1.16051811               -0.04627972
              10.84219100                0.95666060               58.55271069                1.00000000                0.91289666                1.51515081               -4.48241377               -0.38253265                1.35538424               -0.35214799
              11.85292572                0.53978530               58.27352991                1.00000000               -4.43556336                2.07340189               -5.94569791               -8.22831957                4.60613655               -0.64493190
              12.75347973               -0.03968086               58.06084531                1.00000000              -19.29087045                2.98077828               -4.36902033              -29.14220632                4.66346678               -4.13751441
              13.46710831               -1.10152794               57.96234718                0.00010000               -9.92458419                8.62606994               -6.84037418              -31.54885797                9.09011901                3.73357232
              14.55498805               -1.97872749               57.77984204                1.00000000                7.26803609                6.10537215              -17.30255981              -23.35123401                3.00778504                2.84397062
              15.61246903               -2.41729364               57.50459452                1.00000000                5.74809840                7.14367574              -20.47125703                0.38239767               -1.55620682               -0.64729166
               6.24067954                3.98062047               59.90647368                1.00000000               -0.55984964               -0.78226629                2.55993370               -0.03699871               -0.07079577                0.94510014
               7.23508105                3.58226380               59.60868160                1.00000000               -0.35692093               -0.34940845                1.16185489                0.01940876               -0.07402095                0.17705878
               8.23354113                3.18302081               59.31052856                1.00000000                0.04922098                0.07517306               -0.22019363                0.02521590                0.01593106               -0.26389035
               9.23606547                2.78249684               59.01431600                1.00000000                0.40757287                0.53795000               -1.63778728               -0.06723050                1.36244858               -0.82173358
              10.24169258                2.37890181               58.74297749                1.00000000                0.82539265                1.06832158               -3.32422404               -0.09573060                2.45904219               -0.11210713
              11.25257332                1.97181211               58.46806129                1.00000000                1.35603353                1.53782475               -4.93444812               -0.15310306                2.24273588               -0.53310748
              12.26881325                1.56051932               58.19207774                1.00000000                1.50704849                2.03450226               -6.44104548               -7.95023339               10.13965975               -0.95407014
              13.28271429                0.99012692               58.07533089                0.00010000               -7.38351038               -4.46104126               -2.06731518              -34.97530085               21.62156867                1.44643597
              14.12114305               -0.01526724               58.06598913                0.00010000              -15.16778678                7.79562520               -6.30824712              -41.09174701               19.96584270                4.30142380
              14.97935855               -0.91767377               57.93413421                1.00000000               -3.31419467                5.70559355              -22.63136082              -22.46082781                7.95803016               15.16373824
              16.05485915               -1.34585688               57.65784945                1.00000000                7.55005976                6.22707729              -25.64938932               -0.77402077                2.46133988                9.15973226
               6.63653807                4.97325520               59.80838620                1.00000000               -0.45696242               -0.68543343                2.23928822               -0.04053911                0.13615070                1.12975650
               7.63196845                4.57917537               59.50688374                1.00000000               -0.25214122               -0.26253129                0.84735191                0.01272275                0.28626205                0.12335377
               8.63149525                4.18418236               59.20816034                1.00000000                0.15303184                0.16740754               -0.52993803                0.01856381                0.54403905               -0.54637219
               9.63502909                3.78820051               58.91165346                1.00000000                0.59713263                0.60982726               -1.88176708               -0.07375610                2.62124701               -1.02331638
              10.64343790                3.38956703               58.65444010                1.00000000                1.12411692               -0.12119261               -3.73846605               -1.11752644                3.77989220                1.93809724
              11.65751143                2.98741710               58.38003447                1.00000000                1.60841675               -1.04983399               -5.35227220               -1.76173332                2.90234228                5.20163547
              12.67560624                2.58047535               58.10492792                1.00000000               -1.38755734               -4.45799579               -6.71800009              -16.59412686               20.07001413               11.44003044
              13.62976028                1.87109831               58.17312894                0.00010000               -6.12660873               -7.46848915               -3.82332637              -36.95411958               34.94880472                5.30851499
              14.55307406                1.05438456               58.18810547                0.00010000               -9.66995751                5.91721870               -5.82700140              -42.17004653               38.89263831                2.72936464
              15.43636113                0.13538438               58.32165269                1.00000000               -4.98596149                3.66492389               -4.18620410              -23.43116130               22.84482006               14.80830343
              16.45335483               -0.29275209               57.99046791                1.00000000                1.69937049                4.14273402               -8.18374549               -1.52045552               -0.66836675                7.95352681
               7.02802843                5.96691180               59.70891185                1.00000000               -0.36200906               -0.57462164                1.90854965               -0.05237172                0.25257773                0.93405382
               8.02440834                5.57701318               59.40271521                1.00000000               -0.15705836               -0.16495037                0.51938232                0.00571124                0.57590838               -0.26714103
               9.02488726                5.18636896               59.10284945                1.00000000                0.23986696                0.27990891               -0.84577621                0.00390123                1.17782368               -1.10420220
              10.02920568                4.79469338               58.80860025                1.00000000               -0.23808989                0.43483770               -2.15712376               -1.49429245                6.15820961                0.28366829
              11.02012546                4.37647796               58.60851753                0.00010000               -0.13876696               -1.33651413               -3.17971386               -3.29980569               10.85815571                4.13448995
              12.02643034                3.95081543               58.41061636                0.00010000                1.65620175               -3.90979181               -4.36084435               -5.98585173               14.20363688                9.29952167
              13.05324950                3.47135941               58.27332454                0.00010000                2.16461736               -8.97959363               -4.79749717              -15.26351524               22.22487105               14.86745529
              14.06972269                2.84075714               58.21592144                0.00010000               -1.98967234               -3.08175220               -5.18415595              -24.10923862               31.07938941                2.93789982
              15.01345605                2.10307713               58.24089479                0.00010000              -10.59253514                3.68842993               -5.02779784              -35.16554284               45.07084966               -4.68637711
              15.85787198                1.15562471               58.45539118                1.00000000               -6.63665351               12.66706768               -6.36476937              -15.26112670               29.39140012              -20.63902640
              16.88072298                0.73699780               58.11510148                1.00000000                2.28509992                4.25896016               -9.76670978                7.05203724                2.59550920              -20.33022639
               7.41528788                6.96176277               59.60654650                1.00000000               -0.26623692               -0.45583654                1.58084373               -0.04806960                0.11686530                0.73725447
               8.41262551                6.57587636               59.29297261                1.00000000               -0.06974063               -0.07101726                0.16415397                0.03736618                0.61319447               -0.59374073
               9.41389307                6.18978054               58.98928235                0.00010000                0.12043652                0.36014397               -1.18807838               -0.21306382                3.43485197               -1.74103065
              10.41503424                5.79689726               58.73209851                0.00010000                0.37133376               -0.56298858               -1.33577624               -2.34528693               10.67924384                2.98353300
              11.42131974                5.36283675               58.57588994                0.00010000                1.39393503               -1.57528317               -3.10148153               -3.86947248               16.18472880                3.87837694
              12.44291294                4.90922126               58.42644025                0.00010000                2.95372398               -3.88676892               -4.13819201               -6.24579605               18.71325704                5.85801655
              13.48039422                4.40088348               58.31197886                0.00010000                3.64724192               -5.74137395               -5.02170194              -12.23372919               23.42090447                5.12451024
              14.51585778                3.80946327               58.24242628                0.00010000                2.72507080               -2.88479244               -5.87335607              -19.27183340               28.30827956                0.31679988
              15.53489564                3.12815316               58.21154647                0.00010000               -0.93199279                2.76883748               -6.90932246              -22.02301401               28.11335075               -9.45877197
              16.49721793                2.38872573               58.12646109                0.00010000               -5.16231245               18.31839217               -6.31240728               -9.48053702               17.21752695              -33.31577157
              17.43164939                1.79242711               57.87562832                0.00010000               -6.55685349               11.50581520               -9.62160018               -4.01319528                9.78049262              -32.12204994
               7.79883985                7.95779507               59.50281173                1.00000000               -0.17019667               -0.34592855                1.28110995               -0.03721731                0.05683756                0.72856443
               8.79713789                7.57559283               59.18232160                0.00010000                0.03826153                0.00965249               -0.15625644                0.06572505                0.53225248               -0.62429546
               9.79960508                7.19357184               58.87132582                0.00010000                0.60529226                0.37061056               -1.55709840               -1.19588872                7.62126684               -2.07090928
              10.80924373                6.78343361               58.69227216                0.00010000                1.54034654               -0.99600063               -2.36609835               -2.98547992               15.38368246                2.27242943
              11.83041201                6.34497229               58.53766714                0.00010000                2.71119801               -1.72132779               -3.39084387               -4.78160493               18.26868648                2.31516740
              12.86346769                5.87308005               58.41411105                0.00010000                3.89604455               -3.08060541               -4.52232836               -7.65658366               21.37305367                2.66610392
              13.90833291                5.35653193               58.31517178                0.00010000                4.67743208               -3.54369562               -5.65151923              -12.15299457               24.25803367                1.61608279
              14.95701633                4.78306129               58.23872477                0.00010000                4.27002028               -1.69205488               -7.01360116              -16.89703694               25.98594435               -1.79089232
              15.99373331                4.15845388               58.16056222                0.00010000                2.34854792                3.52063626               -8.81800605              -19.06266425               24.26805174               -7.95379452
              17.00398729                3.52199255               58.03396406                0.00010000               -0.03384968               12.25002956              -11.14333625              -12.22857105               14.88006588              -14.54387537
              17.99305632                2.96711410               57.76330108                0.00010000               -1.09309742               17.86859066              -13.02146123               -4.03819124                7.26762093              -17.85012557
               8.17894801                8.95484420               59.39992141                1.00000000               -0.07847653               -0.25598390                0.99646508               -0.04159063                0.02580250                0.81442401
               9.17816324                8.57606941               59.07236015                0.00010000                0.15932547                0.09606504               -0.47021507                0.04518066                0.40113332               -0.60386995
              10.18213452                8.19719275               58.75227520                0.00010000                1.28804755                0.38349301               -1.93029225               -1.87954158                9.78276917               -2.23365104
              11.20392419                7.77697725               58.61171917                0.00010000                2.69533463               -0.45508588               -2.99150443               -4.11586262               19.52568724               -0.62920956
              12.23604121                7.32841019               58.48808083                0.00010000                3.71487234               -1.34425765               -4.05958728               -6.01065897               21.43741108                0.51496731
              13.27822164                6.84760915               58.38567304                0.00010000                4.56559431               -2.00647356               -5.18424426               -8.60628100               23.62104348                0.70990664
              14.32735309                6.33000956               58.30344073                0.00010000                4.88867258               -1.84197414               -6.48195907              -11.93055583               25.52592517                0.13786628
              15.37599509                5.77562217               58.23394340                0.00010000                4.36790012                0.09689344               -8.15462176              -14.93322188               26.59096401               -1.47818814
              16.41471110                5.19856588               58.16389449                0.00010000                3.39955961                4.42379014              -10.91324224              -15.51361850               25.05853896               -3.19939827
              17.44398628                4.63372632               58.04871851                0.00010000                2.29656809               11.07766582              -16.45824337               -9.96191141               16.10302170               -1.50178823
              18.46064246                4.14979892               57.78723340                0.00010000                1.66561760               16.98469010              -18.80458090               -3.82019752                9.01695749               -3.09898226
               8.55555762                9.95267539               59.29752577                0.00010000                0.01353264               -0.18269414                0.71338982               -0.04743253                0.01404593                0.86709474
               9.55569294                9.57751413               58.96264613                0.00010000                0.27743988                0.20131053               -0.79274973               -0.01085958                0.28997398               -0.62313602
              10.56110641                9.20124170               58.63326355                0.00010000                2.00080485                0.48374217               -2.34910678               -2.46551046               11.45948832               -2.40508808
              11.59570904                8.77433190               58.52096609                0.00010000                3.92302589               -0.10166990               -3.70435432               -5.02163803               22.98551572               -1.57848105
              12.63956693                8.31808714               58.42496494                0.00010000                4.70168320               -0.78011225               -4.84710882               -6.59040746               24.59407423               -0.79563333
              13.68974270                7.83295058               58.34807503                0.00010000                5.10709190               -1.02197351               -5.98829848               -8.47685820               26.36309427               -0.37807875
              14.74170877                7.31969244               58.29128167                0.00010000                5.00264356               -0.42712387               -7.33406923              -10.54996358               27.88035560               -0.13848415
              15.78979557                6.78499916               58.24771120                0.00010000                4.18240115                1.37462286               -9.19459014              -11.76207022               28.85642987                0.96102640
              16.82535679                6.24692968               58.21044871                0.00010000                3.18602254                4.75941112              -11.66552653               -9.99531775               30.48767244                1.95794961
              17.85351602                5.74354587               58.19760249                0.00010000                2.95751860                9.42191709              -19.44247200               -4.88725438               21.13335841                7.85018465
              18.88450716                5.30680791               57.95598316                0.00010000                3.09911390               11.56523864              -19.24046793               -1.43882010               11.30051425                5.50360366
               8.92832187               10.95119031               59.19534142                0.00010000                0.10578699               -0.11775779                0.43246127               -0.05322985                0.00346136                0.87976265
               9.92937974               10.58009562               58.85278952                0.00010000                0.38423385                0.32195026               -1.12888529               -0.06765584                0.16424965               -0.66044789
              10.93600654               10.20686760               58.51343619                0.00010000                2.86331268                0.70312439               -2.91640459               -2.98744138               12.97921442               -2.40539098
              11.98664599                9.77494385               58.42631589                0.00010000                5.48039147               -0.00729762               -4.56362793               -5.46692387               26.22188645               -1.73139607
              13.04561437                9.31280795               58.35562684                0.00010000                6.02165903               -0.55918233               -5.74329004               -6.08662330               27.76447303               -1.19986134
              14.10707917                8.82716968               58.30545070                0.00010000                5.93454348               -0.32541186               -6.82499259               -6.96216349               29.59145058               -0.77740738
              15.16430524                8.32146709               58.28191922                0.00010000                5.32186374                0.51033723               -8.14457214               -7.90311861               32.11323278               -0.02896790
              16.21351645                7.80311463               58.29696301                0.00010000                4.59763955                1.90631805               -9.65440870               -7.60928551               33.34033617                2.92396898
              17.25625803                7.29375411               58.31030061                0.00010000                3.64232627                3.51550455              -12.45877069               -4.80416491               35.52140804               15.03560515
              18.28636297                6.82216466               58.37449741                0.00010000                2.45419709                5.41093794              -11.55115908               -1.68347272               20.39446920                6.78696199
              19.30534198                6.38110370               58.08495750                0.00010000                1.89790043                4.69141150               -9.21260630               -1.14142971                4.37481836                4.41919422
               9.29668241               11.95032024               59.09293737                0.00010000                0.19801344               -0.05524792                0.15810488               -0.05336008                0.01590783                0.77544260
              10.29866254               11.58395314               58.74270289                1.00000000                0.49134742                0.44716772               -1.47673343               -0.07313242                0.22374028               -0.62269328
              11.30650935               11.21530419               58.39661483                0.00010000                4.08838345                0.94133590               -3.64931099               -3.63453175               14.62710857               -1.68935920
              12.38043021               10.77418594               58.33326077                0.00010000                7.95496388               -1.06270896               -5.43210431               -4.48140694               29.36571635               -1.06973906
              13.46560863               10.30690350               58.28498310                0.00010000                8.07050433               -0.73536629               -6.62628600               -4.00001695               30.95847295               -0.83744625
              14.54184030                9.82644234               58.25968386                0.00010000                7.10464082               -0.06417230               -7.57485547               -3.96906155               33.13948794               -0.61119159
              15.60770145                9.32989919               58.27041251                0.00010000                6.17412729                0.90197591               -8.77984851               -4.26122043               36.85293009                0.00043643
              16.66532284                8.82312552               58.34585173                0.00010000                5.12610054                1.93608802              -10.15200217               -3.91347079               47.21932596                2.85344832
              17.71022346                8.31723977               58.59914156                0.00010000                3.35870693                2.02702130               -8.14785616               -2.39892217               34.02805735               14.67859677
              18.73249698                7.85176462               58.43114188                0.00010000                1.67885222                2.01499938               -4.10395236               -0.83819004                7.39474381                1.50133186
              19.74380050                7.40063614               58.12729458                0.00010000                1.13035230                1.46014585               -4.10013797               -0.68581373                1.21165766                0.70255712
               9.65998886               12.95008535               58.98855361                1.00000000                0.29442775               -0.02348804               -0.12133144                0.22600691                0.34263396                0.67195115
              10.66293313               12.58903897               58.63373953                1.00000000                0.65471246                0.50858337               -1.81125028                0.20750736                0.92616436               -0.56162284
              11.67308311               12.22569432               58.29060972                0.00010000                7.12427064                1.03901252               -4.03351722               -5.11009003               16.56729921               -1.00956183
              12.80541855               11.75368967               58.24716612                0.00010000               12.01372647               -2.04962729               -6.04075481               -3.88085086               32.39381757               -0.30100517
              13.91335764               11.29810062               58.21679607                0.00010000                9.96418501               -0.88028719               -7.22147011               -1.61527143               34.26082278               -0.17094569
              15.00470225               10.82588624               58.21209913                0.00010000                8.45200113               -0.05561069               -8.02633298               -1.64350588               36.78062121                0.03110067
              16.08239766               10.33950660               58.24753805                0.00010000                7.16020991                0.96074152               -9.12648588               -1.73287137               41.60021802                0.55950645
              17.14790645                9.84183639               58.37172716                0.00010000                4.86214143                1.87108704              -10.11213246               -2.00224322               52.22865969                3.85767111
              18.17964049                9.33429453               58.65801757                0.00010000                1.91481822                1.70547592               -5.67513839               -2.02688425               34.15028748                4.64361830
              19.18620281                8.86246465               58.45237427                0.00010000                0.71210968                1.07000270               -3.01899978               -0.82881309                5.61630502                0.03777522
              20.19388268                8.41030661               58.14878037                0.00010000                0.76798703                0.96704784               -3.13233500               -0.20758617                1.08425581                0.21590736
               6.13905593                3.10006102               61.03761390                1.00000000               -0.63938120               -0.80683947                2.79181297               -0.25789050               -0.60896246                0.67540002
               7.13266212                2.69169153               60.72605415                1.00000000               -0.45022817               -0.37867812                1.42320921               -0.19851106               -0.76700900                0.10713040
               8.13005136                2.28259457               60.41092238                1.00000000               -0.07418160                0.03573647                0.06840361               -0.20038906               -0.71433938               -0.12221742
               9.13117848                1.87183781               60.10013204                1.00000000                0.18576469                0.49624693               -1.32150913               -0.33984523                0.10834791               -0.61635916
              10.13376666                1.45709872               59.80130742                1.00000000                0.51038310                1.04536560               -2.89809424               -0.34053127                0.99616509               -0.08214490
              11.14138615                1.03979083               59.50796585                1.00000000                0.92745548                1.49222095               -4.44080320               -0.39348968                1.26056548               -0.40860360
              12.15231577                0.61740011               59.21434206                1.00000000              -10.13362029                2.01416854               -5.85932257              -16.10025034                6.67896968               -0.66657374
              12.93871374               -0.12390618               59.02897758                1.00000000              -21.97369115                5.13079683               -2.11759561              -27.07600137                3.83638201               -4.80867423
              13.71284195               -1.15466791               58.89690732                0.00010000               -5.35851232                7.49662841               -6.52130613              -28.84581153                5.79534101                7.70936997
              14.83154349               -2.07468164               58.60617648                1.00000000                8.61119314                6.17903962              -16.17453316              -24.42659111               -0.34015145                2.26351156
              15.88506581               -2.54735570               58.29671631                1.00000000                5.35223141                7.31243990              -19.51751583                0.92159810               -2.03908555               -0.79508184
               6.54484651                4.09199263               60.93178649                1.00000000               -0.54362786               -0.76128406                2.49459837               -0.03929897               -0.05624150                0.92850422
               7.53941023                3.68790475               60.62012271                1.00000000               -0.34360869               -0.33880721                1.12468897                0.01481871               -0.04886364                0.17007796
               8.53797434                3.28295193               60.30825610                1.00000000                0.05588623                0.07567771               -0.22941415                0.02216323                0.03069894               -0.26093026
               9.54052796                2.87680028               59.99798656                1.00000000                0.42052482                0.52846434               -1.61681897               -0.07269616                1.21996275               -0.77419316
              10.54638483                2.46755237               59.70989858                1.00000000                0.83862968                1.03689585               -3.27047552               -0.09699225                2.19854192               -0.16784475
              11.55730055                2.05471304               59.41889849                1.00000000                1.33884673                1.50758071               -4.86302384               -0.17057429                2.05033598               -0.58565891
              12.57316177                1.63754180               59.12797461                1.00000000               -0.16564071                1.93617808               -6.32174926              -14.66291371               13.09346306               -0.91811201
              13.55398774                0.92740179               59.05881430                0.00010000               -8.66951042               -1.02658829               -2.64570906              -35.29236000               20.66190143               -0.50364728
              14.39977156               -0.07970163               59.00125034                0.00010000              -13.51831297                7.56622922               -6.85726978              -38.62901232               10.63219868                6.91875149
              15.28362148               -1.01289124               58.68070028                1.00000000               -1.64078558                5.64346421              -24.40283584              -22.18689882                1.06088613               28.13163844
              16.36695585               -1.47423130               58.37095853                1.00000000                8.33343710                5.94848996              -27.70712805               -0.71277685                1.12225157               22.12994975
               6.94644570                5.08483534               60.83054421                1.00000000               -0.44465127               -0.66437248                2.18477910               -0.04487553                0.14873637                1.10811906
               7.94199919                4.68491539               60.51521240                1.00000000               -0.24232963               -0.25423862                0.81733700                0.00523283                0.30868489                0.10690616
               8.94159911                4.28410812               60.20281264                1.00000000                0.15624675                0.16743942               -0.53449776                0.01356384                0.58820315               -0.55433118
               9.94512412                3.88240709               59.89293778                1.00000000                0.61574718                0.60314863               -1.85026078               -0.09280095                2.42749536               -0.96928874
              10.95391405                3.47783663               59.61739217                1.00000000                1.14305567               -0.44682047               -3.64772552               -1.18401171                3.42355337                2.36023837
              11.96798523                3.06994244               59.32693268                1.00000000                1.62273467               -1.61679331               -5.22861938               -1.75206696                2.75134165                5.85095272
              12.98636874                2.65612367               59.03817946                1.00000000               -0.89376361               -5.98531890               -6.58142600              -20.28275953               21.77858491               12.58416153
              13.95010996                1.85556206               59.12789062                0.00010000               -5.29070057               -4.49280263               -5.08385751              -40.34865715               37.38239555                4.52647631
              14.88055473                0.99665667               59.12318830                0.00010000               -8.38873851                6.33426410               -6.95282841              -43.03469032               41.81031750                5.03225348
              15.78233519                0.03818764               59.28461404                1.00000000               -4.35321734                3.65859307               -3.00854115              -23.71649100               25.66239229               28.31337044
              16.79349039               -0.42838590               58.91649197                1.00000000                1.11551926                3.77111541               -5.92509920               -1.67562734               -1.38863829               21.73961030
               7.34378890                6.07870518               60.72783246                1.00000000               -0.35467951               -0.55391925                1.86825386               -0.05511477                0.26670112                0.91921493
               8.34024211                5.68281998               60.40781226                1.00000000               -0.15174967               -0.16320751                0.49978392                0.00432475                0.60112510               -0.30263233
               9.34075391                5.28630072               60.09432203                1.00000000                0.23506589                0.27624835               -0.85448357                0.00970396                1.24531104               -1.13002068
              10.34494343                4.88886325               59.78715083                1.00000000               -0.27923310                0.13454743               -2.12043464               -1.87099837                6.41289764                0.95705821
              11.33516925                4.45861596               59.57737948                0.00010000               -0.04856280               -1.96564059               -3.04401115               -3.84235452               11.27671997                4.79408150
              12.34397217                4.02237717               59.36753096                0.00010000                2.33588585               -5.11783835               -4.24469056               -6.93460706               14.91371257               10.31147082
              13.38188697                3.51783542               59.22480903                0.00010000                3.12547105              -11.16140513               -4.87576257              -17.80946019               23.39105687               16.13852971
              14.40648159                2.83754574               59.16173358                0.00010000               -1.27174005               -2.61335957               -5.59277737              -28.15442524               32.59356056                3.11794003
              15.35645217                2.04698366               59.18665462                0.00010000               -8.60736798                4.03284204               -5.71704186              -38.77216993               45.81644359               -3.60995470
              16.23433423                1.06028062               59.37366120                1.00000000               -4.49308868               11.13107326               -9.41357786              -19.03720208               29.72429735              -17.25616005
              17.26659039                0.60119101               59.00233615                1.00000000                3.22561587                3.79150829              -11.94978689                4.34064813                2.45147401              -17.31731641
               7.73711380                7.07375696               60.62230762                1.00000000               -0.26236604               -0.43442520                1.56051731               -0.04548090                0.11011963                0.74618288
               8.73449014                6.68165124               60.29457977                1.00000000               -0.06819409               -0.08330960                0.15756886                0.05221598                0.64178912               -0.62821727
               9.73574992                6.28963309               59.97738797                0.00010000                0.04493864                0.32202741               -1.18355162               -0.46348170                4.19346871               -1.80419913
              10.73538891                5.88509804               59.72073709                0.00010000                0.39015585               -1.07883330               -0.99339885               -2.93658069               11.14732647                2.94430626
              11.74355303                5.43852382               59.54543211                0.00010000                1.73423624               -2.26794413               -3.00337229               -4.64853246               16.22727979                4.13767430
              12.77007364                4.96758568               59.38532489                0.00010000                3.57289703               -5.03643635               -4.08005299               -7.66396125               19.30734920                6.20619353
              13.81501098                4.43289557               59.26131749                0.00010000                4.38997917               -6.96176601               -5.07934383              -14.96893208               24.08148779                5.30288588
              14.85787322                3.80329486               59.18204081                0.00010000                3.36827386               -3.31227173               -6.10602254              -22.96721717               28.78794558                0.32802176
              15.88237645                3.07731352               59.13801776                0.00010000               -0.52447102                2.85744151               -7.53356916              -27.53138357               29.43725600               -9.63562696
              16.84738380                2.26080911               59.06533746                0.00010000               -4.19469421               17.72299327               -6.40986231              -15.18049780               17.35626722              -34.59568500
              17.79848257                1.64744427               58.77222493                1.00000000               -4.89012315               11.87407958              -11.28562521               -7.54101938                9.17736215              -30.29707863
               8.12709072                8.07001667               60.51564042                1.00000000               -0.16804234               -0.32361917                1.27391543               -0.03654289                0.04997255                0.76342952
               9.12541030                7.68115379               60.18075034                0.00010000                0.04733771               -0.01550849               -0.15446990                0.07860505                0.54337697               -0.64478629
              10.12803748                7.29274127               59.85567426                0.00010000                0.59553919                0.27098696               -1.56710146               -1.59850723                7.97387980               -2.18940060
              11.13732108                6.86728658               59.66904038                0.00010000                1.58367449               -1.38818878               -2.30523859               -3.80348380               15.98369308                1.60341257
              12.15971096                6.41325708               59.50422243                0.00010000                2.95000578               -2.37174887               -3.30806196               -5.90532829               18.69210351                2.19245228
              13.19632120                5.92164845               59.36890136                0.00010000                4.35440862               -3.92705035               -4.50716613               -9.51037332               21.76730695                2.63699455
              14.24679914                5.37860010               59.25791378                0.00010000                5.31990536               -4.42256559               -5.74979433              -14.94205426               24.52611093                1.51505177
              15.30271930                4.77130030               59.16650799                0.00010000                5.07555557               -2.32615186               -7.29393366              -20.58123776               25.94077126               -2.07669089
              16.34831025                4.10413249               59.07016822                0.00010000                2.89371115                3.15334796               -9.07784762              -23.52939581               23.98421793               -9.00526092
              17.36059353                3.41474048               58.92069163                0.00010000               -0.29052780               13.80142610              -11.29802476              -15.55309296               14.50773926              -18.82933732
              18.34249969                2.83867260               58.62991400                0.00010000               -1.80938345               18.69850453              -13.59478267               -6.64158681                6.58946613              -20.38913422
               8.51410871                9.06728457               60.40990918                1.00000000               -0.07710676               -0.23529113                0.99422782               -0.04278249                0.02104938                0.86215111
               9.51333765                8.68134107               60.06763692                0.00010000                0.17691330                0.06751973               -0.46708174                0.03112303                0.38894951               -0.63177868
              10.51764698                8.29505283               59.73269869                0.00010000                1.27328894                0.24070082               -1.97967395               -2.39744573                9.99454393               -2.43133199
              11.53880342                7.85733427               59.58185668                0.00010000                2.67188129               -0.76885761               -2.97039014               -5.19387973               19.99617662               -1.04471044
              12.57108461                7.39108884               59.44751872                0.00010000                3.78598631               -1.79802209               -4.04018999               -7.41618146               21.88635696                0.15644276
              13.61452315                6.88904467               59.33348561                0.00010000                4.77167142               -2.56930073               -5.22581395              -10.75738555               23.95223967                0.47805912
              14.66651803                6.34444426               59.23733737                0.00010000                5.30964631               -2.46656961               -6.66563353              -15.03682865               25.58412777               -0.13532047
              15.72071608                5.75677183               59.14947406                0.00010000                5.09151609               -0.51101628               -8.61459654              -18.99128269               25.92837845               -2.03869270
              16.76834836                5.14038047               59.04784883                0.00010000                4.05328754                4.18953526              -11.71451769              -20.04602122               23.06454695               -4.43393347
              17.80178183                4.53683763               58.88561100                0.00010000                2.47191225               11.52206561              -15.92147231              -13.48820432               13.82744958               -6.48467548
              18.81778660                4.02141436               58.59441485                0.00010000                1.60047725               17.38549403              -18.63031542               -5.74084818                7.23495419               -7.88287197
               8.89812208               10.06531085               60.30470621                0.00010000                0.01424259               -0.16472219                0.71582789               -0.04967089                0.00885758                0.92299070
               9.89826450                9.68250418               59.95467457                0.00010000                0.29866432                0.17536880               -0.79035782               -0.06527626                0.23490419               -0.67076772
              10.90409536                9.29755529               59.60916427                0.00010000                1.95714836                0.33952053               -2.47038884               -3.07073494               11.47811099               -2.77194350
              11.93740747                8.85190943               59.48326717                0.00010000                3.77907838               -0.27413320               -3.78890715               -6.17006076               23.28329727               -2.24576476
              12.97967693                8.37729664               59.37593519                0.00010000                4.52052998               -0.98011039               -4.93001609               -8.05325269               25.03949124               -1.32162328
              14.02781807                7.87026243               59.28729818                0.00010000                4.93292377               -1.23717339               -6.12195726              -10.76426547               26.69120155               -0.73166318
              15.07833541                7.32926871               59.21577779                0.00010000                4.95696819               -0.67385483               -7.69398045              -13.98828533               27.80796395               -0.55759831
              16.12695743                6.76107998               59.15083742                0.00010000                4.44943062                1.10854057               -9.94483280              -16.16065597               28.22403946                0.20268681
              17.16732402                6.18792319               59.08420098                0.00010000                4.14190626                4.92275561              -13.65727793              -15.28884408               26.44713310                0.48143575
              18.20979556                5.64518180               58.96879622                0.00010000                4.56026304               10.95402853              -22.09759828               -9.68618900               17.55178533                6.78846163
              19.25852928                5.18638248               58.70075708                0.00010000                4.87337208               15.20027739              -25.75973535               -4.10247454               10.78899629                5.80673070
               9.27872863               11.06399013               60.19973681                0.00010000                0.10590546               -0.10498769                0.43954736               -0.05723597               -0.00357336                0.94948924
              10.27978769               10.68484845               59.84141743                0.00010000                0.40492005                0.30406069               -1.13161711               -0.15876860               -0.01786785               -0.73517139
              11.28682703               10.30184324               59.48283656                0.00010000                2.79365846                0.64726544               -3.19579962               -3.57662816               12.69799326               -3.02414630
              12.33566086                9.85185160               59.37860034                0.00010000                5.24197580                0.08026978               -5.06541749               -6.48442911               26.38060478               -2.69816769
              13.39166655                9.37148664               59.29646659                0.00010000                5.58024579               -0.42520230               -6.08344874               -7.34379708               28.33467537               -1.87251418
              14.44726577                8.86430120               59.23558539                0.00010000                5.21341158               -0.12708660               -7.08448755               -9.01863294               30.00140717               -1.16785940
              15.49593478                8.33096716               59.19705452                0.00010000                4.57913500                0.85975956               -8.67875281              -11.28867084               32.07369940               -0.49672355
              16.53884847                7.77894264               59.19210152                0.00010000                4.12674369                2.46147133              -11.38375592              -12.37413839               32.36641771                1.92421474
              17.57846966                7.23883559               59.16965010                0.00010000                3.53751437                4.67177440              -14.70996552               -9.33718270               34.76124576               14.26020812
              18.60959876                6.75591820               59.21107765                0.00010000                3.74330428                8.82768450              -23.01033471               -3.97752642               24.30711786               12.45752671
              19.65333574                6.32541990               58.95527344                0.00010000                4.37369809                9.21587046              -22.65138148               -2.75945040               12.58096317               10.14669941
               9.65526073               12.06321110               60.09463981                0.00010000                0.19752974               -0.05175105                0.17553885               -0.05564569                0.00735635                0.85788245
              10.65723602               11.68858540               59.72779018                1.00000000                0.51494597                0.44139716               -1.49257352               -0.13537010               -0.17889930               -0.71078496
              11.66555964               11.31050059               59.35726543                0.00010000                4.04197342                1.02897069               -4.13859081               -4.07114170               13.99951791               -2.20815517
              12.73807549               10.85351483               59.27496844                0.00010000                7.73958727               -0.67966885               -6.67763432               -5.15175962               29.48107422               -1.88846534
              13.82035139               10.36879259               59.21523121                0.00010000                7.49446970               -0.26969211               -7.45732008               -4.75994089               31.82708807               -1.33579661
              14.88796489                9.86772070               59.18129620                0.00010000                5.87845819                0.52764511               -7.96299386               -5.22425027               33.79645592               -0.87310235
              15.93792055                9.34646390               59.17827443                0.00010000                4.18206784                1.86084835               -9.50166429               -6.53989597               36.68298719               -0.37730544
              16.97160624                8.81030940               59.23129958                0.00010000                3.28421239                3.78488871              -12.30394486               -7.09503240               47.51134479                1.98108631
              18.00360480                8.28135868               59.48895810                0.00010000                3.60272362                4.00846014              -17.59140508               -4.54525095               38.39946329               16.25100408
              19.04366071                7.82173549               59.38336165                1.00000000                3.03660337                4.06602619               -7.92140984               -1.15714091               11.87096779                5.89921898
              20.06433687                7.37069989               59.07572883                1.00000000                2.06761550                3.17366425               -8.69788662               -2.23382199                3.79920442                3.49135037
              10.02686712               13.06295511               59.98752227                1.00000000                0.29236685               -0.02559897               -0.09000621                0.23276768                0.38134371                0.76059633
              11.02979079               12.69367639               59.61545697                1.00000000                0.68038250                0.50909922               -1.83007678                0.22885389                0.58668280               -0.65494479
              12.04047477               12.32242265               59.24758002                0.00010000                7.22714383                1.19220581               -4.37009556               -5.27939554               15.84792945               -1.34752981
              13.17433367               11.83825823               59.18108312                0.00010000               12.08935436               -1.52566006               -8.04467755               -4.19067538               32.30631817               -0.55363578
              14.28226186               11.36609279               59.13933747                0.00010000                9.53878975               -0.26997983               -8.45889224               -1.97915920               35.42742875               -0.42704969
              15.36510946               10.87485410               59.12803633                0.00010000                7.01431498                0.71334049               -8.62836112               -2.18097558               37.69068226               -0.14240672
              16.42254816               10.36818413               59.15067314                0.00010000                4.84717907                2.17202314              -10.00834418               -2.54792415               41.54541793                0.31813375
              17.46205304                9.85464041               59.25296552                0.00010000                2.67951981                4.43310093              -13.35497580               -3.41428686               53.97295202                3.36603441
              18.47613855                9.31900479               59.58216469                1.00000000                1.75308450                3.76461100              -14.20481868               -3.61670906               39.16060844                8.92749859
              19.49711473                8.83723873               59.41926408                1.00000000                1.72959699                1.55032407               -4.85892467               -1.16017817                8.84950821                0.61254418
              20.51073049                8.38889319               59.10956917                1.00000000                1.36157614                1.81932998               -6.56268345               -0.19519123                2.79964671                0.88656074
               6.45150497                3.21406335               62.06512449                1.00000000               -0.61730180               -0.78031082                2.70215454               -0.25170058               -0.58621428                0.66316912
               7.44533195                2.80016903               61.74005279                1.00000000               -0.43228405               -0.36619186                1.37444801               -0.19458933               -0.73491737                0.10322500
               8.44285929                2.38556713               61.41153729                1.00000000               -0.06476687                0.03448223                0.05907296               -0.19499106               -0.69346157               -0.11484158
               9.44403662                1.96940529               61.08702851                1.00000000                0.19489936                0.48019451               -1.28822556               -0.33102559                0.01284824               -0.59600943
              10.44675728                1.54937538               60.77258863                1.00000000                0.51655259                1.00847897               -2.82363766               -0.33968169                0.81223451               -0.11478925
              11.45436767                1.12662324               60.46389463                1.00000000                0.93680494                1.45088551               -4.34153269               -0.39569784                1.14315351               -0.45710580
              12.46549338                0.69918873               60.15634346                1.00000000              -15.33627811                1.91309529               -5.70293208              -23.58021800                9.66002541               -0.74947433
              13.14764211               -0.19552778               60.01849340                0.00010000              -22.98385760                7.66687161               -1.41413802              -25.25731684                9.58381940               -1.92030416
              14.00581623               -1.15602657               59.83192106                0.00010000                0.03669644                5.28533757               -6.21873901              -23.74037183                3.77588885               12.15099684
              15.14837604               -2.08250485               59.45635138                1.00000000                9.23957247                4.90262910              -12.98682997              -23.03345350               -2.44097815                1.57853589
              16.19060768               -2.58167973               59.11424421                1.00000000                4.22316396                5.86461789              -15.87710156                0.70051167               -2.01680810               -0.59060046
               6.86288228                4.20626024               61.95636564                1.00000000               -0.52481128               -0.73458679                2.41369528               -0.04173974               -0.04283298                0.91599116
               7.85763417                3.79650711               61.63117538                1.00000000               -0.32955140               -0.32725462                1.08438586                0.00967431               -0.02508559                0.16289143
               8.85629125                3.38591195               61.30594028                1.00000000                0.05940338                0.07313386               -0.22909372                0.01873787                0.04510123               -0.26106409
               9.85882224                2.97420723               60.98197962                1.00000000                0.42301162                0.51225844               -1.57374134               -0.07444673                1.08150789               -0.72940229
              10.86475149                2.55946017               60.67756798                1.00000000                0.83408891                0.99577597               -3.17532585               -0.09591739                1.94074034               -0.21005019
              11.87550402                2.14113209               60.37080081                1.00000000                1.30076110                1.45902240               -4.72842260               -0.18785926                1.87863058               -0.61889384
              12.89076671                1.71831969               60.06564275                1.00000000               -2.64137127                1.80677090               -6.12028318              -20.76322698               14.99295323               -0.92518873
              13.82267659                0.88114093               60.02241671                0.00010000               -8.94328335                2.71181706               -4.51307578              -33.83678223               22.78602028                1.75214185
              14.71190104               -0.10317319               59.92884373                0.00010000               -9.59042543                6.28259583               -7.28843098              -34.39393603                4.60969745               11.47120513
              15.63086808               -1.03347856               59.44607750                1.00000000               -0.75566846                4.55978543              -20.07342714              -20.59655425               -5.14562600               41.36980833
              16.69678767               -1.52303355               59.10370689                1.00000000                6.59195910                4.61711145              -22.96072013               -0.39457273               -0.19246424               36.62354405
               7.27017643                5.19937161               61.85208178                1.00000000               -0.43027032               -0.63637745                2.11527767               -0.04873835                0.15936284                1.09356559
               8.26587373                4.79362394               61.52323048                1.00000000               -0.23212488               -0.24569745                0.78536032               -0.00173495                0.32927029                0.09175429
               9.26553393                4.38702981               61.19747039                1.00000000                0.15628702                0.16406321               -0.52885172                0.00950836                0.63604171               -0.57218404
              10.26899947                3.97965045               60.87464825                1.00000000                0.61900692                0.59140042               -1.79743142               -0.10774839                2.25759211               -0.91946993
              11.27791407                3.56929090               60.58148559                1.00000000                1.13757517               -0.75702653               -3.51736998               -1.16592576                3.10009627                2.79989389
              12.29175097                3.15580369               60.27546208                1.00000000                1.61529642               -2.12397272               -5.04127012               -1.60978643                2.61964188                6.48488350
              13.31022000                2.73532415               59.97329940                1.00000000                0.03241861               -7.36638588               -6.36763230              -23.04969112               22.82932418               13.58715646
              14.29239934                1.85870856               60.07145179                0.00010000               -3.88315001               -1.60875922               -5.85260005              -41.43135407               38.76146147                6.06612983
              15.23255700                0.96962535               60.04904891                0.00010000               -6.80470168                5.96108861               -7.32988125              -42.20307205               45.83846130                9.78809980
              16.15630531                0.00869086               60.26148187                1.00000000               -3.53653965                3.16283216               -2.01542930              -22.65772628               29.37667797               42.21422342
              17.16182620               -0.48933750               59.87196592                1.00000000                0.55208966                2.89760317               -3.44261702               -1.02209069               -1.10623610               37.32362124
               7.67340286                6.19353269               61.74627693                1.00000000               -0.34615858               -0.52465708                1.81264790               -0.05547488                0.27875578                0.91481209
               8.66994127                5.79159316               61.41271089                1.00000000               -0.14739763               -0.16250021                0.47973579                0.00838764                0.61857204               -0.33394683
               9.67045491                5.38919322               61.08575978                1.00000000                0.22324524                0.26572605               -0.85232093                0.02566322                1.31705858               -1.16093899
              10.67440618                4.98603524               60.76619156                0.00010000               -0.25875828               -0.28783098               -2.06035907               -2.19682088                6.70671401                1.74100845
              11.66527974                4.54431964               60.54763731                0.00010000                0.14344295               -2.52718043               -2.92662443               -4.20095648               11.71705625                5.50287520
              12.67727504                4.09865264               60.32572255                0.00010000                3.07941366               -6.19144814               -4.12218769               -7.59520438               15.48443165               11.37666272
              13.72686801                3.57099197               60.17580929                0.00010000                4.12366377              -13.07438493               -4.88455198              -19.72994146               24.09533151               17.70748645
              14.75974831                2.84896575               60.10406589                0.00010000               -0.45053566               -2.37296314               -5.78104653              -31.62131558               33.56579980                4.77639128
              15.71785730                2.01604858               60.12655395                0.00010000               -6.15359543                4.11508348               -6.04280070              -40.57002738               45.14149417               -0.17081022
              16.63667640                1.02977808               60.26711962                1.00000000               -2.27273615                7.05453728              -10.68447725              -21.36496352               28.17308303              -12.20527768
              17.67240258                0.53491851               59.87610574                1.00000000                3.57261740                2.41225944              -12.03230771                2.49381732                1.52545623              -13.00273995
               8.07294598                7.18887847               61.63775685                1.00000000               -0.25650320               -0.40352947                1.52040860               -0.03962309                0.10228195                0.76557270
               9.07038095                6.79037394               61.29612399                1.00000000               -0.06704310               -0.09766031                0.15256211                0.07480856                0.66493748               -0.65853101
              10.07160512                6.39234433               60.96561132                0.00010000               -0.02221618                0.26399461               -1.16484336               -0.80711873                5.07297602               -1.88098971
              11.06993663                5.97389384               60.71223053                0.00010000                0.48362105               -1.58264790               -0.88895408               -3.38168943               11.66884764                3.02459819
              12.08127754                5.51874729               60.51582250                0.00010000                2.16189638               -2.87924540               -2.96113255               -5.14028742               16.17820686                4.52498583
              13.11317455                5.03197472               60.34483919                0.00010000                4.20152588               -6.04967053               -4.02670093               -8.85316980               19.77547775                6.79432255
              14.16530806                4.47383645               60.21039198                0.00010000                5.08709326               -8.00894449               -5.07371365              -17.31724705               24.49266098                6.01103827
              15.21491642                3.81124930               60.12030583                0.00010000                3.75180281               -3.74357615               -6.12170811              -25.90402180               28.85372714                1.43017456
              16.24034411                3.05192702               60.06087509                0.00010000               -0.23901579                2.62345097               -7.43032455              -33.00454811               30.26241380               -8.09523529
              17.21013610                2.14978160               59.99826385                1.00000000               -1.94612102               14.76770863               -7.36292482              -19.76497136               16.59826087              -29.56562607
              18.20142169                1.55890769               59.64991581                1.00000000               -0.87144091               10.11114924              -11.75381457               -7.38747506                5.50655591              -22.65099137
               8.46961946                8.18546210               61.52829004                1.00000000               -0.16478818               -0.29285240                1.24701513               -0.03383734                0.04352038                0.80459636
               9.46797158                7.78963996               61.17923221                0.00010000                0.05865830               -0.04321688               -0.14531101                0.08913928                0.53744024               -0.66414774
              10.47079263                7.39447311               60.83998379                0.00010000                0.61989217                0.13658859               -1.56578043               -1.95285793                8.32129581               -2.35310821
              11.48036943                6.95438228               60.64616739                0.00010000                1.68002365               -1.60187923               -2.30425387               -4.43236575               16.62240835                1.00196334
              12.50439310                6.48673473               60.47150590                0.00010000                3.23765268               -2.94605043               -3.27388065               -6.79305891               19.11192057                2.32728206
              13.54512248                5.97765923               60.32396773                0.00010000                4.84276978               -4.66005995               -4.49501653              -11.08242130               22.07066782                3.00314750
              14.60124850                5.41081308               60.20017589                0.00010000                5.92274153               -5.21986562               -5.76047797              -17.29129324               24.61139915                2.04789703
              15.66357731                4.77409423               60.09284610                0.00010000                5.89927648               -3.03652047               -7.27914858              -23.65803469               25.67808769               -1.45747055
              16.71923403                4.06851760               59.97900526                0.00010000                3.54094968                2.19637218               -8.93431586              -27.47204965               23.35162678               -8.29785340
              17.73439630                3.32513226               59.80800356                0.00010000               -0.64165604               15.30733068              -10.54979070              -18.37714774               13.75008784              -20.69527781
              18.70640091                2.73714150               59.49140543                0.00010000               -2.79953961               18.11953575              -13.52855660               -9.48346811                6.38307379              -19.82078831
               8.86391352                9.18302142               61.41980596                1.00000000               -0.07607940               -0.20772617                0.97603498               -0.04225330                0.01652167                0.91307073
               9.86315273                8.78950960               61.06301852                0.00010000                0.19460590                0.03391580               -0.44809525                0.00080322                0.33956897               -0.66024467
              10.86780564                8.39507610               60.71268172                0.00010000                1.29374821                0.05959246               -2.00833214               -2.81849724               10.18905657               -2.69332667
              11.88902769                7.94185625               60.55231137                0.00010000                2.71668894               -1.08546706               -2.96896938               -6.05075902               20.48842556               -1.29096484
              12.92213942                7.45982628               60.40727703                0.00010000                3.92100463               -2.20139596               -4.03379525               -8.55750390               22.32281106                0.12781680
              13.96744778                6.93877352               60.28115676                0.00010000                5.04538897               -3.07208485               -5.25547815              -12.58927444               24.25587282                0.76044984
              15.02304720                6.36943914               60.17012806                0.00010000                5.83017117               -3.09948749               -6.74581029              -17.75871680               25.53322019                0.30675798
              16.08405121                5.75051889               60.06165147                0.00010000                5.84089474               -1.38343937               -8.73963862              -22.56544077               25.14217211               -1.59050278
              17.13986509                5.09585446               59.92960413                0.00010000                4.49590218                3.31197637              -11.52412750              -23.87420232               21.38238536               -5.03919436
              18.17396925                4.45592822               59.73028906                0.00010000                2.39343802               11.43580999              -14.85193384              -16.04783646               12.22939615               -9.31806190
              19.18773385                3.92129840               59.41462709                0.00010000                1.37646019               16.24712146              -17.24421054               -6.96475767                5.96747691              -10.86660857
               9.25579805               10.18130758               61.31184233                0.00010000                0.01349207               -0.13874597                0.70255813               -0.05014769                0.00470872                0.98191202
              10.25593297                9.79031827               60.94683898                0.00010000                0.31389931                0.13834922               -0.76292672               -0.14363558                0.10373173               -0.72093548
              11.26207603                9.39566496               60.58385577                0.00010000                1.93355484                0.16037041               -2.55012630               -3.63337354               11.42515069               -3.23123729
              12.29460406                8.93267294               60.44518795                0.00010000                3.71248598               -0.62885107               -3.77786658               -7.06788870               23.60199105               -2.85139643
              13.33632575                8.44270681               60.32636462                0.00010000                4.45600355               -1.18823188               -5.00495434               -9.16360002               25.51575413               -1.52671629
              14.38372414                7.91621753               60.22563588                0.00010000                4.90015244               -1.44795270               -6.23933498              -12.74059438               27.06459123               -0.47086401
              15.43432880                7.34882333               60.13740206                0.00010000                5.10645197               -1.02015813               -7.92732077              -17.17880906               27.84059404               -0.12475503
              16.48585317                6.74642544               60.04881454                0.00010000                5.10059248                0.53089380              -10.38392446              -20.49340916               27.10362935                0.17082755
              17.53634065                6.13475713               59.93730315                0.00010000                5.10712290                3.91733437              -14.72144776              -19.99676259               23.30991637                0.28589679
              18.58799563                5.55384846               59.75565052                0.00010000                5.00123668               10.04107776              -20.54997890              -12.98802315               13.70296225                1.51191249
              19.63636538                5.06208393               59.44078846                0.00010000                4.83697520               14.38837632              -24.51354588               -5.13466324                7.19728638                0.05626128
               9.64488917               11.18024650               61.20413236                0.00010000                0.10334602               -0.08075736                0.42893205               -0.06045503               -0.01296358                1.02755017
              10.64592263               10.79227658               60.83015718                0.00010000                0.39471646                0.26898106               -1.09865273               -0.27185143               -0.35082411               -0.82313064
              11.65278350               10.39828351               60.44952019                0.00010000                2.73527155                0.53663333               -3.30267514               -4.28759649               12.02295965               -3.73326901
              12.70062806                9.92927923               60.32500754                0.00010000                5.12696627                0.06304574               -5.43839516               -7.23700060               26.30567712               -4.35782398
              13.75532283                9.43606165               60.23395787                0.00010000                5.29456587               -0.26950677               -6.53001068               -7.99839390               29.04130834               -2.31004971
              14.80651938                8.90981447               60.16376095                0.00010000                4.69701409                0.01559108               -7.29664745              -10.80118028               30.64878674               -0.88864582
              15.84926311                8.34903598               60.10834417                0.00010000                4.08649228                0.99555690               -9.08084491              -14.58243507               32.03702871               -0.06522099
              16.88824923                7.76113676               60.06928789                0.00010000                4.16218566                2.77289023              -12.80599127              -17.79109691               32.12932657                2.07474612
              17.93250682                7.17420115               60.01610130                0.00010000                4.93163799                4.74940698              -16.74752532              -15.72884898               29.52750089               10.60777213
              18.98688198                6.65674977               59.91429071                0.00010000                6.80314130               10.38570579              -29.24063645               -8.49926231               20.21016517               16.03939650
              20.06856965                6.20906593               59.63192987                0.00010000                8.16876617               12.70417461              -33.92728535               -4.83414225               13.59147935               12.60674234
              10.03052879               12.17969243               61.09644815                0.00010000                0.19301449               -0.03570682                0.17253504               -0.05659594               -0.01329761                0.96064986
              11.03245893               11.79569790               60.71285141                1.00000000                0.43963349                0.41649583               -1.46712201               -0.23041999               -0.79376979               -0.82142385
              12.03932146               11.40639763               60.31384302                0.00010000                3.98134925                0.99155152               -4.02359110               -4.50659952               12.43288435               -2.66763151
              13.11208592               10.93393386               60.19970808                0.00010000                7.82505889                0.05541848              -10.17166532               -5.49607747               29.18912073               -3.60394055
              14.19582263               10.43731668               60.13583670                0.00010000                7.13201411                0.26427310               -8.20595425               -4.88871678               33.26626624               -1.61487122
              15.25472620                9.91652935               60.10042398                0.00010000                4.77675870                0.98716800               -8.17346039               -6.39606812               34.82310573               -0.63685586
              16.29135781                9.36873447               60.08037922                0.00010000                2.50699337                2.60179428              -10.14319234               -8.77661922               37.05856359               -0.05230264
              17.30486607                8.80188324               60.09977284                0.00010000                1.73964264                5.23442231              -14.17810184              -11.56822464               44.95980980                1.85551857
              18.32615066                8.22974526               60.24731346                0.00010000                3.91397697                7.61150902              -28.22012565               -8.81366965               45.44698230               14.40803261
              19.38314560                7.76156257               60.27271368                1.00000000                5.44497832                7.30804534              -22.65062033               -3.23356671               23.45232011               13.85750845
              20.43505023                7.31616742               59.95333685                1.00000000                5.19046221                7.56456158              -23.48896446               -4.50472587               11.18004193               10.15654110
              10.41174632               13.17953237               60.98675349                1.00000000                0.28627144               -0.01600636               -0.08193027                0.22916671                0.43101818                0.88194173
              11.41460903               12.80060650               60.59713799                1.00000000                0.63346145                0.49086035               -1.79272481                0.14411908                0.20638770               -0.78180674
              12.42441555               12.41811454               60.20320780                0.00010000                7.25892132                1.17169143               -4.03867026               -5.00153564               13.73728096               -1.59532566
              13.55978746               11.93038760               60.08627257                0.00010000               12.52687216               -0.35462564              -13.33218929               -4.06821711               31.15982346               -0.46505606
              14.67495299               11.44134711               60.04761822                0.00010000                9.36963837                0.40304304               -9.28364835               -2.12845256               37.30693392               -0.80693430
              15.74718023               10.92955783               60.03953191                0.00010000                5.67119200                1.30284774               -9.03054931               -2.76835923               39.13987377               -0.13025388
              16.78837683               10.40107186               60.04737116                0.00010000                2.43468524                3.23373965              -10.93505173               -3.48472860               41.81814979                0.36394699
              17.79587393                9.86582521               60.10462764                0.00010000                0.40886327                6.39419653              -15.47537936               -4.63123993               53.62748161                1.60149050
              18.79655410                9.32643133               60.37392120                0.00010000                1.99572817                9.66860635              -30.24389321               -6.10538268               50.51370408               13.67209347
              19.83578850                8.80291068               60.35519578                1.00000000                3.63556694                4.13481073              -16.30859753               -3.03941917               21.21086451                6.08889800
              20.86926544                8.36035716               60.01752670                1.00000000                3.34769399                4.41897423              -18.04596744               -0.83383091                9.28197583                2.90185620
               6.77747504                3.33084209               63.09165699                1.00000000               -0.59240716               -0.74869293                2.59666197               -0.24359136               -0.56538924                0.65245277
               7.77155097                2.91151084               62.75354311                1.00000000               -0.41343155               -0.35259488                1.32169805               -0.18922520               -0.70547987                0.09921192
               8.76920641                2.49149175               62.41210384                1.00000000               -0.05834346                0.03057971                0.05859676               -0.18820023               -0.67437381               -0.10811023
               9.77038410                2.07001540               62.07436753                1.00000000                0.19694100                0.45770928               -1.23373809               -0.31774309               -0.08145114               -0.57813748
              10.77314523                1.64484425               61.74483467                1.00000000                0.50551465                0.96101622               -2.70753521               -0.33563008                0.61959665               -0.14518510
              11.78049439                1.21683636               61.42113519                1.00000000                0.88861390                1.39313549               -4.17695617               -0.42121150                1.01660120               -0.50010651
              12.79091751                0.78381203               61.10028342                1.00000000              -16.28409305                1.82700421               -5.47103640              -26.30101928               12.11537983               -0.87097307
              13.45481253               -0.17015888               61.00069482                0.00010000              -22.02078826                7.96451144               -2.46198161              -25.29580475               16.89059271                2.48580009
              14.35050174               -1.10549333               60.77253254                0.00010000                2.27941243                3.80879527               -5.48538355              -20.83991614                3.30872497               15.52218489
              15.50040078               -2.02256316               60.34643988                1.00000000                8.92211240                3.19375932               -9.02260992              -21.08548517               -3.27712815                1.08905178
              16.52894399               -2.53809307               59.97917427                1.00000000                2.85432102                3.86109377              -11.10809282                0.33738785               -1.57627187               -0.18790387
               7.19437037                4.32335516               62.98006040                1.00000000               -0.50364876               -0.70233594                2.31816635               -0.04400069               -0.03022714                0.90573741
               8.18933389                3.90798489               62.64181042                1.00000000               -0.31491235               -0.31479363                1.04135728                0.00436994               -0.00233383                0.15543863
               9.18807213                3.49179755               62.30367422                1.00000000                0.05982661                0.06765939               -0.21963473                0.01516813                0.05948407               -0.26364546
              10.19053042                3.07459249               61.96651173                1.00000000                0.41531621                0.48951771               -1.50956178               -0.07332365                0.95072483               -0.68699553
              11.19637845                2.65445441               61.64639207                1.00000000                0.81339831                0.94604629               -3.04240887               -0.09339358                1.69130235               -0.24268740
              12.20679838                2.23076771               61.32433004                1.00000000                1.25132412                1.39410083               -4.53932417               -0.21512337                1.71758754               -0.63635937
              13.22140493                1.80208208               61.00556894                1.00000000               -3.01456101                1.69441167               -5.87817218              -23.26167348               15.89649974               -0.95134451
              14.14650716                0.90948623               60.96855278                0.00010000               -7.65501065                3.26971765               -5.43278793              -33.73551456               26.75457206                5.92733751
              15.06830472               -0.06740537               60.85548172                0.00010000               -7.03306813                5.01008908               -6.81120617              -32.16598302                2.63192415               16.34159658
              16.00584580               -0.99062557               60.27923173                1.00000000               -1.02284691                4.19965745              -13.39119221              -19.27629029               -8.97799897               51.18929140
              17.04784778               -1.49948214               59.91174413                1.00000000                4.20019803                4.18903717              -15.47064457                0.18702140               -0.63093847               48.19003854
               7.60733556                5.31679537               62.87284977                1.00000000               -0.41395795               -0.60144055                2.03108770               -0.05175400                0.16806228                1.08287782
               8.60319598                4.90521497               62.53091961                1.00000000               -0.22166949               -0.23686817                0.75181305               -0.00768117                0.34759094                0.07809522
               9.60290217                4.49284494               62.19223560                1.00000000                0.15323905                0.15717321               -0.51286162                0.00665380                0.68554029               -0.59873550
              10.60626076                4.07980576               61.85698916                1.00000000                0.60999853                0.57543200               -1.72499041               -0.12050007                2.10953381               -0.87270071
              11.61510214                3.66376517               61.54704477                1.00000000                1.11517492               -1.00589247               -3.35648239               -1.07432256                2.80956025                3.21412201
              12.62856426                3.24471837               61.22610728                1.00000000                1.59316876               -2.51171948               -4.81159105               -1.36872319                2.49843834                7.07413827
              13.64696552                2.81770027               60.91082681                0.00010000                1.05127155               -8.35947527               -6.10450289              -24.27187886               23.53122928               14.46788263
              14.64958969                1.89523547               61.01083862                0.00010000               -1.98358170               -1.26333558               -5.95764104              -42.12230241               39.66417183                9.18593352
              15.60729388                0.99470846               60.97659068                0.00010000               -5.13189772                4.95733211               -6.78010977              -40.29409434               49.90408404               15.48373423
              16.54695174                0.06142999               61.24430545                1.00000000               -2.84481631                3.50093260               -1.67143363              -20.33112438               32.96572560               52.99127747
              17.55039756               -0.45431233               60.84763963                1.00000000                0.34458195                3.13342261               -1.98754883               -0.01025729               -0.35557662               50.32127785
               8.01649610                6.31132635               62.76408542                1.00000000               -0.33654002               -0.48700353                1.74153067               -0.05340202                0.28905284                0.91511806
               9.01313070                5.90324753               62.41740697                1.00000000               -0.14408400               -0.16278321                0.45961380                0.01765506                0.62664869               -0.35986814
              10.01361442                5.49494101               62.07727561                1.00000000                0.20347418                0.24721733               -0.83764028                0.05271674                1.38967699               -1.19498619
              11.01720018                5.08610113               61.74594365                0.00010000               -0.18175166               -0.70957893               -1.97976836               -2.41552606                6.99828953                2.44442523
              12.00997938                4.63433656               61.51884699                0.00010000                0.41443244               -2.93051110               -2.86715018               -4.30807194               12.09252612                6.20384315
              13.02548883                4.18053332               61.28508720                0.00010000                3.77354374               -6.97457112               -4.02975144               -7.84972717               15.90008919               12.43270312
              14.08545026                3.63489257               61.12711800                0.00010000                5.07820507              -14.44752664               -4.84269693              -20.69408835               24.46448101               19.45852063
              15.12705293                2.88421952               61.04611265                0.00010000                0.53890295               -2.60586639               -5.70437151              -33.41381691               34.19762306                7.33599030
              16.09622832                2.03174127               61.06579861                0.00010000               -3.94044150                3.41245196               -5.85722685              -40.12268019               44.17708836                4.85070724
              17.04824410                1.07939309               61.15997166                1.00000000               -0.85505214                3.35913297               -9.58981404              -21.25991973               25.81249742               -7.76518760
              18.07912727                0.56318632               60.76168999                1.00000000                3.08831746                1.67185412               -9.88883210                1.12493308                0.42126130               -8.34989775
               8.42242516                7.30705530               62.65271580                1.00000000               -0.24907383               -0.36334286                1.46257427               -0.03056441                0.09383393                0.78825325
               9.41993442                6.90195930               62.29763101                0.00010000               -0.06611289               -0.11356115                0.15114334                0.10343184                0.67903795               -0.68094848
              10.42110290                6.49778928               61.95409110                0.00010000               -0.06898653                0.18338490               -1.13234832               -1.12156659                5.87072727               -1.96999691
              11.41855469                6.06561418               61.70295801                0.00010000                0.67028074               -1.94280630               -1.26599287               -3.57936817               12.30388680                3.42809075
              12.43450851                5.60515495               61.48620946                0.00010000                2.62295091               -3.29941856               -2.96106629               -5.31087866               16.10884521                4.98020056
              13.47101371                5.10522695               61.30479087                0.00010000                4.74445172               -6.75697482               -4.02191507               -9.64147423               20.09717860                7.55507073
              14.52939755                4.52874974               61.15984321                0.00010000                5.67254741               -8.75353058               -5.03786206              -18.87051585               24.70822875                7.12367236
              15.58446465                3.84311814               61.05960665                0.00010000                4.01345829               -4.17071330               -5.92456997              -27.76967430               28.92714547                3.38080722
              16.60966671                3.06295749               60.98941127                0.00010000                0.29218193                1.88525535               -6.69863273              -35.52742443               30.44670442               -5.43850179
              17.59030829                2.12861265               60.91807896                1.00000000               -0.21784802                9.47083132               -7.30209126              -20.44408605               16.18666655              -18.99732685
              18.60530975                1.57912475               60.53714864                1.00000000                1.50014606                5.71796181               -9.28680221               -3.73728148                1.74973980              -13.51517198
               8.82607680                8.30405949               62.54058072                1.00000000               -0.16114490               -0.25307987                1.20039346               -0.02887476                0.03714489                0.84511939
               9.82446535                7.90097631               62.17784412                0.00010000                0.07257070               -0.07149494               -0.12709959                0.09340345                0.50318994               -0.67473555
              10.82752821                7.49860871               61.82435865                0.00010000                0.68908991               -0.02374829               -1.54758114               -2.13494689                8.59435326               -2.54583012
              11.83824715                7.04724501               61.62295531                0.00010000                1.83104125               -1.65598854               -2.33612700               -4.74192903               17.16882571                0.62499973
              12.86414904                6.56834819               61.43874481                0.00010000                3.54087072               -3.31842482               -3.33270117               -7.38321292               19.46792475                2.71657183
              13.90906456                6.04539383               61.27900103                0.00010000                5.29998555               -5.13207195               -4.53774492              -12.13751822               22.24475154                3.67199287
              14.97014875                5.45982196               61.14270422                0.00010000                6.41935617               -5.76982458               -5.73285892              -18.86491960               24.58523168                3.08733911
              16.03745168                4.80080526               61.02092502                0.00010000                6.50182883               -3.70624073               -7.00154448              -25.53783953               25.33511583               -0.06612687
              17.10018532                4.06944638               60.89148191                0.00010000                4.28717179                0.91706027               -8.24131091              -30.71518947               22.77419512               -6.12428724
              18.12319512                3.26880971               60.70969582                0.00010000                0.15860558               13.71083928               -8.49755868              -21.04311629               12.46182332              -19.21980213
              19.10335744                2.67754555               60.35934286                0.00010000               -1.98376845               13.77872014              -11.33574832              -10.96889969                5.50677089              -15.53236317
               9.22801403                9.30199370               62.42942988                1.00000000               -0.07607614               -0.17183995                0.93691958               -0.03912191                0.01294338                0.95994788
              10.22725327                8.90052941               62.05867501                0.00010000                0.20606138               -0.00147477               -0.41095951               -0.04095193                0.24275123               -0.67763776
              11.23213526                8.49731432               61.69253205                0.00010000                1.33616775               -0.12583233               -1.98134658               -3.06569022               10.28041791               -2.95195925
              12.25397663                8.03249441               61.52247729                0.00010000                2.82800897               -1.25298402               -2.93860846               -6.49182816               20.88340801               -1.26527782
              13.28869544                7.53878646               61.36684282                0.00010000                4.14064738               -2.41333586               -4.11461434               -9.22569243               22.63760681                0.39278026
              14.33678957                7.00258551               61.22837604                0.00010000                5.39961436               -3.35764337               -5.35892695              -13.82126614               24.42909191                1.45060346
              15.39668773                6.41335324               61.10242117                0.00010000                6.36469375               -3.56322288               -6.79513009              -19.58861506               25.42174153                1.33087430
              16.46408345                5.76899333               60.97468129                0.00010000                6.53353715               -2.19725741               -8.52842596              -25.01886468               24.45552771               -0.35099351
              17.52735847                5.08129870               60.81736628                0.00010000                4.86316711                1.88487948              -10.54314190              -26.98314253               20.17624926               -4.45036277
              18.56134679                4.40282943               60.58857233                0.00010000                2.05508041               11.13043420              -13.16242889              -18.47125825               10.99680682              -10.32378870
              19.56846008                3.85469916               60.24953064                0.00010000                0.71132871               14.63296876              -15.52473063               -8.37094276                4.88548816              -11.59044789
               9.62822295               10.30062269               62.31875737                0.00010000                0.01027425               -0.10291952                0.66718168               -0.04730364                0.00245012                1.03416356
              10.62832569                9.90094681               61.93941604                0.00010000                0.30132274                0.09219953               -0.70469279               -0.22002635               -0.09822849               -0.75460589
              11.63424941                9.49609206               61.55816174                0.00010000                1.93063752               -0.00618527               -2.45802431               -3.92304387               11.27733541               -3.55801935
              12.66693844                9.02218533               61.40770984                0.00010000                3.76473381               -1.11597083               -4.01982232               -7.63252430               23.72097231               -3.29975217
              13.70954408                8.52008147               61.27583610                0.00010000                4.55670034               -1.14864483               -5.18707986               -9.94502496               25.75880730               -1.45781440
              14.75807245                7.97824096               61.16251148                0.00010000                5.12122730               -1.54226638               -6.46136614              -14.12291685               27.31112395                0.28589838
              15.81196863                7.38855750               61.05723137                0.00010000                5.55282419               -1.33338297               -8.12087074              -19.34600794               27.78927557                0.93572303
              16.86912893                6.75686011               60.94315893                0.00010000                5.73588703                0.02429696              -10.55910667              -23.59095551               26.13036870                0.84885959
              17.92668637                6.10714397               60.78977202                0.00010000                5.56202824                2.98410130              -14.19401095              -23.43916653               20.82964836                0.22033393
              18.98036950                5.49141840               60.55779665                0.00010000                5.27563840                7.84067698              -18.57599756              -15.01561696               11.24526123               -2.38061787
              20.03219914                4.97020493               60.21048616                0.00010000                5.18296375               10.51536031              -21.68010230               -6.05000002                5.76339008               -5.73449716
              10.02641972               11.29993531               62.20831545                0.00010000                0.09636521               -0.04098601                0.39230140               -0.05792695               -0.02007508                1.09832068
              11.02738337               10.90237340               61.81944437                0.00010000                0.30080717                0.21146503               -1.01461754               -0.35523172               -0.71991588               -0.89510732
              12.03243586               10.49719061               61.41678306                0.00010000                2.49766771                0.36841464               -2.88440997               -4.95435742               11.16810299               -3.94322969
              13.07733673               10.01017499               61.26983243                0.00010000                5.06517224               -0.10071690               -5.46561794               -7.42256372               26.09459176               -7.14745269
              14.13373931                9.51581356               61.16586637                0.00010000                5.42592398                0.13766678               -7.29479259               -8.15090368               29.44434215               -2.08545704
              15.18585521                8.97174018               61.08965244                0.00010000                4.87045540                0.04858350               -7.57782748              -12.36579735               31.20466997                0.01454543
              16.23114842                8.38668558               61.01543762                0.00010000                4.39113336                0.89166737               -9.58920574              -16.72432841               31.81916176                0.94074380
              17.27367787                7.76947927               60.93598169                0.00010000                4.64342164                2.76099585              -13.43664859              -20.54827938               31.31105423                2.62141019
              18.32401685                7.14098073               60.83469959                0.00010000                6.21478066                5.22777336              -19.09924975              -19.84595303               25.59924317                5.63789186
              19.39797349                6.55964297               60.62626492                0.00010000                8.29350808                8.32810966              -27.46466365              -12.48300685               14.29335835               11.48721376
              20.48988701                6.06500636               60.27672774                0.00010000                9.19135239               10.90144786              -32.97961796               -4.73904921                7.94830254                7.50614238
              10.42218824               12.29980297               62.09809051                0.00010000                0.17775163                0.00239785                0.13190264               -0.04774835               -0.05077091                1.05918869
              11.42396576               11.90517611               61.69844774                1.00000000                0.25862109                0.35468527               -1.35821792               -0.31308820               -1.17528754               -0.91260098
              12.42736066               11.50346035               61.27679361                0.00010000                3.79492318                0.72979777               -2.93895181               -4.56775871                8.28545537               -2.59062683
              13.49986422               11.02017099               61.07153513                0.00010000                7.88000750                2.28265705              -17.02186345               -5.24212791               25.25456653               -6.31098668
              14.58496081               10.52283481               61.05111213                0.00010000                7.00101287                0.52887516               -8.10110969               -4.97782355               35.41196802               -1.14264885
              15.63988448                9.97921263               61.01782699                0.00010000                4.73910807                1.11464996               -8.73389691               -7.70725837               35.50474497                0.06616519
              16.67974298                9.40639085               60.97541058                0.00010000                3.19918631                2.73968034              -10.96430721              -10.22328005               37.04015284                0.66415622
              17.70386821                8.81208002               60.94773755                0.00010000                2.99303140                5.37406719              -16.22274368              -13.01583249               39.71563407                2.49852053
              18.73960360                8.21169943               60.92455559                0.00010000                5.14077604                9.91252269              -29.97263499              -12.11358941               42.52290070                6.48281212
              19.80668373                7.65798059               60.93034924                1.00000000                9.35438864               11.72047577              -41.56996397               -7.18562567               29.26116465               15.46693923
              20.92669138                7.18823389               60.60594954                1.00000000               12.00076500               12.67721248              -45.74074874               -2.88361220               18.33763603               10.46887397
              10.81471848               13.29998327               61.98588366                1.00000000                0.27457515                0.01802967               -0.13824538                0.20140667                0.47280556                1.00566685
              11.81746423               12.90946710               61.57960248                1.00000000                0.56836686                0.42909902               -1.62647325               -0.05998816                0.14196969               -0.89696404
              12.82608581               12.51178657               61.16680662                0.00010000                6.78277442                0.83262130               -3.04015098               -2.80943366                7.71428905               -1.46165049
              13.95311972               12.05582813               60.91443933                0.00010000               12.45276942                3.56571411              -18.02025538               -3.94422589               24.82546560               -3.50764097
              15.07514120               11.52639106               60.95366450                0.00010000                9.75171423                0.35562539               -9.48701163               -4.07170867               40.39209979               -0.93311356
              16.14815400               10.99403318               60.94742535                0.00010000                5.93371096                1.48205556               -9.73544855               -3.41864153               39.63068856               -0.08336299
              17.19381542               10.44147919               60.93197210                0.00010000                2.99493211                3.50883417              -12.20610736               -4.44638406               42.19017663                0.32408446
              18.20805264                9.87696061               60.94345793                0.00010000                2.10145389                6.48805879              -17.89251400               -4.69395690               46.70246275                1.54971652
              19.23584450                9.33923118               60.97728682                0.00010000                3.48369399               12.75317471              -35.67252855               -4.52131670               53.32759188                4.69576037
              20.27772652                8.79405249               61.09309213                1.00000000                6.79318385               13.60719001              -41.48092366               -3.92974883               36.82204890               14.65128472
              21.37170817                8.31855061               60.74864982                1.00000000                9.39816531               13.03167259              -44.32835097               -3.04850787               21.44888066                8.31755224
               7.11642495                3.45030559               64.11705772                1.00000000               -0.56494440               -0.71233836                2.47636683               -0.23342145               -0.54512725                0.64169231
               8.11077551                3.02561864               63.76648675                1.00000000               -0.39387749               -0.33792559                1.26526248               -0.18225498               -0.67686099                0.09498696
               9.10854740                2.60026417               63.41270922                1.00000000               -0.05493674                0.02431146                0.06640438               -0.18000270               -0.65506996               -0.10180127
              10.10967677                2.17355413               63.06235375                1.00000000                0.19170739                0.42915618               -1.15955378               -0.30115228               -0.16910047               -0.56119786
              11.11238155                1.74335689               62.71843793                1.00000000                0.47870866                0.90394392               -2.55309909               -0.32836827                0.43489810               -0.17351623
              12.11925094                1.31023141               62.38035551                1.00000000                0.79299001                1.32014030               -3.95246098               -0.46513889                0.90589323               -0.53925742
              13.12824135                0.87119822               62.04692273                1.00000000              -15.30230539                1.75511840               -5.17545845              -25.96469478               13.77174455               -0.98568183
              13.81320484               -0.08152771               61.96925377                0.00010000              -20.09978432                7.10715891               -3.75550577              -24.66892978               20.43956156                4.41682509
              14.72624566               -1.01148122               61.72221338                0.00010000                3.14934530                3.10818214               -4.81199723              -19.47749912                3.51836925               17.68271405
              15.87619174               -1.92630751               61.27589918                1.00000000                8.36838981                1.87492149               -5.60094630              -20.06942035               -3.21980816                0.69837084
              16.89361346               -2.45057752               60.89208235                1.00000000                1.74217155                2.28793836               -6.92365069                0.12606490               -1.03948818                0.03624939
               7.53877768                4.44318221               64.00272897                1.00000000               -0.48040169               -0.66507242                2.20906993               -0.04562984               -0.01824175                0.89525607
               8.53397367                4.02223939               63.65200253                1.00000000               -0.29990273               -0.30146749                0.99607024               -0.00053600                0.01948112                0.14756224
               9.53277963                3.60050729               63.30154758                1.00000000                0.05726118                0.05947701               -0.20149350                0.01170474                0.07385168               -0.26767149
              10.53511889                3.17784569               62.95178838                1.00000000                0.39897973                0.46051937               -1.42544577               -0.07033762                0.82905447               -0.64622893
              11.54075922                2.75239632               62.61671980                1.00000000                0.77799985                0.88807639               -2.87458486               -0.09036383                1.45539214               -0.26741754
              12.55067889                2.32343282               62.28001432                1.00000000                1.18573682                1.31489375               -4.29816542               -0.24800853                1.55473435               -0.64185694
              13.56447396                1.88874940               61.94807931                1.00000000               -2.14118150                1.59672658               -5.59228939              -23.30085191               16.58243576               -0.96322967
              14.50785526                0.98954388               61.91376095                0.00010000               -5.53066934                2.31975351               -5.44044760              -33.12173641               28.96413732                8.21332697
              15.45386057                0.01960060               61.79261961                0.00010000               -5.64047846                4.02321808               -5.78101365              -31.30879970                2.35629016               19.80754317
              16.39504569               -0.90755830               61.17825365                1.00000000               -1.73582313                5.70419989               -7.86562085              -18.94598053              -10.61220073               56.98030362
              17.41914411               -1.42769814               60.79429400                1.00000000                2.40984223                5.88598565               -9.18128712                0.70765948               -0.55496091               55.51180060
               7.95739799                5.43700415               63.89270353                1.00000000               -0.39582852               -0.56065933                1.93310935               -0.05332888                0.17502600                1.07196215
               8.95343971                5.01958929               63.53826674                1.00000000               -0.21114025               -0.22774956                0.71740870               -0.01200229                0.36313709                0.06582640
               9.95317519                4.60145371               63.18721316                1.00000000                0.14706346                0.14653554               -0.48596247                0.00536802                0.73360201               -0.63133907
              10.95638098                4.18276452               62.84014844                1.00000000                0.59059788                0.55545976               -1.63440869               -0.13268018                1.97912569               -0.82800032
              11.96498715                3.76111841               62.51435594                1.00000000                1.07783573               -1.15822590               -3.16651839               -0.95038713                2.54462645                3.55346375
              12.97793769                3.33652929               62.17923026                1.00000000                1.55630482               -2.74048530               -4.54415937               -1.08293656                2.37393046                7.57944423
              13.99611324                2.90313275               61.85120935                0.00010000                2.09906077               -8.88017143               -5.79316878              -24.05018492               24.15000449               15.24434564
              15.01991891                1.96486736               61.95229897                0.00010000                0.05293020               -2.13131778               -5.73082422              -41.84923520               40.58687794               11.95532164
              15.99717185                1.06898314               61.91344671                0.00010000               -3.76740200                4.03207645               -5.85465054              -37.17056971               53.11299377               19.94559938
              16.94457087                0.18777648               62.22805320                1.00000000               -2.45627649                5.41295611               -1.68748951              -16.99258357               35.68939066               59.86905383
              17.94804632               -0.33285781               61.83221495                1.00000000                0.34754493                5.30548427               -1.48305605                0.84892239                0.19784425               59.06237363
               8.37254081                6.43196902               63.78110754                1.00000000               -0.32567514               -0.44279553                1.65582850               -0.04875092                0.29732533                0.91338046
               9.36928406                6.01768440               63.42190317                1.00000000               -0.14145203               -0.16357359                0.44032123                0.03078334                0.62454593               -0.37898325
              10.36971177                5.60343800               63.06900698                1.00000000                0.17582648                0.22038202               -0.80781005                0.08939834                1.45772878               -1.23074773
              11.37280058                5.18895489               62.72659619                0.00010000               -0.08625271               -0.86602613               -1.87799185               -2.33455841                7.22921271                2.75929918
              12.36798671                4.72923181               62.49029431                0.00010000                0.71026165               -3.13324646               -2.87094662               -4.18486713               12.31394244                6.85629657
              13.38700582                4.26862311               62.24512752                0.00010000                4.35727377               -7.36834906               -4.00087797               -7.72695748               16.13757278               13.38255785
              14.45513219                3.71114598               62.07895535                0.00010000                5.90071722              -15.12045367               -4.83207917              -20.65809861               24.62349184               21.13840996
              15.50502016                2.94691753               61.98997846                0.00010000                1.62039354               -3.04071453               -5.52668403              -33.34657400               34.64969181               10.02080488
              16.48754006                2.10024213               62.00940941                0.00010000               -2.39925984                2.42452690               -5.34266563              -37.62913293               43.54062183                9.58173654
              17.45703497                1.20070082               62.07532334                1.00000000               -0.50744608                1.61672135               -6.78378566              -19.01346911               23.95505522               -4.25461530
              18.47739114                0.67841155               61.67832910                1.00000000                2.03561711                1.19045914               -6.49438787                0.28261387               -0.24476537               -4.05669573
               8.78499223                7.42814823               63.66700834                1.00000000               -0.24058247               -0.31593111                1.38838875               -0.01830301                0.08629246                0.80420747
               9.78258640                7.01631782               63.29914686                0.00010000               -0.06497812               -0.12915767                0.15518414                0.13432562                0.67943036               -0.69127599
              10.78369267                6.60586135               62.94296435                0.00010000                0.06547985                0.08387837               -1.08781780               -1.15085442                6.26719299               -2.06915554
              11.78389600                6.16544400               62.68691067                0.00010000                0.89644586               -2.07959444               -1.78450802               -3.54243370               12.75315696                3.93160967
              12.80162158                5.69845348               62.45660117                0.00010000                2.87941872               -3.43994960               -3.01935591               -5.32812646               16.12087442                5.41984141
              13.84148437                5.18916231               62.26440089                0.00010000                5.15176363               -7.05545971               -4.10589744               -9.93387584               20.19107282                8.34028338
              14.90465686                4.60072368               62.10963474                0.00010000                6.12034489               -9.05820335               -5.04641214              -19.46061363               24.79453661                8.40453096
              15.96389127                3.90405307               62.00181443                0.00010000                4.30745182               -4.46102366               -5.64902245              -28.33841109               29.10658306                5.63046007
              16.99080589                3.11747368               61.92690244                0.00010000                1.11203976                0.89173585               -5.75175549              -34.27675429               31.02315201               -2.01902236
              17.98613207                2.22011091               61.85222202                0.00010000                0.37356243                3.47710131               -5.10118252              -18.38927278               16.36484746               -9.41336655
              18.99827714                1.69095138               61.46417977                1.00000000                1.21450728                1.78503411               -5.41411232               -0.92339862                0.24934610               -6.80864541
               9.19583557                8.42565040               63.55229791                1.00000000               -0.15781186               -0.20522561                1.13367065               -0.02042098                0.03333256                0.87289446
              10.19425745                8.01510124               63.17669021                0.00010000                0.08664676               -0.09664519               -0.09876311                0.08921731                0.43395018               -0.66851579
              11.19756850                7.60511556               62.80903217                0.00010000                0.75511639               -0.18137650               -1.48787104               -2.09095943                8.75037471               -2.71435481
              12.20935978                7.14736300               62.59944485                0.00010000                2.00686835               -1.68239178               -2.37445236               -4.80968359               17.49773665                0.68534852
              13.23770587                6.66043281               62.40485187                0.00010000                3.83491642               -3.39314437               -3.49025503               -7.62389346               19.59010005                3.14541682
              14.28605811                6.12751392               62.23321283                0.00010000                5.66616390               -5.24435775               -4.67356171              -12.57420047               22.22463571                4.43171500
              15.35102915                5.52998191               62.08551871                0.00010000                6.77219155               -5.95971051               -5.74532291              -19.46484681               24.49223203                4.32800096
              16.42150194                4.85769705               61.95281521                0.00010000                6.74589920               -4.13939852               -6.59520723              -25.87898409               25.17006872                1.79840612
              17.48594713                4.11807685               61.81417905                0.00010000                4.71349379               -0.44582962               -6.99037551              -32.43805299               22.83779368               -3.42987591
              18.51577181                3.27024285               61.63805239                0.00010000                1.56475486                9.06203517               -5.35738139              -21.41778309               11.35095555              -13.45637983
              19.51724223                2.71411223               61.26469046                0.00010000                0.14704173                7.36973865               -6.84473654               -7.35056912                2.77063550               -8.83508439
               9.60568212                9.42404372               63.43854435                0.00010000               -0.07765354               -0.12725616                0.87251940               -0.03117263                0.01158818                0.98829385
              10.60490559                9.01438492               63.05479933                0.00010000                0.19647997               -0.03222223               -0.35509064               -0.07516617                0.10930654               -0.66971236
              11.60961172                8.60223382               62.67305478                0.00010000                1.37397454               -0.24310020               -1.82698393               -3.04141623               10.27475547               -3.03889980
              12.63238508                8.13179616               62.49353920                0.00010000                2.96905378               -1.40201232               -2.95869846               -6.48269260               20.98954957               -1.33268921
              13.66899280                7.63059060               62.32498474                0.00010000                4.40330968               -2.29529222               -4.27494948               -9.42633083               22.59663603                0.74393150
              14.72045127                7.08427515               62.17397822                0.00010000                5.80919925               -3.34274083               -5.58624501              -14.32839457               24.35129085                2.23053454
              15.78517678                6.48152947               62.03422546                0.00010000                6.88826896               -3.77302884               -6.86874120              -20.22861720               25.23407060                2.55723175
              16.85821665                5.82126510               61.89108295                0.00010000                7.21611266               -2.77974128               -8.15403350              -25.92772086               24.13245355                1.24598308
              17.92949904                5.10855709               61.71874129                0.00010000                5.17621856                0.18768198               -9.11248185              -28.37823581               19.41327934               -2.47240683
              18.96174102                4.40135161               61.46704049                0.00010000                1.70139779                9.91503307              -10.09126828              -19.68980153               10.69594357              -11.36969913
              19.96352699                3.83834615               61.10413248                0.00010000                0.17859696               10.30423274              -12.25550880               -9.84994988                5.04059313              -11.54313736
              10.01452972               10.42310528               63.32518596                0.00010000                0.00343054               -0.05819704                0.60152402               -0.03746240                0.00445539                1.06065067
              11.01456403               10.01445680               62.93274512                0.00010000                0.23996081                0.04789064               -0.61278792               -0.23502987               -0.28444646               -0.74530382
              12.01932894                9.60025356               62.53469529                0.00010000                1.83925616               -0.07233855               -2.06746262               -3.94941349               10.70775151               -3.39095442
              13.05134915                9.11932275               62.36479150                0.00010000                3.86856625               -0.46456385               -3.95689400               -7.23375422               23.42094350               -3.51896404
              14.09670026                8.61452697               62.22262302                0.00010000                4.86010963               -0.57570565               -5.68934507              -10.16333966               25.75774650               -1.57992638
              15.14855134                8.06065910               62.09640856                0.00010000                5.63832961               -1.47426444               -6.75576106              -14.97076912               27.25844986                1.11331624
              16.20946686                7.45452133               61.97498465                0.00010000                6.36842780               -1.59289105               -8.35879494              -20.22082800               27.53256547                2.06078786
              17.27591990                6.80210223               61.83763241                0.00010000                6.44145244               -0.61393749              -10.39619038              -24.78495762               25.47136664                1.92395937
              18.33829590                6.12183049               61.65342293                0.00010000                5.81334107                2.18091664              -12.74838383              -25.44246471               19.79431592               -0.34843522
              19.39218672                5.46854351               61.38413057                0.00010000                5.39791279                5.62949192              -16.00505254              -16.63268074               10.17599785               -5.09538867
              20.44625416                4.92019689               61.00718641                0.00010000                5.40674395                6.26896218              -18.71366136               -6.68050888                4.49040067               -8.77891435
              10.42222983               11.42287978               63.21197839                0.00010000                0.08268766                0.01013585                0.32116421               -0.04024592               -0.01927540                1.12818525
              11.42305671               11.01534273               62.80986483                0.00010000                0.17638338                0.14154861               -0.87129033               -0.32033397               -0.83292105               -0.89170382
              12.42575750               10.60078705               62.39183199                0.00010000                2.51899377                0.21539857               -1.97517216               -4.01118074               10.30701439               -3.31814269
              13.47343658               10.12250488               62.21569519                0.00010000                4.93160798                2.18922350               -9.22406983               -9.51004932               24.40988246              -13.26696004
              14.52438966                9.61907648               62.08806201                0.00010000                5.38024721                0.60692991               -7.23856672              -10.33225743               29.43059336               -1.56689625
              15.58104153                9.05478986               62.01220440                0.00010000                5.74637182               -0.02896742               -8.09353231              -13.87167690               31.61128852                0.71534756
              16.63931709                8.44967165               61.91656005                0.00010000                5.70834072                0.54808908              -10.14579287              -17.65100291               31.17361262                1.90423109
              17.69520834                7.80898635               61.80055492                0.00010000                5.74456817                2.11375928              -13.44471425              -21.16911925               29.39100215                2.60371203
              18.75420846                7.15217542               61.63411630                0.00010000                6.77563330                4.74918933              -18.92061041              -21.96719125               22.84624303                2.70440221
              19.83072101                6.51394145               61.36499744                0.00010000                8.62008010                6.77653187              -25.26684629              -14.68309032               11.62030478                1.26916623
              20.92661006                5.96372539               60.97233751                0.00010000                9.58890522                6.67129646              -29.31944436               -4.80419652                5.82638771               -4.15599054
              10.82879890               12.42330799               63.09908620                0.00010000                0.14511767                0.05898092                0.03420941               -0.02527375               -0.09444057                1.07839203
              11.83025008               12.01728777               62.68568706                1.00000000                0.15721349                0.25075095               -1.11839938               -0.26388494               -0.98449824               -0.87260113
              12.83194317               11.60456153               62.25506398                0.00010000                0.63043260                0.40342338               -1.59391695               -1.80367865               -0.19004397               -2.00890870
              13.84285873               11.16310722               61.85927081                0.00010000                6.29134815                2.59607495              -12.75793554               -9.09468304               23.44925496              -11.27904164
              14.95777014               10.62666557               61.97381451                0.00010000                9.88319556               -0.07482025               -8.76541680               -8.88040798               41.35039427               -0.66227119
              16.04052264               10.06007975               61.92574605                0.00010000                7.22400867                0.69519964               -9.50542951               -9.03687897               35.18639532                0.51537577
              17.10225031                9.46548311               61.86109308                0.00010000                5.47555489                2.23794322              -11.98854353              -10.94358254               35.82119495                1.35881702
              18.15003374                8.84437741               61.77531796                0.00010000                4.58733351                4.81962090              -17.05870840              -12.96343576               35.37400484                2.01591156
              19.19399698                8.21681427               61.64786076                0.00010000                6.84706008                8.13543204              -26.15829140              -14.05199907               31.17445514                2.90151031
              20.28697494                7.60407415               61.44131440                0.00010000               12.83026840               12.82545777              -46.52220840               -9.65229920               19.09287078                4.12192644
              21.45060235                7.05362282               61.03852187                1.00000000               16.36274052               13.87911322              -54.16055343               -2.01925272                9.93130325               -2.08258566
              11.23376480               13.42405940               62.98398858                0.00010000                0.27606704                0.07514049               -0.28248431                0.12642510                0.48637752                1.01463001
              12.23652547               13.02035775               62.56460853                1.00000000                0.50498360                0.30699793               -1.28785670               -0.13265475                0.34255490               -0.83450787
              13.24386447               12.60885552               62.14240478                0.00010000                1.64567063                0.42939869               -1.95629272               -1.10443824                0.27860236               -1.10402853
              14.26943889               12.17442638               61.72586746                0.00010000               10.29722483                1.13191594              -10.74807755               -6.90575658               21.98066745               -1.74937208
              15.44980897               11.61758008               61.85787799                0.00010000               14.60237590               -0.90854895              -10.09075094               -6.08274277               44.34272944               -2.02927272
              16.56148640               11.06869386               61.84482294                0.00010000                9.31694055                0.86141051              -10.78018783               -4.06110231               39.24365921               -0.00755687
              17.63614778               10.49443051               61.80324901                0.00010000                6.15610310                2.89473982              -13.71374873               -4.77600700               40.40726002                0.41579435
              18.68460847                9.90537877               61.74677736                0.00010000                3.86619797                6.10013570              -19.68416689               -5.51984999               41.90879365                0.80440671
              19.71347174                9.31488406               61.66047062                0.00010000                5.81290083                9.80697874              -30.54228095               -4.79893187               40.04340532                0.09066696
              20.80086648                8.77045061               61.52557731                1.00000000               13.68279634               16.63764597              -56.55887647               -2.28966621               27.90274755                3.84617125
              21.98712767                8.24130766               61.13095968                1.00000000               18.62611864               18.76848416              -63.75113613                0.73823716               18.35495473               -1.92394682
               7.46771445                3.57233344               65.14118433                1.00000000               -0.53521969               -0.67189691                2.34269999               -0.22104516               -0.52434669                0.62931784
               8.46236225                3.14237902               64.77884836                1.00000000               -0.37382205               -0.32228698                1.20552133               -0.17345810               -0.64772787                0.09048089
               9.46023801                2.71177900               64.41343193                0.00010000               -0.05444367                0.01611834                0.08144505               -0.17031241               -0.63397664               -0.09569625
              10.46127338                2.27992218               64.05117645                1.00000000                0.18017123                0.39510508               -1.06796148               -0.28184898               -0.24472663               -0.54375647
              11.46384143                1.84481019               63.69377269                1.00000000                0.44270387                0.83778582               -2.36604797               -0.31753842                0.26666631               -0.19944452
              12.47012746                1.40673357               63.34208597                1.00000000                0.68063524                1.23222482               -3.68077679               -0.51063727                0.81010724               -0.56956184
              13.47745414                0.96178524               62.99677425                1.00000000              -14.09071741                1.67456283               -4.82906213              -24.69322725               14.65762371               -1.08614948
              14.18831311                0.02916325               62.92558470                0.00010000              -18.16152122                6.15443134               -4.73483541              -23.42818632               21.90976160                4.78469765
              15.11422371               -0.89265149               62.67629260                0.00010000                3.89112715                3.01636578               -4.67061369              -18.45198660                4.46151324               18.64843540
              16.26613565               -1.81330469               62.23442096                1.00000000                8.07820865                1.01311796               -3.28369856              -19.87781954               -2.45996401                0.35470368
              17.27578789               -2.34179138               61.84070126                1.00000000                0.96522351                1.24126607               -4.06676118                0.03932993               -0.55713062                0.02279340
               7.89545842                4.56561447               65.02424179                1.00000000               -0.45535280               -0.62387005                2.08794549               -0.04607156               -0.00681364                0.88194622
               8.89090490                4.13915615               64.66173183                1.00000000               -0.28475585               -0.28740796                0.94910536               -0.00437251                0.04009624                0.13914864
               9.88976331                3.71194018               64.29964435                1.00000000                0.05171992                0.04898829               -0.17528889                0.00857890                0.08792188               -0.27158706
              10.89193929                3.28387323               63.93800281                1.00000000                0.37485229                0.42578831               -1.32298053               -0.06625119                0.71883479               -0.60651217
              11.89726035                2.85318805               63.58890037                1.00000000                0.72971331                0.82248755               -2.67531496               -0.08729966                1.23790588               -0.28500425
              12.90653356                2.41905582               63.23836673                1.00000000                1.10233361                1.22302457               -4.00954523               -0.27975859                1.38986105               -0.63499522
              13.91930702                1.97853087               62.89372316                1.00000000               -1.26419737                1.49629512               -5.24641240              -22.44527475               17.10464448               -0.95427996
              14.88124961                1.09070757               62.85974383                0.00010000               -3.41846020                1.44805707               -5.45318645              -31.51209634               29.96871395                9.05558290
              15.85093782                0.13751216               62.73986144                0.00010000               -4.46611065                3.47410676               -5.16034276              -30.71526295                2.92523243               21.57414933
              16.79192740               -0.80317351               62.12191932                1.00000000               -2.31349719                8.75230341               -4.40711104              -19.55276098              -10.77399580               59.85992011
              17.80466788               -1.32937872               61.72811839                1.00000000                1.27404770                9.23457095               -5.18591001                0.89163183               -0.29251442               59.47515125
               8.31970967                5.55985604               64.91151196                1.00000000               -0.37605734               -0.51626601                1.82307686               -0.05287182                0.18036835                1.05632300
               9.31594910                5.13663086               64.54526778                1.00000000               -0.20085805               -0.21842025                0.68311056               -0.01399982                0.37558005                0.05492000
              10.31569251                4.71275876               64.18251635                1.00000000                0.13756959                0.13173398               -0.44771582                0.00598720                0.77665985               -0.66573576
              11.31870049                4.28843794               63.82430098                1.00000000                0.56101694                0.53258288               -1.52727145               -0.14705065                1.86309539               -0.78188197
              12.32691285                3.86125994               63.48371440                1.00000000                1.02444887               -1.19853904               -2.94908370               -0.83886651                2.30339641                3.77657919
              13.33918947                3.43119406               63.13522409                1.00000000                1.49920233               -2.80209829               -4.23967592               -0.82515586                2.24406410                7.94306412
              14.35689689                2.99171114               62.79496343                0.00010000                2.99502100               -8.96477450               -5.43032711              -22.96537670               24.66835311               15.85517460
              15.39908989                2.05812440               62.89622214                0.00010000                1.84513193               -2.77937056               -5.66365492              -40.32687040               41.36100435               13.82856573
              16.39379953                1.17683064               62.85949767                0.00010000               -2.85592854                3.62040557               -5.23742966              -33.28124831               55.37084042               22.66926268
              17.34197132                0.36174138               63.21055566                1.00000000               -2.38842959                8.66527313               -1.85769804              -13.37162435               37.48187616               63.42306208
              18.34603094               -0.15709996               62.81797851                1.00000000                0.40596264                8.97331484               -1.52511021                1.29349457                0.37434757               63.72865438
               8.74085135                6.55528915               64.79720199                1.00000000               -0.31291744               -0.39534806                1.55744168               -0.04192639                0.30350553                0.90323545
               9.73772218                6.13478774               64.42621340                1.00000000               -0.13876927               -0.16420610                0.42269491                0.04518090                0.61229672               -0.38947948
              10.73807597                5.71457486               64.06111941                0.00010000                0.13874621                0.18111081               -0.75971371                0.13637885                1.51722536               -1.26784231
              11.74049710                5.29452488               63.70838382                0.00010000               -0.01745330               -0.85201136               -1.75683977               -2.20385352                7.35176281                2.83603886
              12.73772690                4.82921727               63.46142806                0.00010000                0.95410696               -3.11328621               -2.90512786               -3.94940445               12.32565431                7.32190073
              13.75957924                4.36301385               63.20506964                0.00010000                4.76711275               -7.36233759               -4.03544173               -7.36848809               16.14684943               14.09425496
              14.83306916                3.79923538               63.03047641                0.00010000                6.50067314              -15.07170738               -4.92825410              -19.84579291               24.56869911               22.51935239
              15.88959270                3.03512016               62.93557897                0.00010000                2.43133575               -3.26169012               -5.46117587              -31.95381833               34.97865418               12.32659963
              16.88169587                2.20992027               62.95894529                0.00010000               -1.55835953                2.04883860               -4.86157261              -33.95327855               43.71336515               13.00803922
              17.85842551                1.37013195               63.02429595                1.00000000               -0.67377126                0.79374459               -3.70194112              -16.07380520               23.41496808               -1.80866931
              18.86822045                0.85008758               62.63180224                1.00000000                0.97949321                0.68452222               -3.27395306                0.01307455               -0.30997873               -1.24572081
               9.15987396                7.55194908               64.68048357                1.00000000               -0.23069544               -0.26538954                1.29986514               -0.00486008                0.07971772                0.80385933
              10.15756701                7.13334674               64.30073469                0.00010000               -0.05955088               -0.14171120                0.16498434                0.15599045                0.65769236               -0.68598250
              11.15868295                6.71638098               63.93233475                0.00010000                0.12070012               -0.01718392               -1.02278219               -1.01219582                6.39267272               -2.14857295
              12.15998101                6.27139771               63.66726785                0.00010000                1.03764222               -2.01007172               -2.01963087               -3.27508435               12.80632844                4.15421448
              13.17943579                5.79899422               63.42582234                0.00010000                3.09102913               -3.31721545               -3.16758126               -5.14971253               15.98581646                5.75044631
              14.22180159                5.28394731               63.22267292                0.00010000                5.42194715               -6.92815306               -4.28345769               -9.77030134               20.02731632                8.97862331
              15.28787473                4.69027699               63.05891497                0.00010000                6.37635139               -8.87220587               -5.16278821              -19.18674337               24.74290769                9.57889222
              16.34932862                3.99289059               62.94662620                0.00010000                4.59237169               -4.38076473               -5.48261138              -27.49347805               29.44293109                7.74130959
              17.37972217                3.21780741               62.87437616                0.00010000                1.54996434               -0.04551386               -4.83816986              -31.26330871               32.37726986                1.40507593
              18.38032791                2.37761627               62.81605531                0.00010000                0.33295076                0.73658499               -2.60405713              -15.99698142               16.86112675               -4.04693575
              19.38638118                1.85659048               62.42886639                0.00010000                0.60532734                0.54017879               -2.49351835               -0.23890104               -0.01888252               -2.79744079
               9.57795884                8.54998136               64.56325413                1.00000000               -0.15487492               -0.15387763                1.04865316               -0.00969029                0.03021041                0.87153050
              10.57641009                8.13195352               64.17586885                0.00010000                0.09111172               -0.11332428               -0.06219791                0.08058899                0.33946115               -0.63965140
              11.57978107                7.71423118               63.79460123                0.00010000                0.79860442               -0.27538852               -1.34905022               -1.87112590                8.73978209               -2.74450349
              12.59238218                7.25432345               63.57546626                0.00010000                2.12009909               -1.54518746               -2.43656533               -4.47507864               17.49819459                0.79960300
              13.62218305                6.76287296               63.36893971                0.00010000                4.02541297               -3.15501395               -3.70305660               -7.45596525               19.35280181                3.46035661
              14.67289044                6.22445079               63.18552980                0.00010000                5.91039754               -4.99734193               -4.90767755              -12.41543103               21.93601567                5.02935143
              15.74039101                5.62179126               63.02779776                0.00010000                6.96511436               -5.76225266               -5.85342734              -19.02781277               24.33030334                5.43416399
              16.81219272                4.94750486               62.88902087                0.00010000                6.56565074               -4.18974003               -6.24151422              -24.99465995               25.37132399                3.60981068
              17.87170402                4.20901000               62.75167440                0.00010000                4.37550452               -1.26003683               -5.52836634              -30.13484276               24.34351476               -0.87351975
              18.89970281                3.38486365               62.60254819                0.00010000                1.68949887                2.58704994               -2.51232385              -16.92861383               11.93756016               -6.98180526
              19.90549400                2.86089115               62.22244813                0.00010000                0.57911832                1.23749876               -2.94592354               -1.96191152                0.54500118               -4.73398817
               9.99573584                9.54887153               64.44688027                0.00010000               -0.08068744               -0.07898473                0.78401683               -0.01738276                0.01265192                0.97445596
              10.99492897                9.13108025               64.05157320                0.00010000                0.15773262               -0.04891436               -0.28516098               -0.06404850               -0.00382746               -0.62467431
              11.99889050                8.71087321               63.65599237                0.00010000                1.34543459               -0.23677088               -1.51294866               -2.70046525               10.04269719               -2.80007418
              13.02183766                8.24049397               63.46330332                0.00010000                3.06493227               -1.23366934               -3.02415332               -5.99659359               20.66184702               -1.09351355
              14.06018914                7.73589394               63.28134383                0.00010000                4.63685047               -1.87336427               -4.50737848               -9.27972965               22.15229323                0.76336820
              15.11457467                7.18400047               63.11665114                0.00010000                6.20376325               -3.10848462               -5.87713525              -14.14363065               23.89947205                2.81415357
              16.18426441                6.57503194               62.96504634                0.00010000                7.38210066               -3.71762960               -7.00464320              -19.69497982               24.89146304                3.54780742
              17.26221668                5.90909579               62.81160062                0.00010000                7.77010570               -3.08187676               -7.75699488              -24.72500021               24.06246568                2.72989322
              18.33966652                5.19260668               62.63511664                0.00010000                6.38288958               -1.21048712               -7.70545280              -28.76840089               19.54475671               -0.17086377
              19.38987448                4.42935727               62.38674696                0.00010000                2.77107136                5.33450078               -5.27687665              -19.04215271               10.08442585              -10.51947646
              20.39508795                3.88134046               62.00442046                0.00010000                0.52134726                3.27652285               -6.21029926               -6.28160750                3.54649664               -9.25136344
              10.41319374               10.54840167               64.33078786                0.00010000               -0.00662973               -0.01363764                0.50588063               -0.01636927                0.01108937                1.03091370
              11.41312744               10.13097523               63.92716028                0.00010000                0.15821588                0.02585670               -0.49554168               -0.14817631               -0.33508413               -0.67130693
              12.41635805                9.70949576               63.51681249                0.00010000                1.71510688               -0.02070728               -1.48147864               -3.37349336               10.31323892               -2.74683755
              13.44742958                9.22965006               63.32857196                0.00010000                3.83619508                0.49312565               -3.98856109               -6.83116974               22.40333719               -6.97047259
              14.49308196                8.72540567               63.16204920                0.00010000                5.17251221               -0.13048938               -6.06487123              -10.08580722               24.89844231               -1.34768025
              15.55087982                8.16228110               63.02739625                0.00010000                6.41570663               -1.36454112               -7.05301669              -15.14793672               26.92169278                1.49628750
              16.62139609                7.54743867               62.89005548                0.00010000                7.46190817               -1.81850816               -8.59616004              -19.72040128               26.87810405                2.83033671
              17.70011798                6.88586733               62.73523513                0.00010000                7.73392192               -1.26139178              -10.06597247              -24.04567140               24.93418126                2.88830973
              18.77607453                6.18480026               62.53480435                0.00010000                6.50039967                0.40121354              -10.95233315              -25.87404954               19.24819398                0.40669829
              19.83012598                5.49155367               62.23769560                0.00010000                4.99104709                4.92425993              -12.08723568              -17.80473739               10.25700807               -8.74870125
              20.87589547                4.92642161               61.83621293                0.00010000                4.57694904                3.46053159              -12.94633273               -6.68087200                2.70668440               -9.90588777
              10.83026133               11.54859877               64.21473874                0.00010000                0.06100168                0.04794779                0.21830408               -0.00493974               -0.01564609                1.06444930
              11.83087135               11.13159738               63.80201856                0.00010000                0.12422335                0.10025810               -0.68265980               -0.14845693               -0.63556104               -0.75105502
              12.83274580               10.71045906               63.37727961                0.00010000                1.92165048                0.16068139               -1.12973382               -2.38114670                5.35685663               -2.34673857
              13.86930436               10.25035648               63.08535104                0.00010000                4.65480810                2.73839090              -11.60970196               -8.72528474               21.54430243              -12.40206818
              14.92584196                9.73328415               63.02109504                0.00010000                6.01392915                0.71838676               -6.64712556              -12.06176588               32.28494630               -2.64243985
              15.98958294                9.15670965               62.92778180                0.00010000                7.02140967               -0.26897447               -8.55290740              -14.45841890               30.88766027                0.89109183
              17.06627015                8.53866178               62.81252177                0.00010000                7.71793638               -0.02802206              -10.55027090              -17.38214106               30.01251913                2.35626657
              18.14394167                7.88386796               62.66708741                0.00010000                7.51145177                1.01542434              -13.14416868              -20.67840948               27.38116872                2.77893733
              19.21649919                7.20063095               62.45628738                0.00010000                7.41083520                2.92875299              -16.10037825              -21.75018744               20.16158419                0.99920154
              20.29215837                6.52784247               62.12092799                0.00010000                8.76177165                4.41427923              -21.70344729              -14.11629039               10.53467905               -9.08118061
              21.39173462                5.95055109               61.69033885                0.00010000                9.95762500                3.07691981              -22.42459919               -4.97878613                1.51160092              -12.03715739
              11.24709772               12.54936062               64.09877470                0.00010000                0.12002919                0.09361696               -0.10130202                0.00921693               -0.09470525                0.94845406
              12.24829801               12.13298039               63.67607975                0.00010000                0.14391527                0.16683093               -0.78760440               -0.08117307               -0.53433503               -0.63292983
              13.24997603               11.71270939               63.24491527                0.00010000                0.09003907                0.22826650               -0.77655378               -0.54546938               -0.83168778               -1.33280245
              14.25009879               11.28441788               62.81637642                0.00010000                4.77587202                1.86454573               -2.51213708               -8.24902427               23.21139205               -7.46796481
              15.34549347               10.73977341               62.87580379                0.00010000               10.31175103               -0.78027542               -8.76790606              -10.51589572               40.96729655               -2.08330256
              16.45633382               10.15690161               62.82771840                0.00010000               10.05507459               -0.04906905              -10.04336144               -9.74109802               35.13281089                0.50986246
              17.54659496                9.54687823               62.73563971                0.00010000                8.41234049                1.34107144              -12.73495675              -10.84948776               33.67111300                1.52460323
              18.62458062                8.90617581               62.60656338                0.00010000                7.52506541                3.31309960              -16.62839184              -12.92188373               31.03725678                1.96186041
              19.69709627                8.24337532               62.40138976                0.00010000                8.66497006                5.75969173              -22.56612511              -14.24615458               20.67125393                0.39442005
              20.79788003                7.57983925               61.99990507                0.00010000               11.69031163                8.73038184              -36.10104056               -9.11406305                8.53794715               -8.83701718
              21.93090250                6.98796001               61.52273847                1.00000000               13.30224735                7.23224860              -36.28799899               -2.37252939               -2.74763235              -11.53451257
              11.66320613               13.55047111               63.98023397                0.00010000                0.26929891                0.11104904               -0.43147828                0.05712986                0.48162489                0.83366159
              12.66589912               13.13493400               63.55384534                0.00010000                0.35963968                0.19536100               -0.89186790               -0.01222546                0.45975894               -0.52449923
              13.67039892               12.71502439               63.12768076                0.00010000                0.56803684                0.23150010               -1.17885915               -0.32204080                0.12866127               -0.71246658
              14.67725986               12.28764739               62.69947778                0.00010000                8.63206963                0.32295125               -1.75031474               -7.15118138               22.96367845               -0.37063582
              15.84304032               11.71767864               62.75184949                0.00010000               15.51981525               -2.20947663               -9.19178011               -6.84127130               42.72795179               -2.05735272
              16.98765616               11.15572827               62.73182159                0.00010000               12.84829394               -0.11733422              -11.57622375               -4.47753713               38.42791672               -0.17992500
              18.10000620               10.56548321               62.65769713                0.00010000               10.06753720                1.86049795              -14.86728936               -4.93879229               37.29775269                0.34109778
              19.18900691                9.95012995               62.54977459                0.00010000                7.89532321                4.39541354              -19.84564095               -6.04029317               35.86582343                0.26007321
              20.25791266                9.31582478               62.36644120                0.00010000                8.81427572                7.24494665              -27.60012852               -6.30235300               25.55469091               -1.34173444
              21.36529242                8.70245010               61.96191460                1.00000000               13.50649331               12.26108521              -49.31446664               -4.29019657                9.46141378              -11.50818031
              22.52804253                8.09519606               61.47362709                1.00000000               16.27501058               10.72360560              -49.96185867               -1.01140157               -2.79821327              -14.35985385
               7.83060995                3.69677702               66.16391172                1.00000000               -0.50366063               -0.62835101                2.19777533               -0.20642992               -0.50257113                0.61423658
               8.82557334                3.26166133               65.79059717                1.00000000               -0.35350878               -0.30583862                1.14309708               -0.16261163               -0.61759424                0.08567049
               9.82353978                2.82592540               65.41433812                0.00010000               -0.05659308                0.00657171                0.10228072               -0.15902197               -0.61065769               -0.08966551
              10.82444148                2.38902628               65.04099452                1.00000000                0.16327885                0.35646439               -0.96223943               -0.26082991               -0.30667286               -0.52457424
              11.82680535                1.94911263               64.67111697                1.00000000                0.40050216                0.76418952               -2.15366413               -0.30257362                0.11804523               -0.22257036
              12.83245153                1.50627866               64.30673997                1.00000000                0.55448690                1.13161306               -3.37373239               -0.55658131                0.72581870               -0.59062942
              13.83789509                1.05557742               63.95034149                0.00010000              -13.02849040                1.58972034               -4.44323600              -23.29206738               14.95170813               -1.19310043
              14.57188172                0.14584799               63.87455706                0.00010000              -16.56277091                5.41701143               -5.29209240              -22.14042785               22.51499260                4.56220603
              15.50663967               -0.76565020               63.62880111                0.00010000                4.53510409                3.35287212               -4.91584555              -17.64790120                6.21599799               18.60859872
              16.66258380               -1.69421016               63.21022521                1.00000000                8.16352838                0.77155576               -2.31157777              -20.09278234               -1.01739039                0.18173996
              17.66991024               -2.22495590               62.81074713                1.00000000                0.73264400                0.94835468               -2.87609618                0.02396955               -0.18593755               -0.04088103
               8.26366134                4.69049351               66.04448788                1.00000000               -0.42883084               -0.58033029                1.95695725               -0.04486885                0.00385883                0.86377195
               9.25937303                4.25860294               65.67098464                1.00000000               -0.26971311               -0.27275999                0.90111928               -0.00644087                0.05897558                0.13022833
              10.25826708                3.82599112               65.29804181                0.00010000                0.04332678                0.03692673               -0.14191086                0.00616961                0.10120026               -0.27388235
              11.26023957                3.39259092               64.92532877                1.00000000                0.34431719                0.38598013               -1.20448869               -0.06166180                0.62042034               -0.56757320
              12.26515342                2.95675453               64.56321350                1.00000000                0.67068752                0.75048362               -2.44981344               -0.08347601                1.04222783               -0.29548694
              13.27365332                2.51759479               64.19982342                1.00000000                1.00181628                1.12044995               -3.68135542               -0.30807462                1.23215291               -0.61956591
              14.28518975                2.07147462               63.84315106                1.00000000               -0.62810361                1.39527853               -4.84633393              -21.34947552               17.34563177               -0.94152616
              15.26109125                1.20001811               63.80469722                0.00010000               -1.75000073                0.98777737               -5.63600531              -29.64365281               30.43378753                9.19162724
              16.25018974                0.26787852               63.68941275                0.00010000               -3.48912101                3.44673739               -5.33214667              -30.14486242                4.08210968               21.91141045
              17.19130883               -0.68649460               63.09011143                1.00000000               -2.46470273               12.40356277               -3.08552506              -20.51035634               -9.82184082               61.11547986
              18.20089568               -1.21547236               62.69057580                1.00000000                0.95868528               13.14936698               -3.64841562                0.64109121                0.02931395               61.39144019
               8.69349371                5.68517041               65.92916507                1.00000000               -0.35467960               -0.47156952                1.70372048               -0.05009072                0.18422656                1.03262843
               9.68994691                5.25620613               65.55192895                1.00000000               -0.19092605               -0.20875224                0.64971548               -0.01334687                0.38464446                0.04517714
              10.68967519                4.82666394               65.17825884                1.00000000                0.12489646                0.11358183               -0.39867003                0.00792634                0.81111274               -0.69624606
              11.69244484                4.39674588               64.80960301                1.00000000                0.52283874                0.50589381               -1.40463869               -0.16270079                1.75764247               -0.73472240
              12.70013196                3.96412230               64.45537427                1.00000000                0.95625495               -1.15963261               -2.70722675               -0.76988379                2.08593459                3.86775863
              13.71156994                3.52868766               64.09443674                1.00000000                1.41751506               -2.72677052               -3.89996933               -0.66990915                2.11473378                8.11767780
              14.72848226                3.08348299               63.74260280                0.00010000                3.55174106               -8.69465674               -5.01831247              -21.61385124               24.88880180               16.19265722
              15.78260476                2.16560354               63.83902587                0.00010000                3.08864339               -2.84863263               -6.00673851              -38.25826625               41.50707979               14.89736338
              16.79025513                1.30328455               63.80869812                0.00010000               -2.34386054                3.88229516               -5.60934110              -29.44208972               57.05443626               24.11076004
              17.73572755                0.55386110               64.19089923                1.00000000               -2.47837772               12.27611944               -2.43367692              -10.20422774               38.88197842               64.52668525
              18.74068758                0.03803143               63.80171274                1.00000000                0.49600260               12.90408051               -2.02060224                1.18119895                0.33775152               65.36033075
               9.12058810                6.68106212               65.81225638                1.00000000               -0.29755298               -0.34985666                1.44988635               -0.03389085                0.30688254                0.87942487
              10.11761257                6.25442790               65.43035706                1.00000000               -0.13511219               -0.16317044                0.40682135                0.05714029                0.59144586               -0.39072511
              11.11788586                5.82826276               65.05381270                0.00010000                0.09573101                0.13720664               -0.69134064                0.18093387                1.56086880               -1.29543824
              12.11952719                5.40270880               64.69145940                0.00010000               -0.00359429               -0.76500186               -1.61183269               -2.03053777                7.33998303                2.78730202
              13.11781397                4.93356187               64.43219175                0.00010000                1.06836327               -2.90857727               -2.91220236               -3.69242701               12.10127251                7.50181464
              14.14089445                4.46305938               64.16441869                0.00010000                4.90914375               -7.02065206               -4.08946389               -6.93061279               15.86680410               14.43922700
              15.21599684                3.89758149               63.98039027                0.00010000                6.76149547              -14.42514056               -5.11100256              -18.64672286               24.23560454               23.41774503
              16.27612436                3.14304545               63.88075494                0.00010000                2.85467699               -3.00830900               -5.67522388              -29.86865592               35.15258335               14.08306220
              17.27309038                2.34552442               63.91217796                0.00010000               -1.18234893                2.47807751               -4.87233739              -30.26753089               44.95632497               15.32252591
              18.25247739                1.55902779               64.00128452                0.00010000               -0.84557004                0.35294283               -1.53220940              -13.48891747               24.21490336               -0.39671420
              19.25617898                1.04260925               63.61285004                0.00010000                0.37015979                0.31626143               -1.20780357               -0.06236574               -0.14203671                0.08488801
               9.54608433                7.67817328               65.69300564                1.00000000               -0.21952583               -0.21889028                1.20174818                0.00805567                0.07525029                0.77876037
              10.54388908                7.25294272               65.30244654                0.00010000               -0.05356853               -0.14790931                0.17787272                0.16609003                0.61817730               -0.66391262
              11.54501296                6.82940807               64.92250871                0.00010000                0.13229466               -0.08474430               -0.92635869               -0.83079959                6.34344735               -2.15413392
              12.54653497                6.38144584               64.64651805                0.00010000                1.04599373               -1.76946024               -2.08281725               -2.89996575               12.63262534                4.13626409
              13.56593284                5.90595076               64.39324955                0.00010000                3.12015524               -2.97217055               -3.31366331               -4.81434133               15.60224171                5.85665057
              14.60893807                5.38827462               64.17873173                0.00010000                5.48144466               -6.44683267               -4.51047312               -9.29723321               19.57707065                9.31482289
              15.67556173                4.79498018               64.00637898                0.00010000                6.41753154               -8.25238337               -5.40952580              -18.23449794               24.51371706               10.42539374
              16.73728871                4.10543736               63.89216221                0.00010000                4.66802239               -3.90633012               -5.56676855              -25.66033319               29.97544345                9.45192090
              17.76892218                3.35284610               63.83013904                0.00010000                1.57878337               -0.28292235               -4.28919557              -27.91588383               34.23309299                4.10063128
              18.76886437                2.56091995               63.80014088                0.00010000                0.16775764                0.04436534               -1.20280045              -13.86087697               17.93852720               -1.79741918
              19.77227733                2.04435666               63.41430940                0.00010000                0.34129599                0.06345725               -1.08578931               -0.04815988               -0.06993174               -1.11409085
               9.97121033                8.67668431               65.57327097                1.00000000               -0.15107579               -0.10870805                0.95186513                0.00178792                0.02873738                0.82872261
              10.96969958                8.25146971               65.17544626                0.00010000                0.07782029               -0.11713556               -0.02312245                0.08557133                0.25509836               -0.58784369
              11.97276674                7.82656787               64.78205117                0.00010000                0.76428058               -0.26934990               -1.12862694               -1.52137665                8.53684547               -2.57049684
              12.98498519                7.36731959               64.55071354                0.00010000                2.09658138               -1.23128265               -2.49894389               -3.93569103               17.09344943                0.84523089
              14.01469837                6.87411846               64.33079074                0.00010000                4.04675929               -2.66011449               -3.90155377               -7.02194329               18.75138244                3.50958575
              15.06592037                6.33412273               64.13505928                0.00010000                5.97228878               -4.47914239               -5.18262396              -11.78922614               21.33280130                5.29646565
              16.13414414                5.73253382               63.96845016                0.00010000                6.95657031               -5.23761385               -6.06717899              -17.83545188               24.04091282                6.13070960
              17.20505178                5.06491885               63.82798493                0.00010000                6.25729853               -3.78943224               -6.10024387              -23.02804393               25.98947184                4.89715287
              18.25929011                4.33986598               63.70361172                0.00010000                3.93487501               -1.54181171               -4.51798903              -26.43390556               26.79609849                1.22194683
              19.28374928                3.55991509               63.58780591                0.00010000                1.45261256               -0.25526376               -1.10405299              -13.53631189               13.51846104               -3.36462967
              20.28834236                3.04387840               63.20577199                0.00010000                0.45930852               -0.24012905               -1.18941076               -0.26204022                0.02171647               -2.61875568
              10.39654930                9.67599912               65.45422469                0.00010000               -0.08323560               -0.04096128                0.68387977               -0.00009473                0.01423589                0.90034484
              11.39571694                9.25060001               65.04909611                0.00010000                0.10931255               -0.04422055               -0.21321609                0.00800446               -0.04531294               -0.54291551
              12.39873555                8.82402107               64.64279581                0.00010000                1.22768078               -0.12691561               -1.14326880               -2.11822606                9.64148323               -2.32790041
              13.42027056                8.35682019               64.43305613                0.00010000                2.99776447               -0.47270035               -2.96139712               -5.10393038               19.83034214               -1.31615274
              14.45869084                7.85274847               64.23483717                0.00010000                4.72338202               -1.31481544               -4.73524544               -8.84909854               21.24621151                0.55429597
              15.51473820                7.29869177               64.05643551                0.00010000                6.46828655               -2.73342651               -6.11562022              -13.47310084               23.08105435                2.98085884
              16.58805657                6.69022790               63.89413260                0.00010000                7.73287352               -3.44405879               -7.17568094              -18.19985656               24.28987757                4.02011634
              17.66939567                6.02964871               63.73594305                0.00010000                7.85956281               -3.02686089               -7.46636236              -22.17075810               23.98366278                3.58375930
              18.74524783                5.32200986               63.56463224                0.00010000                6.23650228               -1.55361336               -6.32306030              -25.61624182               21.40583672                1.07390927
              19.79412571                4.55581468               63.36150295                0.00010000                2.69310484               -0.02633186               -1.53910858              -13.51433815               10.29039303               -5.97287158
              20.79910992                4.03955408               62.97992650                0.00010000                0.49842083               -0.38588250               -1.42121830               -0.87551899                1.20411521               -4.87624346
              10.82200666               10.67586509               65.33530357                0.00010000               -0.01689530                0.00914040                0.40247658                0.01241899                0.01702190                0.92223240
              11.82183771               10.25058530               64.92283429                0.00010000                0.10876876                0.04010755               -0.37880138                0.01260707               -0.25547624               -0.53790344
              12.82418204                9.82402956               64.50506571                0.00010000                1.61707383                0.08642130               -0.99272997               -2.09465513                9.30099284               -2.02455012
              13.85417918                9.35786558               64.28502028                0.00010000                3.58313898                1.49194351               -4.65457595               -6.79853768               20.69054791               -9.52602792
              14.89584482                8.84782216               64.10132560                0.00010000                5.23998710               -0.01376846               -5.75881059              -10.47222014               24.02233263               -1.51518570
              15.95897893                8.27945420               63.95534823                0.00010000                7.16726252               -1.32011080               -7.26161789              -14.57698533               25.97022641                1.47312387
              17.03919007                7.66365264               63.80306145                0.00010000                8.54378637               -1.95075776               -8.72022161              -18.14336316               25.65749583                3.04880922
              18.12985465                7.00438163               63.63631296                0.00010000                9.08046237               -1.82059351               -9.61550613              -21.25942510               23.99848560                3.24520185
              19.22079931                6.30879371               63.43437627                0.00010000                8.30318214               -0.82179116               -9.26505298              -24.33207225               18.52012573                1.53075299
              20.29591830                5.55938846               63.14238586                0.00010000                4.12769308                0.71468417               -5.49696302              -12.96977761                8.97656433               -8.18991964
              21.30335318                5.03616075               62.74825976                0.00010000                0.74348786               -0.15486893               -4.46259371               -1.37724890                1.59619606               -7.14252997
              11.24735725               11.67618193               65.21634447                0.00010000                0.04473555                0.04583763                0.11612970                0.03642435               -0.01837130                0.89629965
              12.24780461               11.25140216               64.79621164                0.00010000                0.11024535                0.11085504               -0.49840677                0.05763359               -0.37009648               -0.51022465
              13.24956216               10.82574950               64.36923732                0.00010000                0.63513003                0.17373873               -0.68253442               -0.69561929                1.34209590               -1.55135965
              14.26050721               10.38665906               63.98350115                0.00010000                3.90478318                2.08777992               -6.44232252               -7.56287650               19.71506277              -10.62704984
              15.32765782                9.85247310               63.95511950                0.00010000                7.34303976                0.32114570               -6.50908865              -12.22201171               33.55105647               -2.98846423
              16.40736800                9.27228955               63.84114625                0.00010000                8.63020223               -0.66084956               -8.56446475              -13.84481714               29.35891648                0.55315153
              17.50026187                8.65121274               63.70555463                0.00010000                9.58490474               -0.64264121              -10.62952390              -16.07075921               27.92299424                2.35208262
              18.59906610                7.99323684               63.53767154                0.00010000               10.16688444               -0.17271005              -12.41155591              -18.52322657               24.98642514                2.77201598
              19.70359956                7.30557404               63.31210874                0.00010000               10.41485123                0.28775724              -13.28465299              -21.49237171               16.22560753                0.82457881
              20.80736312                6.57010836               62.93092849                0.00010000                5.72104035                1.34793707              -10.82971915              -11.43252314                6.84031215               -9.32862334
              21.81802036                6.03645670               62.52384553                0.00010000                1.06572401                0.17417860               -8.32046337               -1.03367944                0.56795450               -7.31992230
              11.67229468               12.67678184               65.09706016                0.00010000                0.11281209                0.08160760               -0.19781965                0.04292173               -0.03989331                0.73142282
              12.67342280               12.25280240               64.66993497                0.00010000                0.13590325                0.14672176               -0.51857747                0.05958760               -0.21022053               -0.33012277
              13.67501275               11.82750433               64.23953291                0.00010000                0.13876248                0.16628524               -0.47377089               -0.09690578               -0.38851062               -0.82074000
              14.67619805               11.39962118               63.80902807                0.00010000                4.53806691                0.70759453               -0.52829556               -6.46113723               20.69052638               -2.98631438
              15.76577409               10.85424507               63.79845639                0.00010000               10.35724427               -1.40657342               -6.92997196               -9.45088033               38.13990149               -2.39163260
              16.88334294               10.26623720               63.72487882                0.00010000               11.55267518               -0.77002893              -10.01566276               -9.33080792               33.21622242                0.11906138
              17.99682759                9.65079982               63.60639394                0.00010000               11.08429435                0.29624452              -12.77565787              -10.07109033               30.39267801                1.43492840
              19.10502883                9.00092743               63.44275012                0.00010000               10.86263858                1.54604800              -15.62819469              -12.10681041               26.20982471                1.74828622
              20.21408036                8.31454885               63.19653825                0.00010000               11.56781714                2.61862208              -18.31633869              -15.28771171               12.63096323               -0.05506258
              21.33638517                7.58634720               62.71929359                0.00010000                6.79512693                2.30797981              -15.77239806               -9.96793954                3.13283744              -10.12411567
              22.34998290                7.03964432               62.31276189                1.00000000                1.35977313                0.79383187              -10.79889510               -0.18438575                0.05347025               -7.00931483
              12.09617457               13.67781408               64.97535901                0.00010000                0.20992973                0.10322390               -0.47478955                0.04023977                0.44670246                0.59373344
              13.09827386               13.25433659               64.54677117                0.00010000                0.23153470                0.15341936               -0.62612839                0.04816230                0.42339764               -0.19843344
              14.10080526               12.82907520               64.11882760                0.00010000                0.31349333                0.15708700               -0.75872569               -0.09703101                0.32093576               -0.41392896
              15.10454373               12.40081095               63.69086117                0.00010000                8.56094673                0.11897666               -0.69093369               -7.40211105               20.65549395               -0.30360421
              16.27202420               11.82434163               63.67404239                0.00010000               15.98266833               -2.99034374               -7.09670217               -6.57108794               39.14760861               -1.40496451
              17.42419710               11.25688897               63.61329846                0.00010000               14.60628193               -0.93482303              -11.43802309               -4.27478412               35.13524706               -0.38591561
              18.56414983               10.65713763               63.50590323                0.00010000               13.44918788                0.63378168              -15.02287919               -4.90433420               32.30333767                0.26490477
              19.69318086               10.02415780               63.34986454                0.00010000               12.41378616                2.32303717              -19.17373361               -6.14435485               28.39442629                0.05685466
              20.81242556                9.35794648               63.10846805                0.00010000                9.48640065                4.33976275              -23.80560347              -10.55997288               10.27028890               -1.27139407
              21.88290887                8.61626796               62.53928797                1.00000000                4.76564253                2.99207592              -24.60962461              -10.62828718               -3.37744171              -14.46425439
              22.90773841                8.05233334               62.13172250                1.00000000                2.48295397                1.26890223              -18.98643919               -0.61791095               -3.29541718              -10.80423530
               8.20429213                3.82346586               67.18513983                1.00000000               -0.47081572               -0.58292939                2.04437356               -0.18983974               -0.48011192                0.59630467
               9.19958397                3.38331750               66.80171030                1.00000000               -0.33323090               -0.28885632                1.07892406               -0.14972631               -0.58708005                0.08061775
              10.19762751                2.94257832               66.41547755                0.00010000               -0.06114493               -0.00365030                0.12748022               -0.14619957               -0.58585254               -0.08385045
              11.19836107                2.50076218               66.03193166                1.00000000                0.14146882                0.31510884               -0.84594437               -0.23913603               -0.35409171               -0.50348461
              12.20045689                2.05616573               65.65069940                1.00000000                0.35291209                0.68552835               -1.92400487               -0.28506766               -0.01089611               -0.24359723
              13.20541931                1.60875408               65.27461133                1.00000000                0.41071633                1.02136469               -3.03953186               -0.61110821                0.64551699               -0.60120081
              14.20867121                1.15230408               64.90790953                0.00010000              -12.26329880                1.51349455               -4.02604663              -22.16388703               14.80134894               -1.30651668
              14.96015334                0.26012705               64.81974286                0.00010000              -15.28978450                4.99442477               -5.47653002              -21.34931107               22.48831734                3.84553292
              15.90287552               -0.64170281               64.57797569                0.00010000                5.18442452                3.75461716               -5.10344417              -17.04944152                8.46582693               17.58109389
              17.06384183               -1.56944234               64.18818940                1.00000000                8.40748888                0.79043984               -2.14736139              -19.97960566                0.68260072                0.10536266
              18.07102530               -2.10226634               63.78317934                1.00000000                0.71834723                0.97508116               -2.70556206                0.04761212               -0.11017115               -0.09025466
               8.64254209                4.81763657               67.06338094                1.00000000               -0.40116083               -0.53628733                1.81878057               -0.04204699                0.01343757                0.84026721
               9.63853048                4.38042894               66.67975421                1.00000000               -0.25494572               -0.25777656                0.85276446               -0.00652559                0.07546782                0.12088644
              10.63744318                3.94254181               66.29680613                0.00010000                0.03227633                0.02423137               -0.10255064                0.00487616                0.11328714               -0.27386449
              11.63917601                3.50391327               65.91391304                1.00000000                0.30835429                0.34253436               -1.07368069               -0.05719840                0.53481140               -0.52971035
              12.64361026                3.06302101               65.53990410                1.00000000                0.60315236                0.67355673               -2.20414653               -0.08023111                0.87057203               -0.30065683
              13.65123905                2.61896773               65.16473962                1.00000000                0.88677993                1.00991348               -3.32311924               -0.33728453                1.08355725               -0.59698748
              14.66134586                2.16743903               64.79679648                0.00010000               -0.37876916                1.30104991               -4.40544611              -20.37419230               17.20237250               -0.92882000
              15.64366367                1.31007130               64.74702372                0.00010000               -0.70900286                0.99434463               -5.78690331              -28.43064157               30.14672417                8.67878966
              16.64716580                0.39584337               64.63321851                0.00010000               -2.46680657                3.89917214               -6.48756100              -29.57349321                4.79825437               20.51471401
              17.59432754               -0.56153794               64.06020882                1.00000000               -2.14201879               15.52721677               -3.07054582              -21.28022324               -8.33637572               61.59390943
              18.60432543               -1.09251553               63.65515008                1.00000000                0.99978863               16.50493767               -3.62791056               -0.09107619                0.11654376               62.44318467
               9.07786644                5.81274012               66.94558637                1.00000000               -0.33182292               -0.42997435                1.57873220               -0.04553751                0.18653912                1.00014362
              10.07454821                5.37816197               66.55826209                1.00000000               -0.18128704               -0.19866483                0.61764989               -0.01064426                0.39006392                0.03600147
              11.07424070                4.94306294               66.17454295                1.00000000                0.10948472                0.09372059               -0.34073233                0.00993679                0.83515039               -0.71778602
              12.07673791                4.50761287               65.79620821                1.00000000                0.47785523                0.47213033               -1.26679092               -0.18421876                1.66035322               -0.67751153
              13.08379781                4.06963686               65.42956986                1.00000000                0.87588491               -1.08213629               -2.44448628               -0.77388594                1.89412582                3.84274113
              14.09425561                3.62895235               65.05722471                1.00000000                1.31429960               -2.57321634               -3.53152201               -0.69170147                1.99292963                8.08704308
              15.11008380                3.17832508               64.69459718                0.00010000                3.44402810               -8.18124604               -4.56853416              -20.44196384               24.56579374               16.19867126
              16.16313617                2.28001394               64.77608737                0.00010000                3.64655486               -2.32131154               -6.21799747              -36.24257168               40.77439357               15.33219187
              17.18301490                1.43628064               64.74731085                0.00010000               -1.82699544                4.95432536               -7.98493001              -26.28924765               56.60093287               24.68507785
              18.12659626                0.74110200               65.16188212                1.00000000               -2.59279686               15.72469813               -5.94898811               -8.03621324               40.74549032               62.65243779
              19.13115896                0.22783241               64.77756646                1.00000000                0.45626994               16.58521033               -4.79590756                0.56920351               -0.00127248               63.95429797
               9.51078762                6.80903708               66.82619972                1.00000000               -0.27928572               -0.31152126                1.33808034               -0.02660804                0.30708035                0.84219246
              10.50799477                6.37645564               66.43434982                1.00000000               -0.12983060               -0.15913399                0.39235488                0.06292067                0.56577028               -0.38465879
              11.50819101                5.94441623               66.04729260                0.00010000                0.04614740                0.09984460               -0.60661196                0.20699568                1.59264399               -1.30251235
              12.50891772                5.51335588               65.67614716                0.00010000               -0.06989760               -0.63720097               -1.40076349               -1.89415839                7.22563240                2.65671715
              13.50679306                5.04137828               65.40318401                0.00010000                0.98995456               -2.60543119               -2.79757223               -3.51916681               11.57248645                7.40444869
              14.52871681                4.56750340               65.12328037                0.00010000                4.73259657               -6.46745879               -4.10597997               -6.58031042               15.27898576               14.35287843
              15.60144499                4.00381411               64.92825636                0.00010000                6.60699373              -13.38000538               -5.34384728              -17.46117679               23.55488283               23.65197654
              16.66085668                3.26364507               64.82207449                0.00010000                2.94239011               -2.26574582               -6.16116300              -27.34714869               35.02793489               15.41857996
              17.66029279                2.49492987               64.86149855                0.00010000               -0.94025902                3.60528209               -6.00353610              -26.86492934               47.29698123               17.08714784
              18.64205150                1.75295602               64.99365176                0.00010000               -0.90220626                0.70222479               -0.51383543              -11.37046844               26.13591177                1.24242686
              19.64224867                1.23918868               64.60764616                0.00010000                0.01971684                0.67771520               -0.33014419               -0.10240762               -0.02494066                1.46028030
               9.94249716                7.80650969               66.70451853                1.00000000               -0.20696734               -0.18501587                1.10165971                0.01672999                0.07162427                0.72981539
              10.94042748                7.37497929               66.30429215                0.00010000               -0.05083874               -0.14542818                0.18907922                0.16436199                0.57212870               -0.62931762
              11.94148038                6.94505984               65.91380757                0.00010000                0.07325995               -0.09410414               -0.80231885               -0.65253778                6.15859894               -2.06077006
              12.94189268                6.49486885               65.62561151                0.00010000                0.88932824               -1.43329457               -2.03273790               -2.54688608               12.17361375                3.91733103
              13.95926695                6.01752824               65.35954908                0.00010000                2.91604469               -2.49506183               -3.35782633               -4.45968848               14.93679810                5.66882958
              15.00021358                5.49960318               65.13246346                0.00010000                5.27258262               -5.74135399               -4.70118640               -8.68165156               18.80139885                9.25201513
              16.06471860                4.91072497               64.95072446                0.00010000                6.24319262               -7.35811371               -5.75714379              -16.90327642               24.01888117               10.79481415
              17.12507743                4.23469903               64.83529083                0.00010000                4.58433770               -3.09889968               -6.03892791              -23.31873838               30.58934988               10.57669932
              18.15640535                3.50838628               64.78859225                0.00010000                1.49253295                0.20129303               -4.37543407              -24.60201606               36.49193782                6.02633413
              19.15492809                2.75514649               64.79199930                0.00010000                0.01200739                0.16264814               -0.70801948              -12.05696502               19.46125250               -0.83565841
              20.15664550                2.24138672               64.40715060                0.00010000                0.17174134                0.18551351               -0.61523612                0.01139712               -0.08471349               -0.37568210
              10.37418302                8.80533676               66.58229143                0.00010000               -0.14511577               -0.08319331                0.85770752                0.01005999                0.02813166                0.74741162
              11.37273186                8.37354708               66.17540640                0.00010000                0.05338396               -0.10726920                0.00960058                0.11107423                0.21104447               -0.52200005
              12.37525070                7.94253414               65.77202869                0.00010000                0.63898654               -0.18795907               -0.89117935               -1.12886698                8.17195930               -2.26784156
              13.38551159                7.48468999               65.52548738                0.00010000                1.88071338               -0.75023412               -2.49468384               -3.32733160               16.34169344                0.75304267
              14.41286497                6.99147705               65.29090864                0.00010000                3.81877239               -2.05416188               -4.00721471               -6.47733088               17.85401152                3.21887861
              15.46188704                6.45267632               65.08187732                0.00010000                5.77093237               -3.81372382               -5.38649560              -10.90692293               20.41759791                5.17067063
              16.52828361                5.85665183               64.90645418                0.00010000                6.74667833               -4.49509948               -6.36619273              -16.25867145               23.53649752                6.31034797
              17.59682061                5.20166707               64.76701600                0.00010000                5.97606963               -3.11280406               -6.30438340              -20.56916153               26.71268056                5.54763721
              18.64780501                4.49895573               64.66131462                0.00010000                3.55455781               -1.25329841               -4.37587191              -22.98200422               29.38375749                2.58462236
              19.66791176                3.75620899               64.58046713                0.00010000                1.10955808                0.00866991               -0.64445091              -11.52983976               15.21854508               -1.70902398
              20.66999617                3.24289895               64.19865992                0.00010000                0.20844042               -0.00294458               -0.57965593               -0.04712077               -0.06219440               -1.22300039
              10.80627772                9.80484582               66.46055787                0.00010000               -0.08261339               -0.03051150                0.59663655                0.01329473                0.01449107                0.77720375
              11.80545159                9.37283391               66.04730888                0.00010000                0.07412063               -0.02227220               -0.15655345                0.09893717               -0.02911091               -0.44513209
              12.80776014                8.94130065               65.63312699                0.00010000                1.04757782                0.00145557               -0.85924716               -1.40142607                9.12470536               -1.86629278
              13.82640315                8.47986417               65.40407538                0.00010000                2.69869289                0.19972527               -2.89202207               -4.26932990               18.63189006               -2.04996772
              14.86173399                7.97644500               65.18663892                0.00010000                4.52485936               -0.83287108               -4.73360063               -8.30998857               19.98862906                0.27768315
              15.91690033                7.42332870               64.99433874                0.00010000                6.44102131               -2.28217429               -6.21455846              -12.44802792               21.94229451                2.71474854
              16.99055442                6.82082298               64.82153272                0.00010000                7.72449819               -2.98295087               -7.32038239              -16.27940486               23.36865877                3.94410740
              18.07139030                6.17244295               64.66227337                0.00010000                7.58344681               -2.63121007               -7.37344259              -19.27752018               24.08645264                3.69566285
              19.14222336                5.48332031               64.50865543                0.00010000                5.44988913               -1.55084575               -5.36493317              -21.22619573               23.90677116                1.44225525
              20.18038808                4.75531989               64.35596479                0.00010000                2.00499045                0.10603735               -0.51749339              -10.70652362               11.74713409               -2.01597217
              21.18232316                4.24132782               63.97599610                0.00010000                0.19350857               -0.16234837               -0.31330771               -0.09543569                0.10343776               -1.78535769
              11.23847274               10.80472653               66.33883739                0.00010000               -0.02169697               -0.00388222                0.32926494                0.03160303                0.01191382                0.75974061
              12.23825577               10.37310164               65.91958425                0.00010000                0.08595864                0.07291515               -0.29596344                0.14808516               -0.15755691               -0.39034242
              13.24019192                9.94256325               65.49695789                0.00010000                1.33624374                0.18320107               -0.74270966               -0.99395371                7.70259383               -1.49049378
              14.26498065                9.48868449               65.23548044                0.00010000                3.15043731                1.69717609               -3.96421843               -5.82116724               18.65502402               -9.23883368
              15.30320066                8.97481963               65.04687299                0.00010000                5.17839246               -0.00304617               -5.19652285              -10.20838331               23.20702196               -2.06689203
              16.36854850                8.40703284               64.88216390                0.00010000                7.51903037               -1.25433057               -7.19369654              -13.42005018               24.33814277                1.13160816
              17.45358127                7.79699281               64.71565104                0.00010000                9.01121884               -1.92260240               -8.63762057              -16.01698181               24.02403794                2.77716550
              18.54877288                7.14904287               64.54292500                0.00010000                9.34114369               -1.97859166               -9.06279745              -18.16641119               22.70133318                3.07067553
              19.64040414                6.46793882               64.34950329                0.00010000                7.35004509               -1.41798856               -7.42546343              -19.25910521               19.76781159                1.25864283
              20.69577378                5.75832973               64.12775634                0.00010000                2.78337224                0.45211881               -0.98377134               -9.57235476                8.86440919               -1.74400631
              21.69607159                5.23965198               63.74696106                0.00010000                0.02978120               -0.08386572               -0.06657534               -0.12095141                0.51428702               -1.51188856
              11.67015958               11.80476818               66.21706133                0.00010000                0.04169938                0.01240025                0.06585511                0.05627804               -0.02585093                0.69647609
              12.67057657               11.37429221               65.79205043                0.00010000                0.10693135                0.13583843               -0.38563986                0.17807895               -0.19645400               -0.29386077
              13.67229821               10.94496468               65.36362893                0.00010000                0.35734284                0.20705273               -0.55247256                0.12181359                0.70223590               -1.03751799
              14.67772343               10.51380769               64.95650459                0.00010000                3.34598886                1.43235399               -1.58941124               -6.42877039               18.51061492               -8.94868448
              15.73921798                9.97638408               64.89091326                0.00010000                7.43013556               -0.09008786               -5.71150057              -11.31627568               31.53146697               -2.99373466
              16.82632614                9.39824209               64.75649250                0.00010000                9.44933828               -0.99511026               -8.21223493              -12.49204665               27.18422267                0.18594746
              17.92820475                8.78237093               64.59993129                0.00010000               10.53949643               -1.08823072              -10.24117444              -14.11875179               25.24824957                2.00604292
              19.03711607                8.13287111               64.41885629                0.00010000               10.97748212               -1.00471653              -11.22167704              -15.87752309               21.98187065                2.57560965
              20.14775439                7.45496054               64.19059432                0.00010000                9.00558771               -1.10120366              -10.02941576              -16.78704608               16.21903482                0.98445474
              21.21722782                6.76436227               63.90433361                0.00010000                3.47526269                0.53338636               -1.56454127               -8.33853350                6.09664024               -1.58990195
              22.21725964                6.23965051               63.52392958                0.00010000                0.00318213                0.01223776                0.06279275               -0.02299030                0.84987795               -0.92901653
              12.10055024               12.80497454               66.09481830                0.00010000                0.10706167                0.04899498               -0.20163608                0.04220116                0.01681815                0.54225043
              13.10162086               12.37581840               65.66570820                0.00010000                0.12812346                0.15003613               -0.41628982                0.10258411               -0.04735416               -0.12537616
              14.10311271               11.94670431               65.23543985                0.00010000                0.16824919                0.15958735               -0.42952332                0.09713011               -0.07230800               -0.49910399
              15.10498584               11.51733157               64.80581051                0.00010000                4.46640209                0.20507143               -0.26440378               -5.81274612               18.03636129               -1.66662496
              16.19244075               10.97301787               64.73720435                0.00010000               10.38674328               -1.89883654               -5.53698972               -8.29318636               33.72603977               -1.98147715
              17.31272071               10.38713063               64.62740515                0.00010000               12.20682298               -1.35357090               -9.28956739               -8.28077718               29.72530012               -0.14117788
              18.43657721                9.77522820               64.48012655                0.00010000               12.29560511               -0.53041005              -12.07293755               -8.84399856               26.35384500                1.15929015
              19.55863281                9.12894854               64.29399949                0.00010000               11.82974277                0.20835485              -13.78310005              -10.60494596               21.23312814                1.58935181
              20.67317207                8.44591475               64.03506299                0.00010000                9.28401638                0.57883800              -12.95007964              -11.69052327               12.29634593                0.63806246
              21.74431314                7.76899746               63.68445711                0.00010000                3.59316167                0.44069909               -1.97285437               -7.43783491                2.81686530               -1.84257103
              22.74503530                7.23989673               63.30676057                0.00010000                0.07221634                0.07698111               -0.29540158                0.09020116                0.79162499               -0.59934347
              12.52931587               13.80574808               65.97073818                0.00010000                0.15826156                0.07735405               -0.41977716                0.03104829                0.39103368                0.42193016
              13.53089848               13.37729293               65.54132277                0.00010000                0.17058858                0.14745292               -0.55169838                0.04817986                0.38921803               -0.01727488
              14.53272764               12.94815642               65.11250625                0.00010000                0.21282311                0.14521143               -0.62042234               -0.00769773                0.48337015               -0.22338778
              15.53515495               12.51790912               64.68565911                0.00010000                8.54137778                0.05775470               -0.44550471               -7.47054335               18.02623183               -0.18420067
              16.70355520               11.93840735               64.60991544                0.00010000               16.16726591               -3.46105233               -5.84603154               -6.22547804               33.77783125               -1.00915489
              17.85850026               11.37117067               64.50306113                0.00010000               15.29758356               -1.59599612              -10.43352544               -3.75427480               30.11122181               -0.41793459
              19.00950687               10.77176273               64.35723954                0.00010000               14.79151699               -0.34654665              -14.09457765               -4.41365751               26.29088370                0.23162274
              20.15433060               10.13703821               64.16629992                0.00010000               13.21940694                0.80896676              -16.85810086               -5.69149218               20.20573896                0.30827117
              21.27389501                9.46653730               63.89032914                0.00010000                6.00792655                2.06225540              -17.37507751               -8.12080404                7.40198754               -0.56265686
              22.27448914                8.77317625               63.46972210                0.00010000                0.16850567                0.41787895               -3.88743957               -8.24975848               -1.56171741               -3.01518319
              23.27726512                8.24119013               63.09389831                0.00010000                0.27759838                0.12933974               -2.11738621                0.02437013               -0.53002569               -1.01367421
               8.58786678                3.95222090               68.20479920                1.00000000               -0.43727450               -0.53685798                1.88551098               -0.17182761               -0.45795059                0.57660563
               9.58349403                3.50718586               67.81217566                1.00000000               -0.31327071               -0.27169780                1.01408537               -0.13516780               -0.55755775                0.07555134
              10.58160136                3.06159122               67.41688773                0.00010000               -0.06781209               -0.01427934                0.15604451               -0.13233808               -0.56125730               -0.07859041
              11.58213779                2.61499383               67.02407563                0.00010000                0.11532026                0.27263398               -0.72175172               -0.21799176               -0.38950558               -0.48197141
              12.58390777                2.16583130               66.63263687                1.00000000                0.30069751                0.60396336               -1.68306602               -0.26673764               -0.11803261               -0.26101866
              13.58815174                1.71399805               66.24594933                1.00000000                0.24413848                0.90436101               -2.68634225               -0.67987088                0.57443823               -0.60450988
              14.58879054                1.25167319               65.86982056                0.00010000              -11.82849176                1.45373785               -3.57312560              -21.47380063               14.38549706               -1.42099749
              15.35158191                0.36819691               65.76502646                0.00010000              -14.06404368                4.90524749               -5.32341265              -21.20717848               22.30545214                3.15608280
              16.30750966               -0.52451397               65.52673223                0.00010000                5.97251295                3.33516109               -4.86565638              -17.67092558               11.11421338               15.14491147
              17.47103216               -1.43614173               65.16727798                1.00000000                8.51086416                0.78325985               -2.00535472              -19.14766685                2.50734144                0.07426844
              18.47772695               -1.97070247               64.75663588                1.00000000                0.66947828                0.97066831               -2.56888092                0.10563488               -0.10785915               -0.09069816
               9.03118355                4.94685232               68.08086349                1.00000000               -0.37263494               -0.49331964                1.67615098               -0.03803121                0.02156814                0.81320547
              10.02745720                4.50446888               67.68803993                1.00000000               -0.24047742               -0.24276558                0.80456510               -0.00531630                0.08910121                0.11157698
              11.02637400                4.06144842               67.29599079                0.00010000                0.01903190                0.01152697               -0.05843276                0.00410028                0.12337487               -0.27194811
              12.02783783                3.61772017               66.90385516                1.00000000                0.26821431                0.29838494               -0.93421857               -0.05451449                0.46178734               -0.49413678
              13.03173828                3.17187093               66.51913057                1.00000000                0.52971268                0.59329581               -1.94456661               -0.07941507                0.72536645               -0.30091250
              14.03843209                2.72304166               66.13336104                1.00000000                0.76074077                0.89448649               -2.94649721               -0.37054469                0.95003623               -0.57204402
              15.04695310                2.26621056               65.75504214                0.00010000               -0.54141945                1.21616714               -3.93402756              -19.68236638               16.77008720               -0.92220684
              16.02760370                1.41724939               65.68895915                0.00010000               -0.69916834                1.44998483               -5.67426931              -28.17879285               29.08519865                8.26196298
              17.03296973                0.50883764               65.55966153                0.00010000               -1.24769747                4.66100187               -8.23647546              -30.82945774                5.45245595               17.19801255
              18.00264975               -0.42830913               65.02870052                1.00000000               -0.98128469               15.48043216               -3.24981476              -21.02419294               -5.97512164               59.15987159
              19.01334404               -0.96099579               64.61801759                1.00000000                1.06942887               16.76618900               -3.81334724               -1.69034069                0.11382785               61.22545761
               9.47187304                5.94235451               67.96073971                1.00000000               -0.30814346               -0.39392623                1.45156352               -0.04009913                0.18738746                0.96211586
              10.46879160                5.50233055               67.56428195                1.00000000               -0.17204789               -0.18821085                0.58732506               -0.00774260                0.39243612                0.02700043
              11.46843208                5.06182176               67.17144419                0.00010000                0.09166963                0.07497341               -0.27726200                0.00991914                0.85025399               -0.72957530
              12.47062500                4.62096153               66.78426719                1.00000000                0.42829495                0.43598362               -1.11675396               -0.19069792                1.57311613               -0.57343901
              13.47699798                4.17769721               66.40648454                1.00000000                0.78881088               -1.00996483               -2.16794561               -0.93407701                1.72850009                3.78211094
              14.48640121                3.73188778               66.02380630                1.00000000                1.19687503               -2.40817315               -3.14655069               -0.93654747                1.88046730                7.86682225
              15.50093548                3.27599653               65.65123212                0.00010000                2.94888792               -7.58584100               -4.09365103              -19.66719448               24.05224658               15.82107603
              16.54537897                2.39719661               65.71466592                0.00010000                1.77717765               -1.25178998               -6.69914458              -34.57266409               38.35772195               14.91416893
              17.53647903                1.56870607               65.64899952                0.00010000               -1.24986159                6.85741673               -8.06524303              -25.46233445               54.38996148               25.92338662
              18.52038174                0.87346691               66.07191947                1.00000000               -1.35927923               19.10341399              -31.90032417               -8.88432547               41.83011006               53.52667189
              19.50929345                0.36462131               65.70579459                1.00000000               -1.10882919               20.16132543              -29.44574102               -0.16719444                6.88693447               49.00702882
               9.91042949                6.93897380               67.83901798                1.00000000               -0.25943938               -0.28383202                1.22654865               -0.02208578                0.30444008                0.79727276
              10.90783509                6.50070466               67.43820416                1.00000000               -0.12440451               -0.15153800                0.37972193                0.06125537                0.53948814               -0.37543779
              11.90794140                6.06294789               67.04168046                0.00010000                0.01566629                0.08174096               -0.51346161                0.20843427                1.65464220               -1.28278915
              12.90814842                5.62643984               66.66344413                0.00010000               -0.29054521               -0.52546429               -0.81141820               -1.88177584                6.57029068                2.59550336
              13.90213049                5.15167163               66.37624031                0.00010000                0.66267010               -2.30472428               -2.61937322               -3.53713905               10.71388369                7.03049942
              14.92140182                4.67487819               66.08229909                0.00010000                4.30849409               -5.85849060               -4.02991924               -6.48942138               14.38191199               13.87972799
              15.98830038                4.11449374               65.87351332                0.00010000                6.10195274              -12.16589438               -5.54259629              -16.52440489               22.53528345               23.12603451
              17.04344088                3.39221359               65.75753168                0.00010000                2.95761834               -1.25833846               -6.93832328              -25.13394150               34.14985393               15.67294595
              18.04745274                2.64598598               65.79210724                0.00010000               -0.71964371                5.24253205               -8.67010674              -21.64405054               50.97024435               19.24274036
              19.02904800                1.95375915               65.99100781                0.00010000               -0.98806919                4.19622517               -0.34331872               -9.23029657               29.27685050                6.15669492
              20.02769136                1.44223072               65.60624716                1.00000000               -0.13566442                4.06039807               -0.19556447                0.39650780                0.16188505                5.51869859
              10.34796959                7.93667787               67.71503883                1.00000000               -0.19269771               -0.16902921                1.00606503                0.01786870                0.06750400                0.66942897
              11.34604261                7.49929979               67.30622813                0.00010000               -0.05520023               -0.13458425                0.19426261                0.15634119                0.53472262               -0.59131318
              12.34686559                7.06345658               66.90646233                0.00010000               -0.08884379               -0.05281355               -0.66863619               -0.53319971                5.91797009               -1.90563580
              13.34426574                6.61045224               66.60586330                0.00010000                0.54756291               -1.12616335               -1.81777010               -2.35315796               11.61495009                3.39593534
              14.35781684                6.13160273               66.32609302                0.00010000                2.47624685               -2.01327190               -3.24774581               -4.12380560               14.04918123                5.13167120
              15.39379067                5.61471796               66.08470800                0.00010000                4.76475709               -4.96086659               -4.74410032               -8.07995595               17.73058662                8.81707260
              16.45311199                5.03267864               65.89123610                0.00010000                5.87086173               -6.32806176               -6.12287037              -15.56265405               23.07507020               10.64714041
              17.51120791                4.37202984               65.77138365                0.00010000                4.44702392               -2.16622661               -7.00981085              -20.90589276               30.96453918               10.92746747
              18.54205246                3.67355671               65.74263036                0.00010000                1.41615790                1.27546319               -5.30817065              -21.42885191               39.00329986                7.72452808
              19.53953107                2.95739141               65.78598049                0.00010000               -0.08860025                0.40049910               -0.57644546              -10.30002831               21.34893206               -0.33081781
              20.54028046                2.44582927               65.40200468                0.00010000                0.07493924                0.41710899               -0.47242508               -0.00513767               -0.06926347                0.09994970
              10.78554303                8.93559321               67.59042512                0.00010000               -0.13598175               -0.08403144                0.77858991                0.01035146                0.02564766                0.65424382
              11.78418321                8.49801298               67.17563827                0.00010000                0.02909606               -0.08901346                0.02880251                0.14106977                0.20515798               -0.45929800
              12.78612495                8.06189162               66.76422758                0.00010000                0.43779506               -0.08452807               -0.71090389               -0.82494148                7.72085626               -1.97894618
              13.79293911                7.60391657               66.50081986                0.00010000                1.46318554               -0.23122337               -2.38900484               -2.76773667               15.38126427                0.38408567
              14.81538866                7.11140620               66.25064645                0.00010000                3.28938395               -1.46324750               -3.93119652               -5.89362493               16.79661173                2.66485845
              15.85872679                6.57566086               66.02732937                0.00010000                5.21733798               -3.10089002               -5.40165305               -9.92870386               19.25665371                4.69705148
              16.91973542                5.98793251               65.84112631                0.00010000                6.28590822               -3.63827295               -6.64829459              -14.61943393               22.66593335                6.03129834
              17.98444495                5.34888906               65.70189726                0.00010000                5.68893564               -2.21884378               -6.99931238              -18.18215828               27.05895827                5.72229942
              19.03351413                4.67149524               65.61609428                0.00010000                3.31649627               -0.54452065               -5.17276245              -19.97402825               31.95076560                3.15971960
              20.05077488                3.96176913               65.57491689                0.00010000                0.85993838                0.54073070               -0.60714256               -9.93628399               17.08306555               -1.00526295
              21.05071290                3.45057290               65.19417887                0.00010000               -0.00619804                0.48582607               -0.44955065               -0.07784281               -0.05398956               -0.46647275
              11.22333709                9.93499724               67.46615742                0.00010000               -0.07714914               -0.05183896                0.54198226                0.01263675                0.00948418                0.65133398
              12.22256560                9.49751952               67.04596504                0.00010000                0.05630346                0.00119617               -0.12780687                0.15758156                0.00883466               -0.36208707
              13.22446316                9.06176602               66.62561087                0.00010000                0.84154157                0.09130633               -0.70715696               -0.77394833                8.46636305               -1.54682044
              14.23939643                8.60582777               66.37521569                0.00010000                2.18684489                0.83715639               -2.79700992               -3.75013904               17.30354995               -2.36700045
              15.26820006                8.10233778               66.14016516                0.00010000                3.96469266               -0.45981136               -4.44287128               -7.76072342               18.74413056               -0.20144815
              16.31869028                7.55270016               65.93214434                0.00010000                5.96475278               -1.78641330               -6.08239145              -11.20938273               20.56277229                2.15861357
              17.38749511                6.95991318               65.74772495                0.00010000                7.26558644               -2.35675612               -7.35083565              -14.29364489               22.18298210                3.49990741
              18.46400201                6.32765297               65.58847420                0.00010000                7.10983578               -1.98384149               -7.64802436              -16.58313827               24.09101176                3.43745550
              19.52969183                5.66266630               65.45733358                0.00010000                4.88628593               -0.97337830               -5.60640230              -18.08184276               26.45203604                1.69870675
              20.56172773                4.96820603               65.35115308                0.00010000                1.57121178                0.71851929               -0.61618291               -9.10733386               13.75072549               -1.16492672
              21.56111606                4.45554579               64.97366034                0.00010000               -0.06116669                0.37082975               -0.30059002               -0.04019532               -0.00842560               -0.76844996
              11.66075121               10.93455643               67.34188887                0.00010000               -0.01851433               -0.04333547                0.30954961                0.02429405               -0.00065043                0.61531329
              12.66056606               10.49803690               66.91691502                0.00010000                0.07932582                0.09407364               -0.26697832                0.19518246               -0.08163171               -0.28146461
              13.66233772               10.06371775               66.49021152                0.00010000                0.83992518                0.23755822               -0.67028195               -0.13438183                6.93716064               -1.17033146
              14.67736457                9.62065970               66.20573591                0.00010000                2.54820384                1.57637630               -2.09958930               -4.87345205               17.28390967               -8.44108443
              15.71330180                9.10220997               65.99739514                0.00010000                4.97995812               -0.00353649               -4.62603620               -9.53139579               21.64376374               -2.33244650
              16.77696373                8.53993260               65.81147430                0.00010000                7.28039596               -1.09664557               -6.79198005              -11.90342153               22.44760237                0.56424568
              17.85890972                7.94079739               65.63030904                0.00010000                8.65326722               -1.65275446               -8.31325968              -13.76762042               22.24288699                2.25487932
              18.95002907                7.30921223               65.45505701                0.00010000                8.62072468               -1.69892054               -8.66493387              -15.23656239               22.02449017                2.66817793
              20.03132421                6.65202767               65.28586700                0.00010000                6.28598178               -1.14814302               -6.32876858              -16.01308043               21.85071066                1.55965249
              21.07574871                5.97613951               65.12271043                0.00010000                2.19526287                0.67017581               -0.50688228               -7.99026210               10.75392948               -0.70094065
              22.07522947                5.45798949               64.74692825                0.00010000               -0.05192392                0.12655353               -0.04228266               -0.07950646                0.09845751               -0.49993631
              12.09686204               11.93413053               67.21766157                0.00010000                0.04458957               -0.03032196                0.08923610                0.03204792               -0.02834048                0.55189604
              13.09730793               11.49940099               66.78849884                0.00010000                0.11453424                0.14928156               -0.37706090                0.18373796               -0.08203313               -0.16474601
              14.09915272               11.06651718               66.35818787                0.00010000                0.30636185                0.24635924               -0.60028767                0.45404355                1.06830046               -0.73305302
              15.10343517               10.63735530               65.95171292                0.00010000                2.95732628                0.82372306                0.45697207               -5.32269577               16.77908390               -7.73859522
              16.15829925               10.10226705               65.84088949                0.00010000                6.92996325               -0.32983101               -4.47479027              -10.05948001               28.25364464               -3.01990450
              17.24203443                9.53076725               65.67690156                0.00010000                9.22819133               -1.15437888               -7.53647001              -10.87229721               24.49277712               -0.23491495
              18.34286307                8.92685809               65.50073114                0.00010000               10.30030213               -1.20600103               -9.46597976              -11.93461330               22.63504549                1.56044202
              19.44804048                8.29367455               65.31323800                0.00010000                9.98199297               -1.19706963               -9.94457433              -13.12143870               20.52210652                2.32797058
              20.54250293                7.63970344               65.11152042                0.00010000                7.39600971               -1.22261919               -7.22398306              -13.69197850               17.99913455                1.73130757
              21.59596067                6.98160954               64.89963767                0.00010000                2.66615218                0.39838838               -0.37228046               -6.81751989                8.26076039               -0.31773826
              22.59582598                6.45807686               64.52510138                0.00010000               -0.01346944               -0.01503862                0.08589706               -0.05431782                0.13705816               -0.10149847
              12.53085125               12.93394999               67.09302744                0.00010000                0.10029263                0.01411962               -0.12484057                0.00545496                0.06764642                0.42521756
              13.53185417               12.50102253               66.66160917                0.00010000                0.13065185                0.16804842               -0.47693979                0.08385835                0.09894413               -0.02253484
              14.53346428               12.06864493               66.23094244                0.00010000                0.16533056                0.19787401               -0.54248939                0.15476200                0.31574320               -0.30012737
              15.53516078               11.63713416               65.80374000                0.00010000                4.26179820                0.00372220               -0.05167392               -5.44037907               15.82872456               -1.44995230
              16.61870025               11.09561335               65.68771659                0.00010000                9.98829780               -2.17653492               -4.34228954               -7.42047976               29.35225249               -2.07663307
              17.73492674               10.51684502               65.53908747                0.00010000               11.93049522               -1.67744692               -8.29827430               -7.09364914               25.85228398               -0.36717175
              18.85731015                9.91667737               65.36493519                0.00010000               11.99141086               -0.96569917              -10.78104811               -7.38542710               22.59291268                0.90233565
              19.97475496                9.28527083               65.16708812                0.00010000               10.61197507               -0.39760999              -11.56066443               -8.64682559               18.89160934                1.54966437
              21.06954965                8.62757529               64.93753666                0.00010000                7.31349658               -0.17711961               -8.46518350               -9.33116806               14.34727576                1.56920988
              22.12102489                7.98410728               64.67983650                0.00010000                2.58294152                0.19123839               -0.32484679               -5.88709488                5.90893941               -0.21930666
              23.12120848                7.45768872               64.30685386                0.00010000                0.01835948               -0.01462392                0.01493808                0.00611914                0.11940457                0.06083939
              12.96282606               13.93441292               66.96696347                0.00010000                0.14640994                0.04629279               -0.31572797                0.03238501                0.36648480                0.32137559
              13.96429016               13.50276196               66.53573720                0.00010000                0.16551350                0.17394258               -0.65029316                0.04668566                0.45682721                0.07556097
              14.96613633               13.07047466               66.10641915                0.00010000                0.16845066                0.18297265               -0.68785961                0.00059407                0.80446482               -0.09145179
              15.96765917               12.63742974               65.68195107                0.00010000                8.20212329                0.02955813               -0.21844902               -7.33707658               15.79123600               -0.14132898
              17.13017880               12.05873635               65.55712176                0.00010000               15.57191302               -3.68769991               -4.70692237               -5.86271657               28.65806029               -1.22566804
              18.27909743               11.49721831               65.40462795                0.00010000               14.82749599               -1.96267042               -9.15980374               -3.14254259               24.87527111               -0.36231925
              19.42672872               10.90754411               65.22401167                0.00010000               14.25543037               -0.91332566              -12.28991138               -3.63294152               20.92319759                0.30004768
              20.56420604               10.28572235               65.01270252                0.00010000               11.51572046                0.04515204              -13.67541617               -4.62404490               16.18663228                0.62503622
              21.65704313                9.63616104               64.76096650                0.00010000                4.19496519                0.85857531              -10.77808717               -6.26505488                9.88910986                0.62305638
              22.64810534                8.98543431               64.46153918                0.00010000               -0.41288218                0.13270310               -0.53428576               -6.21078755                3.67472864               -0.30890358
              23.64878548                8.45778438               64.08937478                0.00010000                0.06801371                0.00956609               -0.27959229               -0.00729328               -0.08038948                0.02624172
               8.98038020                4.08286938               69.22285005                1.00000000               -0.40359118               -0.49092216                1.72385855               -0.15290025               -0.43732097                0.55694698
               9.97634429                3.63309999               68.82199201                1.00000000               -0.29389049               -0.25458014                0.94941781               -0.11935867               -0.53047828                0.07082394
              10.97450239                3.18280037               68.41859844                0.00010000               -0.07612364               -0.02539902                0.18710002               -0.11750940               -0.53803101               -0.07384130
              11.97482181                2.73156370               68.01749663                0.00010000                0.08600724                0.22752757               -0.59239120               -0.19710389               -0.41348905               -0.46141101
              12.97622253                2.27795796               67.61703808                0.00010000                0.24512921                0.51971256               -1.43399440               -0.24724308               -0.20438117               -0.27527100
              13.97972440                1.82184048               67.22088448                0.00010000                0.05407486                0.78294006               -2.32118545               -0.76546905                0.52298485               -0.60115823
              14.97730403                1.35344096               66.83644702                0.00010000              -11.51868441                1.41423618               -3.09322247              -20.93831293               13.84423814               -1.54746274
              15.74935071                0.47538331               66.71327460                0.00010000              -12.71978809                5.02877788               -4.88920077              -20.76545342               22.70328924                3.18102238
              16.72290827               -0.40466319               66.48066256                0.00010000                6.73671456                2.21995160               -4.41217154              -18.95273844               13.46604832               11.45998252
              17.88408500               -1.29080204               66.14808231                1.00000000                8.36220209                0.78200394               -1.83040359              -17.87062034                4.14638800                0.05327102
              18.89015231               -1.82684371               65.73180172                1.00000000                0.60673097                0.96786234               -2.38946528                0.17738660               -0.09749070               -0.08900535
               9.42862059                5.07796016               69.09690396                1.00000000               -0.34353825               -0.45207197                1.53124688               -0.03312059                0.02797144                0.78566432
              10.42518520                4.63055419               68.69584552                1.00000000               -0.22625737               -0.22811235                0.75680212               -0.00328039                0.09972931                0.10341812
              11.42409544                4.18254638               68.29563748                0.00010000                0.00433878               -0.00093031               -0.01106122                0.00214685                0.13106416               -0.26858513
              12.42527198                3.73383898               67.89522867                1.00000000                0.22581369                0.24957111               -0.78726060               -0.05266131                0.40111246               -0.46148658
              13.42861171                3.28315509               67.50101277                1.00000000                0.45281143                0.51056890               -1.67534617               -0.07814654                0.60515153               -0.29880231
              14.43432821                2.82966988               67.10580968                1.00000000                0.62688860                0.77551328               -2.55830441               -0.40893937                0.83277602               -0.54590402
              15.44114948                2.36758332               66.71811593                0.00010000               -0.67899784                1.14172278               -3.44594259              -19.05168554               16.19190992               -0.92440012
              16.42074825                1.52567109               66.63353834                0.00010000               -1.23379624                1.71707406               -5.48074684              -28.34372475               27.32376328                7.27025936
              17.41647356                0.61753633               66.46848900                0.00010000               -0.21395977                6.34829279               -9.46082075              -30.90003913                8.13369269               17.28315086
              18.41646906               -0.28298200               65.99521252                1.00000000                0.57471420                7.00650906               -3.45360645              -20.61915109               -2.81476770               34.13111198
              19.42796784               -0.81716508               65.57888313                1.00000000                1.14987882                2.32935623               -4.01120080                2.13144682                0.10118745               38.04244627
               9.87452973                6.07382794               68.97461764                1.00000000               -0.28372719               -0.36383719                1.32410877               -0.03484587                0.18752086                0.92386365
              10.87169246                5.62853774               68.57000859                1.00000000               -0.16345949               -0.17767423                0.55829489               -0.00546656                0.39264960                0.01978183
              11.87126054                5.18278177               68.16899771                0.00010000                0.07337129                0.05979602               -0.21109280               -0.00170829                0.86125412               -0.73275392
              12.87315988                4.73655512               67.77387313                0.00010000                0.37840804                0.49154311               -0.96294748               -0.70603590                1.50124809               -0.09997953
              13.87882870                4.28816934               67.38621095                0.00010000                0.69787472               -1.03876458               -1.88096392               -1.28001585                1.58659835                3.65024312
              14.88711738                3.83735075               66.99429369                0.00010000                1.07202052               -2.27368107               -2.75059731               -1.35700506                1.77832924                7.51023702
              15.90026911                3.37627542               66.61272416                0.00010000                2.27029183               -7.06262532               -3.60890222              -19.59286852               22.70574577               15.11263957
              16.93252321                2.50972479               66.64210448                0.00010000                0.66457341               -0.26424153               -7.02523880              -32.47305785               37.82023354               13.80498968
              17.91356058                1.72230267               66.58600599                0.00010000               -1.30599117                8.43087572               -9.71799955              -31.53243293               33.57781477               23.74121708
              18.90640339                0.84932814               66.52387564                1.00000000                4.37934187               22.25054520              -45.92754882              -25.27898563               20.82675829               62.06804356
              20.00114741                0.21974342               66.18865164                1.00000000                9.47440256               23.52588205              -46.21294653              -13.60648076                8.98746844               61.81372765
              10.31850407                7.07068342               68.85073069                1.00000000               -0.23820179               -0.26684070                1.11722740               -0.02132527                0.30154450                0.75440827
              11.31612205                6.62700070               68.44194426                0.00010000               -0.12300862               -0.14094101                0.36776926                0.05324338                0.51787302               -0.36800445
              12.31604389                6.18374230               68.03702336                0.00010000               -0.51791807                0.08091182               -0.41628553                0.28066064                2.09275430               -1.25024360
              13.30576369                5.74366984               67.65991880                0.00010000               -0.69140601               -0.55716517                0.26462457               -1.99806944                6.20795509                1.53145348
              14.30221577                5.26237980               67.35079655                0.00010000                0.66591718               -2.12069106               -2.49322342               -3.84482069                9.66936107                6.70820651
              15.31908203                4.78419626               67.04268198                0.00010000                3.73511465               -5.32181984               -3.77453826               -6.67420643               13.42743510               13.13017585
              16.37691807                4.22633082               66.81740443                0.00010000                5.30889076              -11.01103123               -5.52615785              -16.22673743               21.10731852               21.96000948
              17.42525985                3.52038626               66.68330803                0.00010000                3.46517436               -0.04209977               -7.94848660              -23.98631166               31.66565951               14.97650805
              18.44622155                2.78615384               66.68809641                0.00010000               -0.59056269                5.82935651              -12.43689902              -17.50217125               53.61630505               18.35842637
              19.41344859                2.16202890               66.98678538                0.00010000               -1.56069380               15.76464559               -1.37805087               -5.83361332               34.10071944               33.04350377
              20.41500768                1.65335256               66.60373487                0.00010000                0.15590856               21.78552877               -0.86156075               -4.76441282                0.47853396               31.15506812
              10.76146864                8.06849113               68.72463983                1.00000000               -0.17702088               -0.16901820                0.91769908                0.01106041                0.06104251                0.61677412
              11.75969844                7.62571892               68.30817740                0.00010000               -0.06320143               -0.11882479                0.19268882                0.14096955                0.51306374               -0.56137731
              12.76020462                7.18440000               67.90043485                0.00010000               -0.25687188                0.00321899               -0.54895919               -0.59323845                5.74427485               -1.76216595
              13.75456100                6.72541182               67.58925610                0.00010000                0.06006241               -1.03252679               -1.67447575               -1.88450793               11.02965953                2.37896940
              14.76140586                6.24575552               67.29459416                0.00010000                1.75606144               -1.58388603               -2.96211818               -3.72127730               13.06342472                4.49053577
              15.78968223                5.73091435               67.03758146                0.00010000                3.90692473               -4.25076241               -4.55977676               -7.61212527               16.54705880                8.17588067
              16.83954436                5.15605479               66.82826705                0.00010000                5.16458644               -5.27709333               -6.24227212              -14.59576146               21.59177500               10.01851424
              17.89297396                4.50888280               66.69509461                0.00010000                4.11650749               -1.06818759               -8.29184089              -18.96965201               30.26620841               10.65388513
              18.92187451                3.83888980               66.68242884                0.00010000                1.47792247                3.06465328               -7.84700620              -18.83413071               41.72856758                9.52685430
              19.92253241                3.16462105               66.78047039                0.00010000                0.06686713                0.44511142               -0.72416734               -8.26979563               23.91045614               -0.33533767
              20.92321185                2.65545399               66.39770210                0.00010000                0.06794459                0.42806362               -0.46282568               -0.14746907               -0.10818652                0.16948107
              11.20426968                9.06730305               68.59786323                0.00010000               -0.12371196               -0.10411868                0.71624921                0.00129185                0.02060026                0.58423217
              12.20303256                8.62462421               68.17598245                0.00010000                0.01082722               -0.07017540                0.03363292                0.14900150                0.21902809               -0.41554834
              13.20448623                8.18380668               67.75781061                0.00010000                0.18427235               -0.00098485               -0.60230084               -0.69863891                7.26297659               -1.78527730
              14.20671801                7.72301930               67.47770729                0.00010000                0.89007351                0.10981449               -2.16058389               -2.48728746               14.43422121               -0.18229019
              15.22228770                7.23070208               67.21228471                0.00010000                2.49111205               -1.00440891               -3.63073031               -5.27781015               15.79765184                2.00468522
              16.25654025                6.69918101               66.97384426                0.00010000                4.23733446               -2.42791538               -5.14523112               -8.94996823               18.03374458                4.01612304
              17.30703439                6.12078895               66.77348829                0.00010000                5.32457750               -2.72081950               -6.70173118              -13.09093278               21.33204946                5.50087951
              18.36303180                5.49902251               66.62702975                0.00010000                5.33831482               -1.04252480               -7.94923791              -16.13570482               26.52550631                5.53157630
              19.41380068                4.84744691               66.55785937                0.00010000                3.42283402                0.43159641               -7.50273438              -17.06903459               34.04475312                3.15795566
              20.43148848                4.17093113               66.56832428                0.00010000                0.82958667                0.98033831               -1.06554143               -8.44948293               19.41622664               -0.89917677
              21.43039242                3.66191383               66.18966891                0.00010000               -0.10960651                0.88777269               -0.58738137               -0.20531591                0.01752546               -0.25864475
              11.64685217               10.06640875               68.47139751                0.00010000               -0.06773331               -0.08872031                0.51676694               -0.00244604                0.00178497                0.57561718
              12.64617483                9.62431542               68.04475274                0.00010000                0.04922878                0.01571684               -0.12611338                0.16197401                0.05565256               -0.31634121
              13.64783674                9.18438031               67.61898385                0.00010000                0.58725103                0.13864712               -0.65300182               -0.55396489                7.82536465               -1.37539957
              14.65791986                8.72760811               67.34813518                0.00010000                1.59256051                1.01731359               -2.41106918               -3.09778769               16.11840188               -2.25027257
              15.67968795                8.22566734               67.09778149                0.00010000                3.13380667               -0.16278575               -3.95899922               -6.86011054               17.67820816               -0.76941005
              16.72059599                7.68235604               66.87269091                0.00010000                4.90981260               -1.28102358               -5.64324448               -9.79912705               19.18856039                1.45156708
              17.77788421                7.10163840               66.67451601                0.00010000                6.15029578               -1.58523733               -7.15277387              -12.32509157               20.73585925                2.87295403
              18.84360190                6.48803230               66.50931288                0.00010000                6.53504939               -1.06899409               -8.08957375              -14.17218827               23.44997116                3.09092837
              19.90858519                5.84752172               66.39652739                0.00010000                4.77369593               -0.12509415               -7.66088166              -15.39201134               28.17877222                1.79595951
              20.93907582                5.18422782               66.34364113                0.00010000                1.42774724                1.24476016               -1.35798545               -7.80048209               15.97941286               -0.94357713
              21.93714014                4.67320945               65.96998430                0.00010000               -0.19356847                0.81491909               -0.59476048               -0.14120320                0.09322413               -0.44514221
              12.08840744               11.06552865               68.34502838                0.00010000               -0.01069482               -0.08706111                0.32880829               -0.00570637               -0.00986274                0.55284976
              13.08830049               10.62493855               67.91424469                0.00010000                0.08533975                0.09938615               -0.28523150                0.16428808                0.00280782               -0.23577028
              14.09011424               10.18657963               67.48355225                0.00010000                0.75873642                0.25961944               -0.70109592                0.05202087                7.04283940               -1.01988613
              15.10347522                9.74336558               67.19348866                0.00010000                2.01116599                1.67117963               -1.31969345               -4.32248180               16.50826334               -7.48831076
              16.13033756                9.22744636               66.95435227                0.00010000                4.05557144               -0.00014039               -3.77951831               -8.51953736               19.84778662               -2.65664224
              17.18458665                8.67356054               66.74632430                0.00010000                6.22593696               -0.82127132               -6.09499407              -10.13090581               20.66594898               -0.11503435
              18.25485630                8.08908420               66.54938585                0.00010000                7.45590325               -1.13423918               -7.73435433              -11.46164541               20.52211747                1.59378005
              19.33370472                7.47764263               66.36962633                0.00010000                7.74543221               -1.03164458               -8.52443058              -12.54860812               21.31542150                2.44313153
              20.40976494                6.84494502               66.22292792                0.00010000                5.80432015               -0.48023469               -7.44678357              -13.45320338               24.05663784                1.94409943
              21.44979112                6.19582634               66.11761869                0.00010000                1.99200801                0.83268051               -0.80817305               -6.84732828               13.22236496               -0.40938467
              22.44960510                5.67821221               65.74611540                0.00010000               -0.01860188                0.22427414               -0.19995601               -0.16475036                0.08828729               -0.27032950
              12.52791824               12.06466753               68.21884605                0.00010000                0.04913760               -0.06758260                0.15432667               -0.01982620               -0.01762936                0.51269588
              13.52840962               11.62630314               67.78450921                0.00010000                0.12659455                0.15953998               -0.44733165                0.11447050                0.05953030               -0.12750638
              14.53045013               11.18957270               67.35162317                0.00010000                0.10969333                0.29454240               -0.75745862                0.59555385                2.49436651               -0.58266231
              15.53060348               10.76103170               66.96564403                0.00010000                2.43260554                0.73643998                3.43537224               -5.12986011               16.89972276               -8.61247780
              16.57910224               10.22566453               66.80141746                0.00010000                6.28682735               -0.60967113               -3.63227830               -9.06501570               24.95360433               -3.15221292
              17.65634003                9.66593062               66.60576310                0.00010000                8.27334838               -1.07498695               -6.50026588               -8.93748892               22.02981760               -0.79981168
              18.74456921                9.07895362               66.41061169                0.00010000                9.02144466               -0.95449108               -8.43357238               -9.64763441               20.51518374                1.06287110
              19.83676892                8.46739941               66.21996480                0.00010000                8.83841037               -0.85826595               -9.12043684              -10.54388879               19.80436202                2.27150829
              20.92133742                7.83791703               66.04611466                0.00010000                6.60465727               -0.85460819               -7.09199622              -11.44568581               20.99748431                2.24744002
              21.96886207                7.20088143               65.89688800                0.00010000                2.38679810                0.34417394               -0.36427046               -5.84192468               11.05223383               -0.04189877
              22.96907338                6.67769493               65.52564752                0.00010000                0.02113105               -0.06860431                0.02409535               -0.12947123                0.01894632               -0.01478903
              12.96473970               13.06417699               68.09232149                0.00010000                0.09450355               -0.01820011               -0.01222181               -0.04577169                0.10876182                0.40314220
              13.96568474               12.62812935               67.65616941                0.00010000                0.12785223                0.21224786               -0.64858741                0.02316039                0.33896545               -0.00948331
              14.96729675               12.19247047               67.22459007                0.00010000               -0.04492802                0.29006312               -0.81112962                0.10589814                1.16857115               -0.18914845
              15.96478618               11.75809437               66.80477703                0.00010000                3.84207899               -0.11856576                3.40953813               -5.37719775               17.00841103               -3.99968451
              17.04413833               11.21525294               66.65035856                0.00010000                9.38808034               -2.52904414               -3.41787499               -6.55481463               26.66434553               -2.57071193
              18.15254779               10.65206080               66.46143966                0.00010000               10.81482410               -1.65436466               -6.97243928               -5.62414075               22.49956836               -0.60589171
              19.26043481               10.06999438               66.26450559                0.00010000               10.56578707               -0.96714482               -9.21822664               -5.81282279               19.86331762                0.63852157
              20.36386353                9.46047731               66.06278620                0.00010000                9.34671963               -0.45446394               -9.90964586               -6.89010127               18.05585301                1.63120513
              21.44736920                8.82785286               65.86575932                0.00010000                6.46555988               -0.28891452               -7.21455454               -7.81321821               18.00464413                1.90527260
              22.49317473                8.20270981               65.67796018                0.00010000                2.30097361                0.13556946               -0.20931131               -5.01496849                9.13973590                0.03044866
              23.49338868                7.67684013               65.30705933                0.00010000                0.02139502               -0.05109016                0.02078334               -0.04133119               -0.00035555                0.05901356
              13.39909810               14.06430353               67.96442362                0.00010000                0.14812412                0.01265363               -0.17855602                0.06029639                0.37620511                0.30338064
              14.40057934               13.63054810               67.52831691                0.00010000                0.17524808                0.24187503               -0.88738066                0.04298175                0.70825717                0.08266199
              15.40260306               13.19537396               67.09874906                0.00010000               -0.01511410                0.29034837               -0.94668468               -0.06375390                1.66475787               -0.00206185
              16.40027706               12.75866039               66.68129013                0.00010000                7.57182295                0.05660124                3.43146893               -7.46542705               19.29844564               -4.28508206
              17.55403952               12.17508365               66.51577699                0.00010000               14.44193546               -4.01692878               -3.78943748               -5.30073383               25.38340204               -0.95574750
              18.68911577               11.63284332               66.31986506                0.00010000               13.29283613               -1.92174787               -7.51550336               -2.11684795               20.69548006               -0.31110390
              19.81989625               11.05961072               66.11144131                0.00010000               12.59963249               -1.03836596              -10.11321898               -2.78051599               17.27756325                0.39091954
              20.94110842               10.45831013               65.89279160                0.00010000               10.14721501               -0.21671762              -11.05410495               -3.64910984               14.81389610                0.93946586
              22.02284055                9.83213874               65.67476739                0.00010000                3.92335057                0.42858810               -8.29336301               -5.18873136               14.49993862                1.23453174
              23.01957543                9.20359282               65.45903639                0.00010000               -0.14272066                0.08830049               -0.25711676               -5.13321002                7.74810022                0.02509292
              24.01998613                8.67667313               65.08830646                0.00010000                0.04107006               -0.01669991               -0.09001890               -0.03222359               -0.00482467                0.04233572
               9.38083645                4.21525203               70.23927637                1.00000000               -0.37003626               -0.44540044                1.56162342               -0.13332957               -0.41953984                0.53884603
              10.37713608                3.76089532               69.83116401                1.00000000               -0.27501618               -0.23746648                0.88538552               -0.10256860               -0.50717974                0.06662063
              11.37533612                3.30603631               69.42062973                0.00010000               -0.08538613               -0.03588601                0.21938810               -0.10208950               -0.51750084               -0.06981088
              12.37542836                2.85030153               69.01222781                0.00010000                0.05480849                0.18124100               -0.46093544               -0.17734646               -0.42732292               -0.43910700
              13.37643229                2.39237651               68.60395699                0.00010000                0.18870710                0.43455063               -1.18415438               -0.22605107               -0.26884481               -0.28657327
              14.37920250                1.93212448               68.19952562                0.00010000               -0.15735581                0.65898775               -1.95263025               -0.87132542                0.49482072               -0.59292724
              15.37328518                1.45738611               67.80795611                0.00010000              -10.88851786                1.40593024               -2.60128041              -20.06398374               13.31883223               -1.67930296
              16.16143215                0.59128989               67.66724244                0.00010000              -11.56311258                4.25348124               -4.19354410              -20.19029155               23.13637263                3.14135363
              17.14202293               -0.27096720               67.43848880                0.00010000                7.06943094                2.01244351               -3.91756241              -16.83668371               15.82219249                7.33588989
              18.30282077               -1.12933674               67.13066991                1.00000000                8.31576931                0.78565106               -1.65905443              -16.46996024                5.67764481                0.02809511
              19.30833831               -1.66664540               66.70884658                1.00000000                0.55175462                0.96486145               -2.20261626                0.23795879               -0.09366372               -0.09237059
               9.83385986                5.21079803               70.11148843                1.00000000               -0.31415984               -0.41234894                1.38571911               -0.02748225                0.03211860                0.76015114
              10.83071826                4.75852066               69.70317597                1.00000000               -0.21238666               -0.21339437                0.70956539                0.00039256                0.10684841                0.09640702
              11.82961213                4.30567745               69.29576957                0.00010000               -0.01167330               -0.01277552                0.03793514                0.00248907                0.13819579               -0.26491954
              12.83048480                3.85211394               68.88810995                0.00010000                0.18240887                0.19851409               -0.63666293               -0.04735365                0.35392741               -0.43326066
              13.83326030                3.39672202               68.48562365                0.00010000                0.37498265                0.42708919               -1.40290460               -0.07612444                0.50801089               -0.29167599
              14.83798445                2.93871436               68.08219495                0.00010000                0.49011665                0.65478648               -2.16629562               -0.45122597                0.73106335               -0.51969413
              15.84306264                2.47144542               67.68612329                0.00010000               -0.71392800                1.07873493               -2.95372193              -18.54676119               15.39100496               -0.93874821
              16.82370589                1.63382470               67.57934422                0.00010000               -0.45466171                1.61184128               -5.23910929              -27.76092540               25.06377964                6.56308880
              17.83396940                0.74915723               67.37044512                0.00010000                0.61271886                4.74451007               -9.23153775              -28.55318468               10.36654363               13.90267464
              18.83596027               -0.12148023               66.95962839                1.00000000                0.70285821               12.62958284               -3.65927121              -18.73517720                0.57710503               18.28410499
              19.84802657               -0.65699679               66.53779357                1.00000000                1.20663016               12.13447600               -4.19833555               -0.99403142                0.09732940               20.65887375
              10.28484154                6.20700505               69.98722189                1.00000000               -0.25770222               -0.33791320                1.19721231               -0.02909321                0.18631064                0.89024328
              11.28226452                5.75662744               69.57544784                1.00000000               -0.15244566               -0.16724467                0.52936243               -0.00213195                0.38955463                0.01316751
              12.28179263                5.30578080               69.16722234                0.00010000                0.05861008                0.04142207               -0.14279859               -0.00729020                0.86267856               -0.72890178
              13.28343672                4.85427181               68.76500824                0.00010000                0.32583768               -0.52140010               -0.80328968               -0.84064801                1.43852227                0.90570839
              14.28830938                4.40091829               68.36886527                0.00010000                0.60089336               -0.96347314               -1.58903319               -1.47786838                1.46925489                3.41852869
              15.29545459                3.94522021               67.96879436                0.00010000                0.94651166               -2.22602065               -2.34939112               -1.82996465                1.67678370                7.13065913
              16.30723961                3.47896081               67.57905408                0.00010000                1.65236172               -6.66471829               -3.12068207              -19.74677169               21.30327118               14.23066472
              17.32850182                2.62352672               67.57416115                0.00010000                0.95122749                0.24644540               -7.03454113              -33.63408042               33.91028963               12.10111454
              18.32626416                1.82392300               67.45463953                0.00010000                0.28847133                8.37872094              -12.22035807              -25.89698574               20.35477889               20.13091714
              19.33427125                1.12325492               67.15336850                0.00010000                1.66133239               23.97573474              -39.92956726              -14.42076117                9.70736754               62.68481085
              20.35949081                0.57604412               66.78153566                1.00000000                2.52195637               25.66392054              -46.78993513               -6.95425597                3.15586402               68.86508328
              10.73403323                7.20403976               69.86136253                1.00000000               -0.21333496               -0.25621227                1.01026276               -0.02271136                0.29801346                0.72277895
              11.73189988                6.75517576               69.44555955                0.00010000               -0.11056399               -0.12966935                0.35409595                0.03552415                0.50203025               -0.36557403
              12.73182195                6.30650589               69.03335475                0.00010000               -0.66827713                0.08226071               -0.31415870               -0.73050375                3.05444704               -1.21620883
              13.71853434                5.84168593               68.66873662                0.00010000               -0.95337091               -0.70143335                0.17948421               -2.08952192                6.35017309                1.33962246
              14.71275453                5.37745255               68.32637584                0.00010000                0.24041504               -2.04965039               -2.12921058               -3.25206893                8.42955592                6.35608061
              15.72334264                4.89419395               68.00680832                0.00010000                2.85330852               -4.90734576               -3.34498927               -7.18485624               12.73596995               12.31549611
              16.76982070                4.33815105               67.76299017                0.00010000                4.13597267              -10.09978685               -5.17995520              -16.76228117               19.44059464               20.49948831
              17.80606209                3.63875361               67.59856195                0.00010000                2.32403920                0.89295521               -8.24989890              -24.37754637               27.46964772               13.22376190
              18.81630149                2.91673165               67.54336926                0.00010000               -0.53190815                8.52039197              -15.91668726              -15.78676347               54.11466872               18.40740560
              19.79542393                2.35803447               67.96344679                0.00010000               -0.64692147               12.29454237              -12.27430719               -4.61271782               39.42784444               44.14717729
              20.80336306                1.85628162               67.58901594                1.00000000                0.79391279               14.36203714               -7.32638221               -2.96715972                2.47202197               46.33350572
              11.18211531                8.20188081               69.73339281                1.00000000               -0.16064322               -0.17597914                0.83377699               -0.00050792                0.05185360                0.58742206
              12.18050888                7.75403405               69.31008191                0.00010000               -0.07214636               -0.10245478                0.18708740                0.11308569                0.50388734               -0.54581154
              13.18067238                7.30742601               68.89548315                0.00010000               -0.49046311                0.05655929               -0.45209057               -0.79766036                5.48248067               -1.66644395
              14.17069961                6.84024314               68.57237378                0.00010000               -0.49561970               -0.01471197               -1.52294260               -1.94428097               10.57707925                1.16453541
              15.17075999                6.35992529               68.26685066                0.00010000                1.01796757               -1.45699920               -2.60451442               -3.53598267               12.50441026                4.07259643
              16.19105896                5.84707330               67.99351247                0.00010000                2.83371704               -3.66600401               -4.13592648               -7.40523745               15.63158104                7.45001708
              17.22743433                5.27696507               67.76639066                0.00010000                3.56556623               -4.32249560               -5.98900061              -14.11586307               19.92976538                9.16187379
              18.26237029                4.64138582               67.60554683                0.00010000                3.19068545                0.32743514               -8.76589800              -17.90561630               28.27598923               10.08670130
              19.29124804                3.99433084               67.58569023                0.00010000                2.00483170                5.19120754              -12.75228825              -15.77134376               43.55215282               10.82739868
              20.30246692                3.36914577               67.77149714                0.00010000                0.62026371                1.12901931               -4.37232842               -5.95900184               26.96459338               -1.99297948
              21.30365331                2.86328486               67.39274817                0.00010000                0.11863876                0.84180942               -1.81179339               -0.33553603               -0.39467038               -1.55030678
              11.62971659                9.20052018               69.60475011                0.00010000               -0.11001970               -0.12681856                0.66242915               -0.01200014                0.01462835                0.55912288
              12.62861639                8.75312667               69.17631093                0.00010000               -0.00284694               -0.05517940                0.02979167                0.13501635                0.24381532               -0.39856704
              13.62965965                8.30763707               68.75218156                0.00010000               -0.07334748                0.05451864               -0.54074914               -0.74096684                6.90033579               -1.69536561
              14.62714944                7.84139170               68.45760819                0.00010000                0.27725359                0.23989050               -1.83459881               -2.35286450               13.68999894               -0.41954472
              15.63520472                7.34831257               68.17803184                0.00010000                1.55243296               -0.75216352               -3.16527994               -4.70346620               15.04884992                1.43519596
              16.65819810                6.82087387               67.92442474                0.00010000                2.89930992               -1.89109145               -4.65107105               -8.09717111               17.10021290                3.34679322
              17.69319092                6.25170114               67.70709169                0.00010000                3.61929499               -1.77451872               -6.40696081              -11.87077789               20.02562399                4.77606997
              18.73058400                5.64530231               67.54291250                0.00010000                3.99618727                0.27445677               -8.47591449              -14.12627816               24.99296949                5.32243366
              19.77311466                5.02055580               67.46603959                0.00010000                3.83529368                1.95930491              -10.78420326              -14.84982364               35.54666568                2.71046186
              20.80728987                4.38061485               67.55360606                0.00010000                1.76297443                1.54471533               -7.64592461               -7.10229204               21.98152699               -0.75637135
              21.80837415                3.87311781               67.18243124                0.00010000                0.10842794                1.34557934               -3.53698591               -0.41765917                1.48713696               -0.98595824
              12.07666233               10.19934444               69.47649276                0.00010000               -0.05700165               -0.11776465                0.49886021               -0.02115994               -0.00505831                0.56992592
              13.07609231                9.75293046               69.04344277                0.00010000                0.04628454                0.02191785               -0.13767602                0.13269507                0.11327375               -0.31344624
              14.07758802                9.30851638               68.61255083                0.00010000                0.34372583                0.15218160               -0.65070833               -0.67993078                7.47169029               -1.33164130
              15.08296683                8.84504095               68.32699431                0.00010000                0.98102360                0.59964708               -1.91165245               -2.70269931               15.26888385               -2.18606107
              16.09720849                8.34488202               68.06098517                0.00010000                2.13800739               -0.14357058               -3.35162459               -5.67861546               16.74414863               -0.98707409
              17.12572697                7.80925147               67.81927946                0.00010000                3.41909177               -0.81570759               -4.98542096               -8.31781445               18.09445421                0.78561496
              18.16559032                7.24147470               67.60466947                0.00010000                4.26315427               -0.75619159               -6.67028552              -10.47586968               19.52725563                2.14487931
              19.21099006                6.64687496               67.42668273                0.00010000                4.66743497                0.10603127               -8.29662479              -11.78731615               21.92937272                2.59539242
              20.25893902                6.03351694               67.30411594                0.00010000                4.84345090                1.03832916               -9.78743841              -12.77424709               29.39664072                1.72061313
              21.30785908                5.40004007               67.32399338                0.00010000                2.56775968                1.70450498              -10.32627209               -6.68009240               18.23158272                0.00444171
              22.31029422                4.89019644               66.96176513                0.00010000                0.24351400                1.19009341               -6.33091395               -0.40298121                3.58710154               -0.29758993
              12.52212134               11.19816489               69.34846504                0.00010000               -0.00229938               -0.11265512                0.34680088               -0.03394578               -0.01214786                0.58001930
              13.52209834               10.75356503               68.91121039                0.00010000                0.09146013                0.09978390               -0.31976513                0.10724631                0.10722906               -0.25450196
              14.52395054               10.31068070               68.47618960                0.00010000                0.73157382                0.26548699               -0.78986723               -0.49315849                7.12840278               -1.01786266
              15.53672982                9.85338464               68.17934204                0.00010000                1.67356757                0.43882079               -1.19117349               -2.82855172               15.82918049               -4.25006126
              16.55742189                9.34544116               67.92180477                0.00010000                2.92596526               -0.08327594               -2.96658689               -6.43905748               18.43354511               -2.87260687
              17.59524913                8.80455972               67.68957441                0.00010000                4.43140733               -0.47979078               -5.18385979               -8.05771366               19.07842616               -0.69450655
              18.64605004                8.23657731               67.47562195                0.00010000                5.37731560               -0.42394627               -6.95250385               -9.18810266               19.11858912                0.86814457
              19.70279544                7.64742294               67.28456840                0.00010000                5.92072830               -0.04650539               -8.33279011               -9.88101149               20.02834316                1.81623076
              20.76446461                7.04132239               67.13693133                0.00010000                5.71065403                0.41519491               -9.42852785              -10.30637939               25.61180748                2.63517774
              21.81700852                6.41470495               67.10654697                0.00010000                2.77685902                1.01950037               -6.60895146               -5.73946499               15.26658490                0.38132896
              22.82000179                5.89691968               66.74292913                0.00010000                0.29932666                0.33203525               -3.13613032               -0.35894571                1.68931404               -0.09467133
              12.96518313               12.19709133               69.22074811                0.00010000                0.05382862               -0.08648101                0.20396879               -0.05605388               -0.00445376                0.57594106
              13.96572142               11.75492614               68.77955221                0.00010000                0.13610520                0.17300703               -0.53033692                0.05006765                0.23401306               -0.19123905
              14.96790524               11.31382612               68.34303869                0.00010000                1.29569603                0.35276886               -0.97821668               -0.84156144                6.17109140               -0.60232782
              15.99163534               10.85381737               68.02042037                0.00010000                2.46735118               -0.59451317                3.01294856               -2.88894678               16.45822414               -5.12709856
              17.01725226               10.34321650               67.76824393                0.00010000                4.09006072               -0.78007918               -2.55279994               -5.81295378               20.36788292               -3.34559633
              18.07343655                9.79965565               67.54689624                0.00010000                6.08563948               -0.69672436               -5.31228182               -6.73493863               20.08970681               -1.21332936
              19.13896505                9.23299577               67.33205970                0.00010000                6.75940976               -0.39795648               -7.27792570               -7.32654392               18.73835679                0.44947034
              20.20862475                8.64594485               67.13082927                0.00010000                7.32821864               -0.11774003               -8.53094481               -7.96760421               18.88739366                1.81454234
              21.28552942                8.04182084               66.96968050                0.00010000                6.44238700               -0.21471872               -9.07589694               -8.77554090               22.96359638                3.21091233
              22.33747249                7.42043008               66.89235226                0.00010000                2.65782173                0.39314549               -2.39971818               -4.97363089               13.46886170                0.47069286
              23.33868586                6.89683715               66.52558329                0.00010000                0.12133684               -0.03548144               -0.53729032               -0.20922934               -0.00957815                0.00115544
              13.40533065               13.19643527               69.09278300                0.00010000                0.10342582               -0.04075303                0.06884006               -0.07198707                0.10288837                0.48690449
              14.40636491               12.75702517               68.64863742                0.00010000                0.14487162                0.25970282               -0.80901401               -0.01453658                0.62297844               -0.12497565
              15.40822808               12.31773608               68.21471985                0.00010000                2.15978010                0.41446602               -1.15234205               -1.84888783                5.69360677               -0.21777399
              16.44956051               11.84149437               67.87193076                0.00010000                4.35482236               -2.75577262                4.11107353               -2.14658496               16.86552442               -3.45583416
              17.49532453               11.32983957               67.61935909                0.00010000                6.06052826               -1.72159843               -2.21140277               -3.44247480               21.32670272               -2.50168695
              18.57077108               10.79062523               67.39963868                0.00010000                7.89527186               -1.27551047               -5.44892904               -3.86576180               20.01449633               -0.83661810
              19.65322997               10.22861818               67.18057066                0.00010000                8.19236082               -0.57523612               -7.61602407               -4.25843512               17.71076807                0.26137073
              20.73461829                9.64506814               66.96889521                0.00010000                8.06192938               -0.07219900               -8.80936498               -5.15285130               17.33223816                1.43566236
              21.81446855                9.03702801               66.79324557                0.00010000                6.39506478                0.05073445               -8.72317409               -6.36162952               20.37621629                2.66135776
              22.86251959                8.42256786               66.67565028                0.00010000                2.42672528                0.16768335               -0.79761363               -4.43810883               12.04400574                0.43824720
              23.86300306                7.89621005               66.30726953                0.00010000                0.04834723               -0.03501580               -0.05122233               -0.06263248               -0.25142279                0.02366657
              13.84256359               14.19627627               68.96339235                0.00010000                0.15662810               -0.01589941               -0.06738454                0.10768621                0.35786346                0.40021146
              14.84412987               13.76012019               68.51798959                0.00010000                0.19473409                0.30950281               -1.10048271                0.06845478                1.11068185               -0.07598975
              15.84645827               13.32211544               68.08748546                0.00010000                4.62351378                0.43793608               -1.28130424               -4.24789503                6.47771460               -0.01385802
              16.93660015               12.79870192               67.75058045                0.00010000                7.64068177               -4.27924586                3.62988884               -1.96258208               18.63963613               -3.22826454
              17.99927191               12.30878453               67.48133301                0.00010000                8.03712840               -2.10550458               -2.32185131               -0.83308574               19.71215751               -0.79715343
              19.09734272               11.77414545               67.25431788                0.00010000               10.00407652               -1.64797849               -5.64836868               -1.70750988               17.98051238               -0.23564422
              20.19935344               11.22149105               67.02174729                0.00010000                9.99075852               -0.71271238               -7.85959491               -1.86988175               14.70337564                0.34749845
              21.29715789               10.64450087               66.79162043                0.00010000                9.07218346               -0.05672707               -9.11913083               -2.67881702               13.68201518                1.09484148
              22.38079711               10.04283553               66.59509924                0.00010000                4.61851955                0.58075124               -9.19923408               -4.40300078               17.17587240                2.18135134
              23.38952828                9.42378375               66.45639685                0.00010000                0.46758650                0.12158842               -0.76921369               -4.63406574               11.36393941                0.54703924
              24.39014884                8.89613683               66.08757440                0.00010000                0.06205609               -0.00732145               -0.20858418               -0.05011368                0.02533207                0.03701833
               9.78821411                4.34922218               71.25408252                1.00000000               -0.33667803               -0.40045154                1.40069425               -0.11399145               -0.40573887                0.52356707
              10.78484733                3.89040849               70.83969972                1.00000000               -0.25627684               -0.22099937                0.82231885               -0.08551525               -0.48910630                0.06305535
              11.78308858                3.43112447               70.42298620                0.00010000               -0.09496180               -0.04690896                0.25163479               -0.08588038               -0.50104566               -0.06697850
              12.78294810                2.97101728               70.00827792                0.00010000                0.02296224                0.13760470               -0.33016168               -0.15672894               -0.43446675               -0.41813138
              13.78354782                2.50889318               69.59335500                0.00010000                0.13367982                0.35201100               -0.94068201               -0.20478868               -0.31537291               -0.29464399
              14.78562169                2.04464329               69.18183188                0.00010000               -0.37919815                0.53639780               -1.59285718               -0.98581809                0.49294312               -0.58315567
              15.77596386                1.56352054               68.78442141                0.00010000              -10.20381102                1.41898505               -2.10402055              -18.94617708               12.94308547               -1.81397691
              16.58154547                0.71400683               68.62940372                0.00010000              -10.00196027                3.60073275               -3.34782506              -18.65327450               23.51631262                2.93461250
              17.57592465               -0.12185804               68.40231131                0.00010000                7.28673214                0.12971254               -3.30964879              -16.34863520               17.93382543                4.07283995
              18.72728011               -0.94815709               68.11490122                1.00000000                7.80005220                0.81586053               -1.50427063              -14.89809399                6.93294149                0.04334694
              19.73192570               -1.48658510               67.68774939                1.00000000                0.46455813                0.99084106               -1.99801946                0.32303644               -0.05135748               -0.05501251
              10.24588788                5.34521766               71.12461834                1.00000000               -0.28468502               -0.37317346                1.24105190               -0.02242042                0.03396163                0.73864994
              11.24304103                4.88819850               70.71003682                1.00000000               -0.19812535               -0.19954887                0.66280413                0.00367430                0.11033179                0.09036653
              12.24192538                4.43065538               70.29639618                0.00010000               -0.02722904               -0.02529616                0.08757701                0.00299842                0.14369271               -0.26144563
              13.24249645                3.97239333               69.88249541                0.00010000                0.13807772                0.15126689               -0.48715434               -0.04513941                0.31886646               -0.40657444
              14.24468693                3.51241329               69.47295468                0.00010000                0.29766901                0.34472716               -1.13399211               -0.07531002                0.43248786               -0.28207015
              15.24844983                3.05000727               69.06248377                0.00010000                0.35666918                0.53536322               -1.78146222               -0.49301772                0.64356334               -0.49512628
              16.25182031                2.57771039               68.65904149                0.00010000               -0.53739090                1.02506486               -2.46724913              -17.74946112               14.48898448               -0.95998134
              17.23770201                1.75001416               68.52875615                0.00010000               -0.41500251                0.92612590               -4.78739616              -27.23366078               23.00299148                5.79723390
              18.24352026                0.87943909               68.28385825                0.00010000                1.14803461                3.69274540               -7.20188857              -26.22442476               11.65394154               11.40762712
              19.26066271                0.06000151               67.92202710                1.00000000                1.50319016                2.36815233               -3.80590928              -15.48706428                3.33010646               -0.22623220
              20.27358407               -0.47667669               67.49491642                1.00000000                1.29213608                1.62039057               -4.33232890                0.13241351                0.05125685               -2.61293807
              10.70180403                6.34175871               70.99856188                1.00000000               -0.23209317               -0.31247960                1.07154653               -0.02499842                0.18321214                0.86448074
              11.69948310                5.88641751               70.58059584                1.00000000               -0.14251595               -0.15716677                0.50030884               -0.00053817                0.38394859                0.00615591
              12.69895371                5.43061855               70.16614174                0.00010000                0.04021501                0.02509677               -0.07439152               -0.01722519                0.86034240               -0.71674564
              13.70028740                4.97404262               69.75780734                0.00010000                0.27369856               -0.46482913               -0.63582790               -0.87906059                1.38383752                1.11713175
              14.70442768                4.51578772               69.35443029                0.00010000                0.50884199               -1.04486343               -1.30072621               -1.53219049                1.37059643                3.34623739
              15.71046424                4.05535055               68.94730587                0.00010000                0.82700289               -2.21095997               -1.95133091               -2.15143085                1.58020623                6.78171759
              16.72096774                3.58402184               68.55031052                0.00010000                1.23396585               -6.43631928               -2.63768906              -20.03325919               19.37273202               13.36023850
              17.73514356                2.73252935               68.50141365                0.00010000                1.02405330                0.17308268               -6.57547035              -33.77266339               31.05745020               11.09212403
              18.74144881                1.95199687               68.34159882                0.00010000                1.92555256                7.19060787              -12.90157678              -35.66067882                4.30898881               16.67822934
              19.77365461                1.09920595               67.72528430                0.00010000                3.32407813               18.34211451              -26.15419347              -25.52390345               -9.45892377               47.86405238
              20.80793037                0.54582271               67.25285294                0.00010000                3.42757620               22.27434267              -29.42457755               -8.35203657               -3.45860417               55.49105037
              11.15607030                7.33896807               70.87093594                1.00000000               -0.18998712               -0.24533576                0.90446354               -0.02511546                0.29217602                0.70578011
              12.15417043                6.88505516               70.44902618                0.00010000               -0.10572679               -0.11831001                0.34027600                0.01959979                0.49566320               -0.36838169
              13.15395576                6.43115732               70.03074019                0.00010000               -0.72121828                0.08128836               -0.21944533               -0.66748864                3.21823687               -1.19068767
              14.13974606                5.96309675               69.66350848                0.00010000               -1.06102890               -0.71058308               -0.63154996               -2.25968082                6.30002532                2.16391985
              15.13273519                5.49151602               69.30821234                0.00010000               -0.12794811               -2.01181382               -1.69507846               -3.56904897                7.95714334                5.94590035
              16.13718710                5.00578807               68.97578220                0.00010000                2.06205721               -4.65261427               -2.87070692               -7.51112054               12.25745029               11.60850837
              17.17397633                4.44898400               68.71380533                0.00010000                2.85433038               -9.44155434               -4.64576673              -17.35873438               18.49476563               19.08068546
              18.19427371                3.75347582               68.51831005                0.00010000               -0.51731227                1.68684605               -7.91961675              -26.08410730               23.42737477               12.42702629
              19.16363009                3.02325125               68.36976267                0.00010000               -1.89574566                9.03852810              -14.90283964              -22.05567833               49.02356472               15.52696758
              20.15635880                2.42684380               68.74129924                1.00000000                2.48398667               21.76981190              -47.80014851               -8.66646748               44.82106004               52.44395213
              21.21330982                1.96881016               68.45720723                1.00000000                5.69510228               24.26049207              -50.05112445               -2.55906241               22.67388056               56.67531566
              11.60912753                8.33685199               70.74131537                0.00010000               -0.14416868               -0.17912523                0.74980097               -0.01155220                0.04170287                0.58466694
              12.60768585                7.88405131               70.31191915                0.00010000               -0.07825907               -0.08815806                0.18046154                0.08496533                0.50155603               -0.54458814
              13.60756235                7.43224431               69.89139304                0.00010000               -0.64753852                0.08371863               -0.37043033               -0.84902173                5.31863730               -1.63462942
              14.59473508                6.95983096               69.55879725                0.00010000               -0.86034853               -0.15444332               -1.21281472               -2.08856096               10.32439633                0.89620103
              15.59035538                6.47555145               69.24250387                0.00010000                0.40193840               -1.31222714               -2.27003466               -3.69098693               12.26151633                3.65640939
              16.60277385                5.96229827               68.95486293                0.00010000                1.78749611               -3.27190894               -3.65636104               -7.40315673               15.20428422                6.76670210
              17.62610530                5.39519075               68.70848704                0.00010000                1.82101603               -3.54762326               -5.54282361              -14.04746077               19.28264065                8.28880735
              18.63919417                4.76626627               68.51977665                0.00010000                0.04309738                1.54297355               -8.62697264              -17.63768695               25.60357861                9.25920573
              19.62696725                4.13276743               68.42738307                0.00010000                0.77860864                7.99895935              -15.49911666              -14.06268668               46.07183093               11.16214543
              20.65476634                3.53460219               68.69302383                0.00010000                2.29245722                8.82318352              -29.36390337               -5.16831529               36.22140371               -0.85472041
              21.67281640                3.03103255               68.36146624                1.00000000                1.80500581                5.21837674              -26.17210558               -0.89821503               13.90995290               -1.49833596
              12.06144061                9.33538556               70.61111181                0.00010000               -0.09631990               -0.13798246                0.60404400               -0.02318431                0.00776868                0.57478692
              13.06047741                8.88329200               70.17657829                0.00010000               -0.01224642               -0.04521431                0.02603648                0.10712566                0.26850115               -0.40569845
              14.06119568                8.43283169               69.74699563                0.00010000               -0.29048507                0.07475644               -0.50007705               -0.85637305                6.66854922               -1.70107488
              15.05466771                7.96000788               69.44101531                0.00010000               -0.23737729                0.11610353               -1.51111829               -2.37160485               13.22537975               -0.52644346
              16.05644814                7.46527148               69.14897911                0.00010000                0.74084761               -0.66992599               -2.69409224               -4.38637968               14.63072388                1.10674830
              17.06948467                6.94034989               68.88082284                0.00010000                1.63054858               -1.46897994               -4.13748764               -7.56065048               16.69574011                2.75701276
              18.08905911                6.37803154               68.64534907                0.00010000                1.72293102               -0.95925118               -5.97761791              -11.05469299               19.57731589                4.02146337
              19.10394329                5.78433529               68.45751146                0.00010000                1.24906617                1.60089888               -8.68904493              -12.56261916               24.07823222                4.51402988
              20.11404043                5.18323043               68.34217530                0.00010000                2.53920426                3.91374083              -12.92021352              -10.43938539               35.03449878                3.80178799
              21.15472737                4.60330747               68.41540579                0.00010000                4.42221808                4.83867788              -24.45278235               -5.93803927               26.86291645               -7.83952630
              22.20248480                4.07317770               68.11892919                0.00010000                4.77574249                3.78636050              -22.15756456                0.01313554               14.82702054               -5.72309446
              12.51285098               10.33409234               70.48137472                0.00010000               -0.04687383               -0.12559403                0.46559668               -0.03287314               -0.00940198                0.61253016
              13.51238224                9.88314703               70.04199922                0.00010000                0.04340184                0.02235366               -0.14431560                0.09450982                0.16723918               -0.34354499
              14.51371901                9.43373944               69.60596968                0.00010000                0.12404768                0.14514107               -0.66410468               -0.88195227                7.31674320               -1.39957411
              15.51486319                8.96215303               69.30990213                0.00010000                0.42833844                0.24652060               -1.56069743               -2.59052859               14.78101962               -1.79032045
              16.52228578                8.46215293               69.03074900                0.00010000                1.19687925               -0.12680027               -2.80962281               -4.84532054               16.11432453               -0.97390700
              17.53880078                7.93291867               68.77298249                0.00010000                1.93701333               -0.41481317               -4.36707775               -7.16469344               17.49964670                0.30545557
              18.56102605                7.37600572               68.54111030                0.00010000                2.19710556                0.05126658               -6.15520104               -9.07297183               19.10654417                1.35209562
              19.58274289                6.79828425               68.34338039                0.00010000                1.90906553                1.27427070               -8.32692346               -9.79722800               21.78703431                1.76340642
              20.59920736                6.21104225               68.20077862                0.00010000                3.16577002                2.44267952              -11.50452709               -9.04632080               26.76862165                1.40265138
              21.64605829                5.63137575               68.13711569                0.00010000                6.70656486                1.58932787              -22.01532323               -5.49424203               19.52294017               -0.19250026
              22.73333866                5.10675976               67.84336602                0.00010000                8.72803681                1.96614639              -20.42727481               -2.05448541               13.01109047               -0.33665967
              12.96267378               11.33287368               70.35196440                0.00010000                0.00467299               -0.11119776                0.33307846               -0.04496126               -0.01068358                0.65441129
              13.96272051               10.88373907               69.90784938                0.00010000                0.09384281                0.09521476               -0.33545304                0.06389395                0.19598087               -0.31891218
              14.96455064               10.43573451               69.46775491                0.00010000                0.58615734                0.26282249               -0.87941965               -0.97579976                7.49214407               -1.15610126
              15.97444366                9.96493829               69.16966519                0.00010000                1.21127256                0.18739928               -1.10238033               -2.66497463               15.41318222               -2.72273717
              16.98877609                9.46273547               68.89502053                0.00010000                1.89471701               -0.04773182               -2.53957110               -4.75932095               17.10200971               -2.25608816
              18.01233800                8.93205363               68.64264710                0.00010000                2.67290021               -0.06594560               -4.38541738               -6.40804920               18.00023756               -1.08426571
              19.04223409                8.37905687               68.41033577                0.00010000                3.03121010                0.34942961               -6.21928173               -7.39278281               18.50894163                0.04688006
              20.07296220                7.80982070               68.20297052                0.00010000                2.88942138                1.05395995               -8.12213193               -7.64098677               19.59080549                0.86600104
              21.10002252                7.23208402               68.03435736                0.00010000                3.80814084                1.73893934              -10.67883328               -7.74238379               25.23622622                1.16037259
              22.14912502                6.63509403               67.98543966                0.00010000                5.53022696                0.49081154              -18.96710024               -4.16525876               18.73007143                7.54549159
              23.21062706                6.11250063               67.68339280                0.00010000                6.15020425                0.33089389              -17.27893871               -3.80528536               11.30463732                5.84249667
              13.41022097               12.33186839               70.22292543                0.00010000                0.05783206               -0.08014213                0.20194477               -0.06096393               -0.00076059                0.67917833
              14.41079929               11.88505132               69.77390247                0.00010000                0.13914141                0.17266879               -0.56021306                0.03072298                0.36025339               -0.31713988
              15.41300380               11.43899589               69.33205884                0.00010000                1.18817224                0.39668591               -1.17794114               -1.29126975                7.50552914               -0.77855100
              16.43456274               10.96590102               69.02590300                0.00010000                2.34901157               -0.30603432               -0.18793571               -2.73919188               15.46079526               -2.57387963
              17.45998403               10.46119829               68.75036146                0.00010000                2.98778299               -0.53026780               -1.90798640               -4.00564435               17.85297613               -2.50158596
              18.49431839                9.93159976               68.49951747                0.00010000                3.77096435               -0.20734168               -4.31281483               -4.94579120               18.20068008               -1.46776860
              19.53540332                9.38299432               68.26505318                0.00010000                4.12888010                0.32386649               -6.25471838               -5.45383748               17.82953210               -0.32805303
              20.57689600                8.81936345               68.04934590                0.00010000                4.18415181                0.92893481               -8.04096458               -5.61510491               17.89919844                0.84592366
              21.61908635                8.24582104               67.86459672                0.00010000                5.27202559                1.17886216              -10.21627757               -6.50277647               24.93348136                2.18803157
              22.68233651                7.64119198               67.84889363                0.00010000                4.16667014                0.61680706              -15.87661645               -3.07687644               17.65974042                7.14469944
              23.70241976                7.11337764               67.51490172                0.00010000                2.00832464                0.14108589              -13.80281675               -2.05670095                7.37797801                4.90958726
              13.85508863               13.33127084               70.09369829                0.00010000                0.11188337               -0.03896603                0.07348445               -0.06584279                0.07057317                0.61411426
              14.85620747               12.88719245               69.63998913                0.00010000                0.13934588                0.26363252               -0.83855748                0.01489831                0.83609049               -0.31399707
              15.85787555               12.44366823               69.20154322                0.00010000                2.06249787                0.52848386               -1.42973546               -2.09060741                7.79410708               -0.37707822
              16.89745742               11.95881761               68.88699850                0.00010000                4.25444549               -1.45526519                0.30130252               -2.34393050               15.20641689               -1.48814076
              17.94296446               11.45213012               68.60613050                0.00010000                4.70843619               -1.30027699               -1.52821445               -2.31748012               17.72098285               -1.61437803
              18.99162615               10.92790679               68.35246108                0.00010000                5.12145956               -0.64138603               -4.18537558               -2.63012895               17.64077566               -1.04808250
              20.04539365               10.38553420               68.11218511                0.00010000                5.31036175                0.06065523               -6.21216222               -2.91247467               16.50642633               -0.26665340
              21.09783338                9.82839940               67.88659890                0.00010000                5.13724052                0.76965367               -7.91727011               -3.26860763               16.08950940                0.68934762
              22.14813846                9.25566127               67.69129583                0.00010000                6.10987512                1.31186912               -9.87444649               -4.92370018               23.05916193                2.36774886
              23.22003088                8.64743017               67.66200791                0.00010000                3.84916290                0.59242416              -13.15020483               -3.41481840               15.24735638                4.93680634
              24.22512172                8.11532235               67.30603489                0.00010000                0.50908347                0.17130508              -10.39191315               -0.42488728                3.95661962                4.11423009
              14.29706090               14.33108907               69.96307593                0.00010000                0.16389737               -0.01817743               -0.05153361                0.12071710                0.33177124                0.55330511
              15.29869987               13.89032397               69.50630726                0.00010000                0.12527982                0.31315234               -1.11378076                0.17306561                1.51143769               -0.32448128
              16.29956649               13.44956557               69.07312297                0.00010000                4.02611832                0.58973421               -1.57540293               -3.50731872                8.29777111               -0.17651780
              17.37922224               12.93679571               68.75388790                0.00010000                7.24893742               -2.20218948               -0.32787585               -2.54215962               14.58407927                0.16902236
              18.44454524               12.43519275               68.46933997                0.00010000                6.45447484               -1.69373664               -1.45236206               -0.74310552               16.78359238               -0.63558578
              19.50831173               11.91877204               68.20689768                0.00010000                6.60579883               -0.91347552               -4.00854712               -0.88070775               15.70523882               -0.30081531
              20.57666122               11.38420742               67.95424942                0.00010000                6.65425215               -0.13267775               -5.83887273               -1.07401890               13.55731056                0.09922376
              21.64139678               10.83475652               67.71040898                0.00010000                6.24601780                0.63571266               -7.35640602               -1.25111062               12.00124719                0.84226541
              22.70158157               10.27205842               67.49078271                0.00010000                5.64911432                1.63971522               -9.23793965               -3.74149167               18.73261267                2.04352548
              23.75437906                9.65304046               67.44365212                0.00010000                2.82780447                0.56102916              -12.63969727               -4.32791593               13.73047477                6.40262614
              24.75813766                9.11680374               67.08413478                0.00010000                0.37586005                0.14813977              -10.09510113               -0.32207761                2.53141788                6.41216958
              10.20148728                4.48465173               72.26729025                1.00000000               -0.30369919               -0.35600686                1.24247427               -0.09546612               -0.39631373                0.51209644
              11.19845028                4.02148222               71.84761039                1.00000000               -0.23751325               -0.20503550                0.76033876               -0.06907113               -0.47700474                0.06022667
              12.19673701                3.55787677               71.42566242                0.00010000               -0.10400271               -0.05837774                0.28319730               -0.06987689               -0.49009079               -0.06477350
              13.19637023                3.09350392               71.00562457                0.00010000               -0.00830652                0.09491156               -0.20213821               -0.13628449               -0.43883016               -0.39930626
              14.19657088                2.62728427               70.58514335                0.00010000                0.08123623                0.27210494               -0.70549585               -0.18223389               -0.34949061               -0.29889681
              15.19799495                2.15915759               70.16766848                0.00010000               -0.59979198                0.41802512               -1.24675828               -1.09349787                0.52219131               -0.57231533
              16.18457504                1.67186642               69.76587569                0.00010000               -9.20632290                1.44902579               -1.61820708              -17.19452556               12.75838219               -1.95938663
              17.01386850                0.85127728               69.60028594                0.00010000               -8.46865522                2.64821715               -2.68679771              -16.71548807               23.96292185                2.67885697
              18.01520194                0.04739573               69.37229582                0.00010000                7.10865090               -0.93734645               -2.86852336              -13.84240618               19.33209843                3.12864433
              19.15604151               -0.74272155               69.10058450                1.00000000                7.32064392                0.63336062               -1.71721402              -12.92750109                7.90168038               -0.27717808
              20.16161481               -1.28207971               68.66888619                1.00000000                0.55733005                0.77206083               -2.12108979                0.23000894                0.04049354               -0.42266094
              10.66370213                5.48109167               72.13630947                1.00000000               -0.25550710               -0.33373352                1.09833540               -0.01845062                0.03408472                0.72255435
              11.66114706                5.01943187               71.71643205                1.00000000               -0.18373667               -0.18605131                0.61633525                0.00573344                0.11130032                0.08606758
              12.66002739                4.55729299               71.29752111                0.00010000               -0.04217122               -0.03874461                0.13663190                0.00360682                0.14748315               -0.25853822
              13.66030363                4.09445303               70.87836686                0.00010000                0.09471559                0.10487277               -0.34014696               -0.04164876                0.29315818               -0.38235419
              14.66192171                3.63000532               70.46294380                0.00010000                0.22326354                0.26505537               -0.87281532               -0.07316511                0.37584629               -0.27196719
              15.66476890                3.16333784               70.04656570                0.00010000                0.23241173                0.41992740               -1.41017765               -0.52325623                0.56926693               -0.47247167
              16.66656994                2.68635668               69.63677831                0.00010000               -0.29099719                0.97676605               -1.99836991              -16.47834796               13.58389367               -0.99961874
              17.65894896                1.87775945               69.48359629                0.00010000                0.36036747                0.22690120               -4.19259655              -25.19201917               21.93377345                5.59503092
              18.67377729                1.03802227               69.22640735                0.00010000                1.62776312                1.20937192               -4.87734729              -22.03880178               13.29151037                8.26798023
              19.69150422                0.26361205               68.88351020                1.00000000                1.47478842                0.19926884               -3.24664087              -11.72921121                4.66991393               -2.11959198
              20.70327306               -0.27435910               68.45114699                1.00000000                1.17688367                0.28270097               -3.69250113               -0.11878415               -0.17930510               -2.52012169
              11.12443786                6.47797706               72.00865282                1.00000000               -0.20742329               -0.28448974                0.94728822               -0.02187962                0.17981547                0.84696016
              12.12236363                6.01776120               71.58545402                0.00010000               -0.13249406               -0.14735221                0.47060449               -0.00066745                0.37819326                0.00160152
              13.12178798                5.55710187               71.16573451                0.00010000                0.02306467                0.00739245               -0.00873947               -0.02414150                0.86186703               -0.70561806
              14.12282492                5.09560137               70.75229168                0.00010000                0.22173953               -0.52393089               -0.46940732               -0.88787158                1.34627516                1.12233397
              15.12622277                4.63258538               70.34285074                0.00010000                0.41767767               -1.08541736               -1.02034368               -1.51716294                1.29048096                3.24169194
              16.13117848                4.16755614               69.92976774                0.00010000                0.71818503               -2.22653887               -1.56383994               -2.15269472                1.48303577                6.45395358
              17.14058647                3.69140174               69.52630030                0.00010000                1.35920233               -6.23842150               -2.17291052              -19.05613065               17.85125193               12.51614160
              18.15836252                2.85581530               69.44265174                0.00010000                2.39934123               -0.44141568               -5.78598549              -33.00576387               26.87427583               10.89368586
              19.18857330                2.07158317               69.19660799                0.00010000                3.77380658                5.17322461              -12.80864257              -34.72725901                4.25936465               15.20473506
              20.23383865                1.26126382               68.63028463                0.00010000                2.33040698                8.77809636               -4.62790013              -21.75562566               -5.29019858               25.90410136
              21.23518144                0.72357431               68.19304411                1.00000000                0.13427819                7.77668692               -2.89357190                2.31863025               -0.58983327               27.27483564
              11.58369627                7.47540187               71.87945180                1.00000000               -0.16873757               -0.22893952                0.79863314               -0.02650718                0.28838083                0.70097028
              12.58200890                7.01648482               71.45236507                0.00010000               -0.09959431               -0.10855079                0.32614760                0.00688364                0.49363536               -0.37472047
              13.58170439                6.55744084               71.02896585                0.00010000               -0.74731007                0.06880533               -0.13974385               -0.70656820                3.19660361               -1.18144566
              14.56706270                6.08397442               70.65610562                0.00010000               -1.10403516               -0.74705187               -0.70584497               -2.29460422                6.19679794                1.97206519
              15.55962368                5.60829697               70.29247427                0.00010000               -0.20820231               -2.01493378               -1.49531314               -3.57327426                7.73076737                5.68982313
              16.56289865                5.11880706               69.94939418                0.00010000                1.87822394               -4.50947192               -2.53594310               -7.43628589               12.01174644               10.94020299
              17.59718816                4.56158825               69.67007483                0.00010000                2.78768011               -9.01021280               -4.30584475              -17.11444930               17.84427715               17.85739675
              18.61865225                3.86893114               69.44016961                0.00010000               -1.17022873                1.57766112               -7.82628011              -26.14590920               22.88971997               11.57408378
              19.57378359                3.14148676               69.24531246                0.00010000               -0.71258437                8.67889724              -12.85359579              -28.94464839               25.52462406               17.14378232
              20.60440056                2.43917398               69.00744382                0.00010000               12.56205493               20.83404946              -65.97979542              -20.06694694               19.81633441               31.10511168
              21.82502469                1.88117464               68.58799345                1.00000000               22.06241220               22.40109348              -73.70630601               -5.31062844                7.86308260               33.17244931
              12.04174182                8.47339827               71.74838883                0.00010000               -0.12794809               -0.17226470                0.66240467               -0.01867229                0.03075500                0.59879089
              13.04046233                8.01559018               71.31369114                0.00010000               -0.07873957               -0.07760979                0.17557456                0.05867044                0.50060778               -0.55412433
              14.04016702                7.55847798               70.88807454                0.00010000               -0.71928163                0.07990438               -0.29342545               -0.90203097                5.22588278               -1.65362402
              15.02607670                7.08066034               70.54811749                0.00010000               -1.01211927               -0.21082331               -1.01695226               -2.17902076               10.13197046                0.69543423
              16.01992464                6.59228670               70.22144996                0.00010000                0.15423924               -1.30472831               -2.02277103               -3.74528265               12.04613171                3.31353189
              17.02916149                6.07736670               69.92038525                0.00010000                1.41243868               -3.04562512               -3.37280388               -7.41224663               15.08426624                6.15631761
              18.04817341                5.51119748               69.65553419                0.00010000                1.31921695               -3.10405520               -5.36996809              -13.95688598               19.06921777                7.50191891
              19.05554583                4.88736852               69.43300738                0.00010000               -0.43679642                2.15240216               -8.73453964              -18.46831040               25.01792488                8.45946472
              20.03943748                4.24516111               69.27570790                0.00010000                1.86330037                9.08546299              -17.38165034              -13.36484929               33.83812052                9.05778182
              21.09281183                3.67794481               69.18421908                0.00010000               10.27650326               17.02792414              -43.79315869               -5.50855893               26.38192211               12.29199598
              22.24496755                3.17159618               68.86930606                0.00010000               15.21557159               19.77907489              -46.67141224               -6.99270940               17.22853855               16.37294391
              12.49893902                9.47195658               71.61683099                0.00010000               -0.08364169               -0.13279088                0.53341835               -0.02822223                0.00253363                0.60963854
              13.49810260                9.01493263               71.17683166                0.00010000               -0.01727020               -0.04008576                0.02887141                0.07310688                0.28194217               -0.42662361
              14.49859361                8.55903893               70.74218002                0.00010000               -0.42145203                0.06438193               -0.45714872               -0.96608639                6.52364549               -1.77538845
              15.48967356                8.07975795               70.42738582                0.00010000               -0.52909720               -0.00378349               -1.28153754               -2.45526590               12.94926387               -0.58573539
              16.48801167                7.58220241               70.12415000                0.00010000                0.30346903               -0.64621251               -2.39081099               -4.26867047               14.38362280                0.88786924
              17.49574294                7.05789456               69.84167499                0.00010000                1.00184745               -1.19151887               -3.85281871               -7.32490721               16.59239824                2.29078218
              18.50804862                6.49950714               69.58753933                0.00010000                0.97897371               -0.38337860               -5.86750732              -10.83827411               19.58543221                3.28488361
              19.51532241                5.91197918               69.36913160                0.00010000                0.39308482                2.46577481               -9.15978061              -12.23972611               24.32651757                3.66383866
              20.51591031                5.32319602               69.20763532                0.00010000                2.62359519                6.21133981              -15.19767844               -8.55540230               28.70397840                2.64367049
              21.56779432                4.77973246               69.06455042                0.00010000                9.09787236                7.41056900              -32.21498094               -4.17606160               20.84267293               -1.39327885
              22.69786776                4.27675614               68.73927995                0.00010000               13.00734435                7.37017288              -35.50062150               -4.64524143               12.60939285               -0.68189740
              12.95522527               10.47074246               71.48580469                0.00010000               -0.03831486               -0.11270891                0.40886924               -0.03546529               -0.01180660                0.66800572
              13.95484212               10.01478846               71.04055646                0.00010000                0.03973509                0.01754525               -0.13438722                0.05740069                0.19392954               -0.38819109
              14.95601997                9.55976562               70.59926874                0.00010000               -0.05171108                0.12152993               -0.65671514               -1.04098954                7.26561456               -1.54567391
              15.95380790                9.08058467               70.29578036                0.00010000                0.01973221                0.15855378               -1.37116200               -2.61744391               14.51678847               -1.57535198
              16.95641462                8.57936245               70.00479272                0.00010000                0.57753537               -0.07477363               -2.51508709               -4.42899197               15.71363059               -0.91812928
              17.96535861                8.05353632               69.73193790                0.00010000                1.04543465               -0.07775658               -4.03673147               -6.58184241               17.26566684               -0.04024846
              18.97732331                7.50352991               69.48156545                0.00010000                1.08519090                0.70324435               -6.00170122               -8.44977342               19.28594304                0.63707771
              19.98706243                6.93668402               69.26014426                0.00010000                1.16264211                2.33991320               -8.75611577               -8.94372256               22.08110283                0.87426959
              21.00057615                6.36938791               69.07402540                0.00010000                3.43340269                3.87578582              -13.83446333               -6.98590742               23.98229476                0.32235783
              22.05573048                5.82615619               68.88368691                0.00010000                7.87196094                3.70521888              -24.31611505               -3.78040395               16.80211824               -0.26186898
              23.15801537                5.31899964               68.55321964                0.00010000               10.22848911                3.27388877              -28.00034085               -3.09963055                9.02325889                0.84723333
              13.41013769               11.46970240               71.35512661                0.00010000                0.00897553               -0.09007273                0.28344736               -0.04245882               -0.00959700                0.72501174
              14.41022745               11.01528353               70.90450133                0.00010000                0.09199630                0.08275653               -0.31471855                0.03590381                0.22970670               -0.39373456
              15.41197762               10.56146952               70.45860121                0.00010000                0.37501985                0.23505835               -0.90897521               -1.11795941                7.68341967               -1.39545327
              16.41772785               10.08292902               70.15729444                0.00010000                0.72512766                0.22108963               -1.29695594               -2.60109343               15.27598953               -2.05727962
              17.42648017                9.58070694               69.87101335                0.00010000                1.11053939                0.13561746               -2.39079710               -4.11534496               16.41316994               -1.90915073
              18.43993863                9.05633943               69.60186607                0.00010000                1.47126378                0.34749911               -3.99063686               -5.48675403               17.45715732               -1.30091241
              19.45590545                8.51357203               69.35123632                0.00010000                1.53256644                1.05277338               -5.90167911               -6.45790226               18.53001195               -0.68157104
              20.47058996                7.95877744               69.12212576                0.00010000                1.54072717                2.12754634               -8.34627613               -6.64287750               20.25461922               -0.30729059
              21.48671999                7.40071173               68.92335466                0.00010000                3.59922722                2.96275417              -12.43421218               -6.04327184               21.76152379                0.43588873
              22.54257451                6.85383684               68.72720496                0.00010000                8.17341319                3.02998158              -24.02180620               -3.69229989               15.22421683                3.84172799
              23.65018826                6.34223391               68.39735036                0.00010000               10.76137487                2.66935832              -27.19858571               -1.34959864                9.05365529                5.22383084
              13.86321383               12.46894100               71.22478700                0.00010000                0.05792437               -0.05676763                0.15354059               -0.04860313               -0.00178746                0.75935393
              14.86379307               12.01644360               70.76834794                0.00010000                0.14007311                0.15284551               -0.51811734                0.02700619                0.37475976               -0.43438360
              15.86601529               11.56446679               70.31947987                0.00010000                0.93777742                0.38304305               -1.25266718               -1.31569532                8.05168947               -1.07621575
              16.88254862               11.08500646               70.01666165                0.00010000                1.73410111                0.04088148               -1.13887740               -2.55091303               15.61980673               -1.95872461
              17.90069732               10.58207480               69.73008420                0.00010000                2.01049067               -0.10667151               -2.12138919               -3.33593588               16.61888342               -2.02084586
              18.92275844               10.06048630               69.46063994                0.00010000                2.25149682                0.29719674               -3.78467779               -3.99480375               17.25779604               -1.61941043
              19.94572725                9.52458538               69.20696533                0.00010000                2.21533680                1.02584211               -5.69985796               -4.39680644               17.56636065               -1.07031949
              20.96706517                8.97923495               68.97000998                0.00010000                1.94620336                1.95072856               -7.95493691               -4.46172961               18.69951205               -0.43188504
              21.98465132                8.42864299               68.76535494                0.00010000                3.66485661                2.87426347              -11.44949459               -3.94781647               20.16253304                0.85614868
              23.04036230                7.88675582               68.57481993                0.00010000                8.47889684                3.63543345              -24.74010751               -2.30515161               13.45218197                5.68019451
              24.15422926                7.37238681               68.24952695                0.00010000               11.38669514                3.35138358              -26.06115078               -1.24224021                9.17335336                7.83972610
              14.31416045               13.46856705               71.09425269                0.00010000                0.10813430               -0.01769529                0.02105939               -0.04653353                0.05191959                0.70637703
              15.31524179               13.01834044               70.63186627                0.00010000                0.14702027                0.22753596               -0.74371486                0.05409258                0.87690862               -0.46543567
              16.31710085               12.56913039               70.18612514                0.00010000                1.69298908                0.54794033               -1.54059605               -1.78880168                8.62284909               -0.67484056
              17.34910157               12.08374665               69.87795681                0.00010000                3.35903801               -0.83514479               -1.13817609               -2.05203843               15.62314944               -1.21918174
              18.38428161               11.57857351               69.58879480                0.00010000                3.42152072               -0.62104599               -1.87945145               -2.01133152               16.35439090               -1.29934395
              19.41753198               11.06228336               69.31593117                0.00010000                3.24695325               -0.06151847               -3.49706534               -2.03525137               16.50358522               -1.14434514
              20.44922068               10.53408887               69.05632742                0.00010000                2.98828859                0.73807675               -5.33324669               -2.16151260               16.15755913               -0.81787407
              21.47729776                9.99779201               68.81054980                0.00010000                2.55110547                1.72455298               -7.42213109               -2.11537524               16.67034133               -0.30501917
              22.50024279                9.45819700               68.59575664                0.00010000                3.77149529                2.80446442              -10.68437069               -1.68457980               18.50769294                0.92144368
              23.55272766                8.92654551               68.41264618                0.00010000                7.69193518                5.08960128              -23.39419327               -0.92560110               12.29765479                5.12367317
              24.65408149                8.40926158               68.09943126                0.00010000               10.13538271                4.78968158              -23.30150629               -1.44926216                8.81188332                7.30806281
              14.76273637               14.46858710               70.96236168                0.00010000                0.15752175                0.00200494               -0.10777305                0.09831430                0.33492098                0.66073456
              15.76431159               14.02099431               70.49571397                0.00010000                0.10483388                0.26538722               -0.95865019                0.24890482                1.66887513               -0.50179680
              16.76483305               13.57542559               70.05597740                0.00010000                3.38765737                0.62952079               -1.78816676               -2.86131788                9.50210039               -0.57941441
              17.83206474               13.06830356               69.74402293                0.00010000                5.85504643               -1.54430919               -1.11406996               -1.99226899               15.41784851               -0.33444050
              18.88193398               12.56965388               69.45228577                0.00010000                4.72366545               -0.89196223               -1.72534992               -0.68714489               15.67382829               -0.38969486
              19.92653804               12.05925593               69.17414694                0.00010000                4.25271865               -0.30274297               -3.04299494               -0.61474251               15.10936818               -0.41739907
              20.96698835               11.53934691               68.90496984                0.00010000                3.70557456                0.52580425               -4.53127526               -0.49972899               13.79775753               -0.24661833
              22.00064954               11.01372601               68.64449230                0.00010000                2.76089391                1.59339927               -6.11787975               -0.39555366               13.21825118                0.08799106
              23.02220623               10.48473228               68.41034045                0.00010000                3.50680830                2.65352781               -8.67480308                0.93743640               13.89880620                1.01638425
              24.07078570                9.98854785               68.20360290                0.00010000                6.88028180                6.20023406              -20.87133843                0.97821178                8.95627729                4.90951117
              25.15981186                9.46818044               67.88567238                0.00010000                8.90261623                5.89188533              -20.69855120               -1.46370379                5.85125638                7.07588471
              10.61964756                4.62142567               73.27893201                1.00000000               -0.27124979               -0.31194931                1.08780924               -0.07791250               -0.39084905                0.50429251
              11.61693507                4.15396970               72.85490650                1.00000000               -0.21874952               -0.18934841                0.69929163               -0.05366936               -0.47026572                0.05818825
              12.61527257                3.68611163               72.42865014                0.00010000               -0.11222487               -0.06990952                0.31357573               -0.05439026               -0.48436290               -0.06280678
              13.61469057                3.21754659               72.00423516                0.00010000               -0.03792366                0.05325507               -0.07807663               -0.11522965               -0.44188152               -0.38194226
              14.61451410                2.74731433               71.57924508                0.00010000                0.03213000                0.19522210               -0.47993226               -0.15811120               -0.37519789               -0.30132985
              15.61533317                2.27540254               71.15689671                0.00010000               -0.80000301                0.30560394               -0.91590184               -1.17258738                0.57380433               -0.56413910
              16.59851404                1.78252758               70.75205727                0.00010000               -8.04746932                1.47658290               -1.15732406              -14.92660804               12.56222608               -2.11616457
              17.45438378                1.00096327               70.57566777                0.00010000               -6.81229878                1.85857135               -2.41650280              -14.26532350               23.86649220                2.14715428
              18.46226807                0.23249180               70.34494084                0.00010000                6.71697850               -1.20052733               -2.71889108              -11.30891672               20.05121397                2.81219591
              19.58872335               -0.51955206               70.08055694                1.00000000                6.69320571                0.74616065               -2.29694992              -10.54278717                8.46806487               -0.26113082
              20.59613218               -1.05955992               69.64532760                1.00000000                0.74088266                0.83228804               -2.59209500               -0.14156530                0.05768486               -0.38650975
              11.08632441                5.61830618               73.14658505                1.00000000               -0.22690150               -0.29350484                0.95824707               -0.01547774                0.03310272                0.71155492
              12.08405540                5.15207622               72.72236353                1.00000000               -0.16920915               -0.17265872                0.56993349                0.00682791                0.11068411                0.08318960
              13.08294023                4.68541253               72.29912882                0.00010000               -0.05592378               -0.05250889                0.18346837                0.00418674                0.15076337               -0.25616650
              14.08293692                4.21807914               71.87569247                0.00010000                0.05323918                0.06019781               -0.19780534               -0.03699414                0.27576906               -0.35920214
              15.08400501                3.74926655               71.45549837                0.00010000                0.15318731                0.18883836               -0.62332974               -0.06867060                0.33315939               -0.26247476
              16.08600067                3.27845858               71.03428021                0.00010000                0.12312915                0.30993034               -1.05622695               -0.53154531                0.50069440               -0.45434750
              17.08646760                2.79729341               70.61907409                0.00010000                0.03738868                0.92602792               -1.55340183              -14.61574312               12.73171556               -1.06402282
              18.08674844                2.01954898               70.44490422                0.00010000                1.14844840               -0.35667590               -3.49772722              -21.44346474               21.28808029                5.04685762
              19.10943656                1.22048652               70.18631130                0.00010000                2.12864496                0.23473300               -3.66034864              -17.74521456               14.11947297                5.57007129
              20.12932134                0.48790954               69.85709428                1.00000000                1.26439102                0.64532124               -2.06668687               -9.45162000                5.51613348               -0.32469809
              21.13472438               -0.05123704               69.42106640                1.00000000                0.54030438                0.70164431               -2.33866113               -0.19053033               -0.20059470               -0.53960680
              11.55179794                6.61555558               73.01750765                1.00000000               -0.18326619               -0.25273605                0.82417261               -0.01955640                0.17628944                0.83619273
              12.54996527                6.15051653               72.59000793                0.00010000               -0.12222739               -0.13762901                0.43949461               -0.00102177                0.37301834               -0.00136797
              13.54935339                5.68506145               72.16596695                0.00010000                0.00656964               -0.01120816                0.05333150               -0.02794634                0.86732093               -0.69710098
              14.55009667                5.21875054               71.74841919                0.00010000                0.17039294               -0.56834450               -0.30904064               -0.83668365                1.32034936                1.07052415
              15.55276125                4.75109110               71.33402341                0.00010000                0.32893659               -1.12766432               -0.75321282               -1.35462204                1.22560690                3.06619757
              16.55667540                4.28160115               70.91602907                0.00010000                0.61737636               -2.22419807               -1.19268756               -1.81110763                1.38486298                6.02393866
              17.56510878                3.80104814               70.50685231                0.00010000                2.28229888               -6.01976822               -1.72509475              -16.70762742               16.12846592               11.49871218
              18.60232138                2.99382975               70.38569394                0.00010000                3.69472188               -1.24735636               -5.50839071              -28.68898250               23.32653122                9.99947250
              19.63900321                2.23718646               70.08542597                0.00010000                3.45465701                3.32702305               -8.77399646              -25.15317965                7.28699300               13.69757778
              20.67141452                1.49335436               69.63272629                0.00010000                1.58057638                0.35510225                0.04246185              -10.10151680               -0.79476927                0.51189705
              21.67061474                0.95447296               69.19498150                1.00000000               -0.07997772                0.36171227               -0.00878049               -0.15074828               -0.06114554                0.29687434
              12.01601138                7.61325146               72.88690861                1.00000000               -0.14822936               -0.20534770                0.69214524               -0.02577765                0.28507376                0.70244423
              13.01452909                7.14932364               72.45554913                0.00010000               -0.09320488               -0.10071441                0.30992363               -0.00080365                0.49273090               -0.38136640
              14.01414729                6.68518837               72.02794531                0.00010000               -0.71777449                0.04481049               -0.06694798               -0.71555608                3.12559641               -1.18126783
              15.00017360                6.20671225               71.64939158                0.00010000               -1.00426589               -0.81455503               -0.63248504               -2.22863525                6.06445337                1.85607808
              15.99406197                5.72671326               71.27830607                0.00010000               -0.01760662               -2.04723695               -1.36857039               -3.32443109                7.51999663                5.33375842
              16.99982147                5.23397462               70.92506333                0.00010000                2.30122370               -4.42286661               -2.39586596               -6.80578340               11.54227730               10.19171457
              18.04008644                4.67689805               70.62768844                0.00010000                3.85045039               -8.66417561               -4.30800418              -15.48070038               16.57501190               16.40704110
              19.07683048                3.99460185               70.36178445                0.00010000                3.33809584                0.63319156               -7.62635173              -23.64067456               20.56461698               11.00582351
              20.10684836                3.28702698               70.11269075                0.00010000                6.65870100                5.72068773              -14.49799741              -29.30377572                4.71218576               14.53946813
              21.21000450                2.49501159               69.42170333                0.00010000                5.13119255               11.49905777              -29.21631063              -20.68188362               -4.26590761               22.57899559
              22.20947221                1.95599720               68.98308111                0.00010000               -0.05322855               12.63659826              -30.17352672               -5.07151488               -2.71648443               25.94893113
              12.47913803                8.61144862               72.75456347                0.00010000               -0.11257351               -0.15444919                0.57049343               -0.02071023                0.02064474                0.61698081
              13.47801229                8.14850224               72.31543064                0.00010000               -0.07421861               -0.07147164                0.17367639                0.03735831                0.49702755               -0.56663279
              14.47765366                7.68595766               71.88552453                0.00010000               -0.70066137                0.04706779               -0.21623916               -0.95378265                5.09887206               -1.70024588
              15.46399907                7.20245944               71.53845821                0.00010000               -0.93217005               -0.30409738               -0.94211743               -2.21509426                9.88516005                0.55509554
              16.45901026                6.71014636               71.20204845                0.00010000                0.31879396               -1.35135779               -1.92667027               -3.67730867               11.71819921                3.00717151
              17.47037495                6.19314381               70.88740685                0.00010000                1.79286370               -2.96808681               -3.33952193               -7.21299486               14.57306919                5.59446459
              18.49486753                5.62776463               70.60108767                0.00010000                2.45020016               -2.96000510               -5.52990667              -13.67127657               18.21158837                6.80101155
              19.51937895                5.00649358               70.34508586                0.00010000                2.88252173                1.79366635               -9.28354397              -19.13086262               21.06933779                7.74674937
              20.55251796                4.35160021               70.07975006                0.00010000                3.47138377                7.53796788              -17.62257769              -19.86526188               23.82546407                8.05890400
              21.58880663                3.72333552               69.81716065                0.00010000                4.73476222               19.04812369              -31.75167693              -15.72317899               16.40151931               25.01420092
              22.64721321                3.20720493               69.42803799                0.00010000                5.84065841               20.98144831              -37.06339241               -6.82599021                2.85461424               27.98244205
              12.94148995                9.61016248               72.62178018                0.00010000               -0.07227264               -0.11458929                0.45189583               -0.02816325               -0.00125015                0.64264335
              13.94076722                9.14789420               72.17715572                0.00010000               -0.01877591               -0.03943527                0.03969708                0.03758675                0.27568705               -0.44994667
              14.94111443                8.68612972               71.73785266                0.00010000               -0.45421028                0.02235606               -0.39711978               -1.05550796                6.37285186               -1.88273055
              15.93168302                8.20063030               71.41538456                0.00010000               -0.56415033               -0.08610346               -1.18135009               -2.53838509               12.65151199               -0.64340767
              16.92983142                7.69968611               71.10116289                0.00010000                0.31301406               -0.66096864               -2.29853373               -4.23134109               14.00346326                0.72700075
              17.93794330                7.17461288               70.80376646                0.00010000                1.17398599               -1.06105943               -3.84993553               -7.25108637               16.13634660                1.94627909
              18.95331114                6.61769795               70.52799892                0.00010000                1.62171722               -0.13571694               -6.12557151              -11.02333390               18.83886356                2.80511163
              19.97037764                6.03047518               70.27431585                0.00010000                1.96950215                2.81409516               -9.81024619              -13.36927804               21.91394179                3.07096592
              20.99270119                5.43778634               70.03822173                0.00010000                3.47792777                7.50849270              -16.72906689              -12.58542427               22.82051713                3.68376325
              22.03993620                4.87597406               69.77110617                0.00010000                5.62561962               12.00741533              -26.11795148               -7.40301901               15.51913381                1.71153041
              23.10521358                4.37562617               69.40891676                0.00010000                6.52773814               12.92145492              -29.75811796               -3.65853044                6.07711444                2.60790043
              13.40311131               10.60915684               72.48955210                0.00010000               -0.03145257               -0.08854336                0.33446362               -0.03220797               -0.01268461                0.70960150
              14.40279678               10.14771353               72.03931148                0.00010000                0.03480475                0.00893477               -0.10719188                0.01603812                0.18175794               -0.42870169
              15.40380740                9.68640478               71.59283538                0.00010000               -0.15609005                0.07422938               -0.60081111               -1.13323350                7.15665922               -1.71523189
              16.39967498                9.20073737               71.28247889                0.00010000               -0.17032747                0.11405549               -1.32095158               -2.68047542               14.25863966               -1.50279460
              17.40040085                8.69692698               70.98044726                0.00010000                0.38331994               -0.02125648               -2.44998300               -4.30891569               15.30095545               -0.90315000
              18.40734138                8.17192262               70.69224786                0.00010000                0.90688490                0.13602279               -4.03125200               -6.42809048               16.83780011               -0.24555695
              19.41853855                7.62505029               70.42107628                0.00010000                1.22818063                1.11638115               -6.22889545               -8.49418237               18.77839368                0.23443050
              20.43190499                7.06277548               70.16825807                0.00010000                1.83860238                3.16669945               -9.56676328               -9.38608159               20.67945999                0.42211714
              21.45531060                6.50177007               69.92408935                0.00010000                3.55007119                5.58429560              -15.00711560               -8.09095277               20.34037369                0.04111796
              22.50290642                5.96348382               69.65079339                0.00010000                5.97138916                7.24107546              -21.91793131               -4.82292866               13.28372294               -0.44764813
              23.57473838                5.46563403               69.28335920                0.00010000                7.18319657                7.25218773              -25.20852994               -2.47518932                5.86083192               -0.09537217
              13.86373240               11.60839161               72.35763334                0.00010000                0.01076456               -0.06137284                0.21257504               -0.03426941               -0.00720000                0.76734387
              14.86384004               11.14807290               71.90155501                0.00010000                0.08467617                0.06425859               -0.26351601                0.00137678                0.19868094               -0.45162912
              15.86542592               10.68761431               71.44957541                0.00010000                0.18556300                0.17714344               -0.84301395               -1.16225072                7.68638356               -1.65342494
              16.86755130               10.20291141               71.14372607                0.00010000                0.35209684                0.26633892               -1.37236493               -2.58368850               15.15477662               -1.91086046
              17.87246786                9.69926098               70.84720459                0.00010000                0.68534389                0.30364689               -2.42213725               -3.87977589               15.96339532               -1.76404965
              18.88125818                9.17733334               70.56283436                0.00010000                1.00533895                0.66119091               -3.96381460               -5.19918023               16.99999788               -1.42932700
              19.89257464                8.64002557               70.29230219                0.00010000                1.23390275                1.57232684               -6.04186496               -6.23511116               18.23234859               -1.12429452
              20.90593624                8.09380917               70.03604500                0.00010000                1.87995779                2.97631110               -8.99347002               -6.49808426               19.37841511               -0.90124388
              21.93017379                7.54947225               69.78567311                0.00010000                3.68387127                4.43859846              -13.88599310               -5.53985702               18.66319732               -0.48081557
              22.97961366                7.02079557               69.50500354                0.00010000                6.06177946                5.29354161              -20.56532514               -3.22503037               12.07175890                0.29890942
              24.05140938                6.52066993               69.13942108                0.00010000                7.17957202                5.12286132              -23.86555711               -1.92584497                5.09271542                1.48541573
              14.32306334               12.60792938               72.22599624                0.00010000                0.05382781               -0.02839507                0.08517248               -0.03469445               -0.00215743                0.79816914
              15.32360162               12.14899871               71.76354013                0.00010000                0.13302703                0.12224043               -0.43012839                0.00257080                0.28885190               -0.50976134
              16.32572388               11.68994765               71.30700550                0.00010000                0.63764640                0.30297878               -1.15006651               -1.20592398                8.19359813               -1.38319239
              17.33635454               11.20606415               71.00312545                0.00010000                1.13297650                0.20806401               -1.38472577               -2.36241421               15.72414026               -1.85311453
              18.34838341               10.70299992               70.70793368                0.00010000                1.31193199                0.23403446               -2.28349692               -3.06538258               16.20581309               -1.88414921
              19.36259318               10.18514644               70.42382391                0.00010000                1.44885430                0.70897763               -3.73310742               -3.67980178               16.76475985               -1.73431465
              20.37736049                9.65649683               70.15105602                0.00010000                1.49517192                1.55733188               -5.67543262               -4.07465864               17.42831165               -1.54663415
              21.39249662                9.12230171               69.89024717                0.00010000                2.00832818                2.70037572               -8.33345034               -4.00400231               18.11703068               -1.28130026
              22.41752706                8.59054203               69.63560683                0.00010000                3.73557579                3.98161904              -13.06448031               -3.34624497               17.49632194               -0.49251477
              23.46720814                8.06935466               69.35409148                0.00010000                5.94728577                5.01625474              -20.10605418               -1.98775428               11.38706754                0.84737090
              24.53647277                7.56809125               68.99367870                0.00010000                6.92646357                5.23341260              -23.57589203               -1.30734837                4.44552761                2.42807619
              14.78089986               13.60782371               72.09411948                0.00010000                0.09733323                0.00782040               -0.04710005               -0.03103052                0.04692538                0.74504494
              15.78187319               13.15051771               71.62511483                0.00010000                0.16710678                0.17969681               -0.59862418                0.03551053                0.76632576               -0.54636592
              16.78424200               12.69367389               71.17073130                0.00010000                1.26887766                0.41625527               -1.41562195               -1.39346794                8.92895114               -1.04073536
              17.80725075               12.20707269               70.86423498                0.00010000                2.39179594               -0.40447494               -1.39484062               -1.74079614               16.01500160               -1.27527538
              18.83207791               11.70394167               70.56854147                0.00010000                2.34572469               -0.12914983               -2.09146976               -1.80227047               16.12856911               -1.24207193
              19.85416524               11.19151289               70.28251977                0.00010000                2.09241433                0.44230370               -3.37504463               -1.87738099               16.19101430               -1.23080175
              20.87392620               10.67117221               70.00552018                0.00010000                1.88228720                1.27466887               -5.11224073               -1.93928468               16.30094066               -1.17094180
              21.89181098               10.14781668               69.73815628                0.00010000                2.11348717                2.31648187               -7.48455186               -1.70865021               16.57992711               -0.99815594
              22.91619594                9.62910464               69.47760842                0.00010000                3.52491863                3.63382243              -11.87256212               -1.18879877               15.86076318               -0.45408927
              23.96230936                9.12112067               69.19412404                0.00010000                5.57966357                4.99812945              -19.38211030               -0.64009579               10.40287587                0.53372724
              25.02778922                8.62533818               68.84000476                0.00010000                6.54798599                5.88739757              -23.43819723               -0.85069580                4.33374949                2.10088020
              15.23705473               14.60808579               71.96092047                0.00010000                0.14069217                0.02620813               -0.17473776                0.06617187                0.33929489                0.70085932
              16.23846165               14.15259264               71.48713425                0.00010000                0.21224061                0.20749332               -0.75827164                0.16819376                1.52194980               -0.57945401
              17.24129954               13.69827275               71.03735964                0.00010000                2.64045965                0.45988667               -1.73700564               -2.02514518               10.11382087               -1.09161726
              18.29127084               13.19797465               70.73160650                0.00010000                4.32991308               -0.90980373               -1.26915344               -1.49078188               16.14615214               -0.41851627
              19.32789780               12.70041692               70.43483297                0.00010000                3.32720918               -0.35247420               -1.80902148               -0.61711822               15.82905038               -0.48641677
              20.35781502               12.19399252               70.14603778                0.00010000                2.71866027                0.24796281               -2.84718452               -0.55635748               15.39492453               -0.51536148
              21.38227101               11.68199021               69.86362391                0.00010000                2.12880825                1.08179986               -4.19204318               -0.43357824               14.90971015               -0.53423030
              22.40039119               11.16863134               69.58805139                0.00010000                1.90880484                2.08146590               -5.96967929               -0.08056549               14.59359497               -0.50414332
              23.42044710               10.66321848               69.31728665                0.00010000                2.88907452                3.41138481               -9.51609069                0.45941080               13.72727940               -0.17869447
              24.45817268               10.16931724               69.02622535                0.00010000                4.52883658                4.81965788              -15.87737518                0.71736856                8.53262066               -0.73996190
              25.51102383                9.68583921               68.67016376                0.00010000                5.28511539                6.05010288              -19.70104280               -0.02434200                2.97686570                0.95435942
              11.04172132                4.75943150               74.28904644                1.00000000               -0.23944868               -0.26843760                0.93730532               -0.06136808               -0.38835724                0.49914279
              12.03932683                4.28773192               73.86159622                1.00000000               -0.20001139               -0.17376968                0.63897570               -0.03939774               -0.46754909                0.05674181
              13.03772109                3.81566328               73.43193394                0.00010000               -0.11945845               -0.08104272                0.34193568               -0.03981134               -0.48261797               -0.06084498
              14.03693766                3.34295044               73.00406304                0.00010000               -0.06578618                0.01345173                0.04046149               -0.09442911               -0.44474833               -0.36517359
              15.03640537                2.86875110               72.57554470                0.00010000               -0.01394057                0.12263954               -0.26607285               -0.13295373               -0.39551231               -0.30234382
              16.03665885                2.39310780               72.14935044                0.00010000               -0.96784321                0.20107273               -0.60315037               -1.20725899                0.64398636               -0.55949797
              17.01704850                1.89550948               71.74272921                0.00010000               -6.91720453                1.47716926               -0.72421571              -12.51484335               12.16688450               -2.30583543
              17.89831476                1.15574745               71.55195589                0.00010000               -5.28557306                1.29229711               -2.29251124              -11.81467810               23.20277259                1.58244988
              18.91133704                0.42089874               71.31791800                0.00010000                6.33506481               -1.19601729               -2.69779380               -9.57435038               20.00924964                2.11273917
              20.02501606               -0.30101885               71.05464550                1.00000000                6.09450756                0.59675874               -2.56874873               -8.90373821                8.70522093               -0.05478909
              21.03322719               -0.84128750               70.61704429                1.00000000                0.82111363                0.64823605               -2.75157316               -0.21789169                0.00902932               -0.08576931
              11.51280722                5.75674713               74.15547441                1.00000000               -0.19902546               -0.25270704                0.82147052               -0.01320239                0.03138635                0.70389972
              12.51081697                5.28599422               73.72783072                0.00010000               -0.15467519               -0.15918441                0.52348217                0.00717910                0.10900043                0.08122781
              13.50971372                4.81485285               73.30119048                0.00010000               -0.06837514               -0.06599581                0.22696156                0.00463924                0.15372106               -0.25386498
              14.50944946                4.34308496               72.87441075                0.00010000                0.01417168                0.01811526               -0.06258674               -0.03187889                0.26401706               -0.33615633
              15.50999715                3.86997749               72.45047721                0.00010000                0.08788026                0.11752648               -0.38906872               -0.06233876                0.30085282               -0.25371146
              16.51120707                3.39511853               72.02544116                0.00010000                0.02915456                0.20719951               -0.72333037               -0.51541661                0.43545543               -0.44066497
              17.51058024                2.91028117               71.60571027                0.00010000                0.31331417                0.86260771               -1.12873594              -12.50028426               11.98483202               -1.16326220
              18.51747335                2.16867043               71.41364175                0.00010000                1.66982240               -0.84114632               -2.79465987              -17.66689429               20.50491948                3.89892740
              19.54397669                1.40893856               71.15320037                0.00010000                2.47992206               -0.08717309               -2.98432711              -14.38889618               14.94156453                3.71683507
              20.56707179                0.70494874               70.84217646                1.00000000                1.36701187                0.39557810               -1.43605561               -8.01860118                6.36598611               -0.07808259
              21.57131693                0.16519486               70.40437377                1.00000000                0.42451342                0.43922934               -1.57882581               -0.16434229               -0.01955993               -0.15077280
              11.98296308                6.75437736               74.02513627                1.00000000               -0.15983899               -0.21760964                0.70253732               -0.01743952                0.17260746                0.82888695
              12.98136469                6.28454823               73.59424391                0.00010000               -0.11199689               -0.12797186                0.40723102               -0.00120791                0.36809365               -0.00304619
              13.98072314                5.81434336               73.16680114                0.00010000               -0.00946215               -0.02974726                0.11128246               -0.02876691                0.87550417               -0.69089609
              14.98117545                5.34331275               72.74611087                0.00010000                0.12009413               -0.60139994               -0.15769012               -0.73501005                1.30270925                0.97121925
              15.98312502                4.87110163               72.32778649                0.00010000                0.24356953               -1.15151937               -0.50388856               -1.08531221                1.17407189                2.79808696
              16.98604684                4.39725179               71.90591399                0.00010000                0.51829476               -2.19274740               -0.84271930               -1.25926130                1.28805382                5.43582214
              17.99349092                3.91276164               71.49179840                0.00010000                3.01363243               -5.73937344               -1.28964262              -13.84701079               14.30937714               10.16978468
              19.04631949                3.13892453               71.33248393                0.00010000                4.68949435               -1.95073688               -4.76598731              -23.30687183               20.56196459                8.24037604
              20.08728081                2.41915527               71.02112806                0.00010000                3.10341259                1.45067323               -5.11831964              -18.39500448                9.23940085                8.07873852
              21.10838774                1.70689271               70.63113386                0.00010000                1.10836489                0.06853976               -0.25619591               -8.50189655                2.35650122               -0.01074139
              22.10944810                1.16749709               70.19286850                0.00010000                0.10603668                0.09509572               -0.31597212               -0.10843704                0.05767456               -0.09106609
              12.45211669                7.75239493               73.89329471                0.00010000               -0.12898843               -0.17555235                0.58523426               -0.02315058                0.28181528                0.70472783
              13.45082681                7.28343479               73.45856354                0.00010000               -0.08714133               -0.09486446                0.29243763               -0.00299455                0.49024865               -0.38591795
              14.45037387                6.81425791               73.02762689                0.00010000               -0.64179036                0.01111794                0.00092421               -0.69920348                3.01147408               -1.18631611
              15.43799100                6.33105696               72.64345592                0.00010000               -0.80110011               -0.87717374               -0.56108942               -2.06151365                5.81989560                1.66741948
              16.43435186                5.84694710               72.26510286                0.00010000                0.31854162               -2.07641520               -1.27681482               -2.87892121                7.10096666                4.86349638
              17.44436183                5.35126358               71.90147686                0.00010000                2.88077123               -4.33494648               -2.31537030               -5.79582931               10.53242290                9.20787573
              18.49196729                4.79549370               71.58391475                0.00010000                5.02902217               -8.29272050               -4.22711162              -13.01863217               14.44897624               14.67702032
              19.54494228                4.12965569               71.28764258                0.00010000                5.80705641               -0.45762086               -7.10819264              -20.27954858               14.73590420                9.44333879
              20.60810842                3.43795203               70.95535252                0.00010000                5.18748873                3.08264678              -11.61953779              -23.33724930                3.86139116               10.92420517
              21.64869205                2.70631953               70.42311761                0.00010000                1.99155120                6.09666418                0.28560902              -15.33443491               -4.64783664               16.74738114
              22.64793944                2.16709677               69.98452292                0.00010000               -0.07526111                6.89561448                0.26620380               -5.37942330               -0.01146191               17.57828742
              12.92042037                8.75086632               73.75979870                0.00010000               -0.09785386               -0.12870607                0.47596067               -0.01922469                0.01202219                0.62997026
              13.91944183                8.28265094               73.31716466                0.00010000               -0.06517328               -0.06909646                0.17386500                0.02082321                0.48754138               -0.57651299
              14.91911690                7.81456572               72.88374976                0.00010000               -0.60929247               -0.00922231               -0.13889249               -0.97168658                4.90702231               -1.76252815
              15.90725598                7.32576927               72.52927514                0.00010000               -0.68884593               -0.40939228               -0.90557684               -2.17949181                9.46375993                0.42587738
              16.90533998                6.82957332               72.18291656                0.00010000                0.71638365               -1.43017433               -1.91527279               -3.49346246               11.04615643                2.68726623
              17.92158365                6.31055286               71.85359481                0.00010000                2.46930930               -2.96422243               -3.38202673               -6.76970478               13.39506181                5.01497381
              18.95472617                5.74690723               71.54493605                0.00010000                3.83432707               -2.99364662               -5.59710859              -12.92357658               15.70143104                6.13608691
              19.99827019                5.12977211               71.24733650                0.00010000                4.45729041                1.02852996               -9.17504811              -18.38314261               16.13220434                7.03207286
              21.04387198                4.48080821               70.92325635                0.00010000                3.71420510                5.72899836              -13.59027517              -21.67620978               12.95988588                9.63443624
              22.07255429                3.82882600               70.54918554                0.00010000                1.82165906               13.70054003              -20.11137987              -15.83044589                7.25279829               20.02558252
              23.08030516                3.30540938               70.12803821                0.00010000                0.77508631               15.32480807              -22.02654899               -7.54919068                1.56537541               21.95894628
              13.38816294                9.74982081               73.62586890                0.00010000               -0.06190784               -0.08924952                0.36450268               -0.02517263               -0.00322442                0.66178790
              14.38754387                9.28205286               73.17762560                0.00010000               -0.01705692               -0.04179040                0.05618474                0.00024110                0.24960895               -0.46733605
              15.38782181                8.81407346               72.73423763                0.00010000               -0.40751504               -0.04137449               -0.31578223               -1.11574477                6.13566699               -1.99560582
              16.37939357                8.32286911               72.40375882                0.00010000               -0.40613902               -0.17910031               -1.15750613               -2.58085012               12.15794057               -0.68941280
              17.37969903                7.81834362               72.07817932                0.00010000                0.61201342               -0.71577835               -2.32150492               -4.17826043               13.26165972                0.59603420
              18.39163383                7.29197913               71.76467628                0.00010000                1.72887400               -1.04977878               -3.94833029               -7.14104494               14.95626129                1.71208831
              19.41427651                6.73562077               71.46502790                0.00010000                2.58723030               -0.14959857               -6.30458848              -10.97990177               16.66573336                2.54212331
              20.44337844                6.15022629               71.17292668                0.00010000                3.06269149                2.68125493               -9.83094560              -14.18602083               17.53587057                3.31169810
              21.47553034                5.55253200               70.87305398                0.00010000                3.20517643                7.09753381              -15.00555660              -14.44598092               16.10379051                4.80557595
              22.50748197                4.98033033               70.54219139                0.00010000                3.41292661               12.72399320              -20.27466262               -9.46791311               10.02940595                6.66365744
              23.54378887                4.47359294               70.14411759                0.00010000                3.63068995               14.05892466              -23.03937754               -4.18397821                4.36331620                7.61893398
              13.85545282               10.74908132               73.49249397                0.00010000               -0.02588240               -0.06078378                0.25305634               -0.02724844               -0.01228012                0.72915223
              14.85519400               10.28181513               73.03841262                0.00010000                0.02664614               -0.00152775               -0.06955930               -0.03139766                0.13902104               -0.45532965
              15.85598575                9.81373823               72.58725252                0.00010000               -0.19125913                0.00787260               -0.48672806               -1.19577201                6.92276761               -1.84229056
              16.85136882                9.32218726               72.26936133                0.00010000               -0.16604958                0.05980706               -1.31073712               -2.73399232               13.79591676               -1.47342527
              17.85266476                8.81525775               71.95579306                0.00010000                0.50583889               -0.02020458               -2.50340160               -4.28446114               14.58666708               -0.88083313
              18.86148560                8.28955728               71.65131286                0.00010000                1.21081092                0.20988553               -4.15471814               -6.40676730               15.79209684               -0.29533361
              19.87688097                7.74391525               71.35698754                0.00010000                1.80764780                1.27428107               -6.46614814               -8.65473990               17.03015646                0.18369921
              20.89763855                7.18339721               71.06880899                0.00010000                2.39836679                3.42685918               -9.79999092               -9.98737332               17.57597130                0.58012859
              21.92484831                6.62275889               70.77388309                0.00010000                3.22482695                6.35229733              -14.26583254               -9.22981412               15.76084499                0.84998075
              22.96213509                6.08330586               70.44532828                0.00010000                4.26260392                8.80933000              -18.81783154               -5.66956352                9.77372286                0.88040239
              24.01010039                5.58658787               70.04904904                0.00010000                4.79652976                9.40148962              -21.20977606               -2.70086907                4.38262494                1.03862696
              14.32215036               11.74860514               73.35937811                0.00010000                0.01086493               -0.03315390                0.13751159               -0.02677924               -0.00491035                0.78083866
              15.32225901               11.28202230               72.89923101                0.00010000                0.06919395                0.04367074               -0.19790616               -0.05036841                0.12769548               -0.48381956
              16.32353424               10.81423091               72.44174093                0.00010000                0.04675954                0.09544046               -0.66423314               -1.18204317                7.50056916               -1.80484918
              17.32319420               10.32406525               72.12984714                0.00010000                0.15527739                0.26239945               -1.38601865               -2.57784787               14.81874507               -1.84181096
              18.32663978                9.81793953               71.82257061                0.00010000                0.58233955                0.38985885               -2.51439911               -3.82190256               15.34844868               -1.66637822
              19.33484099                9.29617684               71.52258977                0.00010000                1.03509993                0.82786581               -4.10106889               -5.16937184               16.13809254               -1.40399214
              20.34734178                8.76110639               71.23039902                0.00010000                1.49731764                1.82597282               -6.28073766               -6.32120581               16.91841523               -1.16881348
              21.36478734                8.21876347               70.94225636                0.00010000                2.18418099                3.40502288               -9.34391480               -6.71560149               17.03915634               -0.98833018
              22.39102540                7.67957794               70.64563480                0.00010000                3.27371873                5.20492529              -13.42423892               -5.81807035               15.03019676               -0.85079686
              23.43026172                7.15651693               70.31589846                0.00010000                4.60910331                6.56384394              -17.57951501               -3.50292589                9.20100584               -0.63184147
              24.48320747                6.66162273               69.92003921                0.00010000                5.29457532                6.68883917              -20.08812565               -1.79617111                4.24560719               -0.24379801
              14.78808291               12.74841825               73.22649045                0.00010000                0.04779464               -0.00307116                0.01730004               -0.02507492               -0.00190969                0.80272572
              15.78856086               12.28268855               72.75974538                0.00010000                0.11095103                0.08983482               -0.32756381               -0.05368652                0.16568195               -0.54272756
              16.79030193               11.81564704               72.29647854                0.00010000                0.37711953                0.18653132               -0.86333512               -1.11139040                8.07564925               -1.53690373
              17.79610325               11.32743525               71.98896714                0.00010000                0.69065936                0.28474197               -1.41081247               -2.20974384               15.59805199               -1.80774586
              18.80411512               10.82305493               71.68441426                0.00010000                0.94140214                0.44466239               -2.41255702               -2.96961179               15.75266747               -1.78605036
              19.81493129               10.30611460               71.38597779                0.00010000                1.18775545                0.96383071               -3.87212237               -3.65438196               16.14422734               -1.70774313
              20.82787023                9.78043471               71.09345668                0.00010000                1.49618417                1.84978745               -5.87200406               -4.11778649               16.51179984               -1.64593560
              21.84485497                9.25149767               70.80334097                0.00010000                2.14316062                3.06306021               -8.69878398               -4.07783026               16.34269363               -1.57207420
              22.87073344                8.72685739               70.50406534                0.00010000                3.25884066                4.39287291              -12.59430733               -3.32250230               14.28005281               -1.42423964
              23.91003179                8.21458274               70.17269885                0.00010000                4.66159689                5.42846293              -16.74975767               -1.91828089                8.69030588               -1.08342641
              24.96396538                7.72036465               69.77800911                0.00010000                5.39335906                5.65857015              -19.58071933               -1.13243030                4.12932735               -0.61824984
              15.25310825               13.74854371               73.09331069                0.00010000                0.08482280                0.02920276               -0.10768883               -0.02188170                0.04819592                0.74556010
              16.25395648               13.28381900               72.61989379                0.00010000                0.17257350                0.13389218               -0.45200201               -0.04158060                0.60245445               -0.57307783
              17.25655972               12.81796154               72.15781270                0.00010000                0.88174744                0.23447716               -1.06129672               -1.08618111                8.86543393               -1.22536896
              18.27159143               12.32976009               71.85006000                0.00010000                1.60042389               -0.11225309               -1.40579030               -1.48587850               16.11899295               -1.23245645
              19.28856820               11.82683277               71.54696541                0.00010000                1.63910696                0.21438129               -2.23215354               -1.71690267               15.94674321               -1.19678173
              20.30437357               11.31545345               71.24843028                0.00010000                1.55173923                0.78990411               -3.51959391               -1.90081635               15.92775672               -1.21582670
              21.31960299               10.79810214               70.95408260                0.00010000                1.62172420                1.60100626               -5.28931895               -2.00650294               15.92810498               -1.24793059
              22.33680805               10.28002467               70.66085877                0.00010000                2.09436492                2.61776251               -7.81295221               -1.83315099               15.51419998               -1.26180716
              23.36149028                9.76743540               70.35830540                0.00010000                3.07903919                3.74722704              -11.45268835               -1.35470331               13.48690529               -1.23893791
              24.39838884                9.26508619               70.02500397                0.00010000                4.37523755                4.74816298              -15.55110538               -0.70560251                8.21397931               -1.10010947
              25.44899504                8.77479413               69.63066732                0.00010000                5.06061981                5.32924912              -18.80062587               -0.65385720                3.92406211               -0.89672090
              15.71709471               14.74900230               72.95886692                0.00010000                0.12167116                0.04585883               -0.22650342                0.03505458                0.33509745                0.69929286
              16.71831142               14.28536639               72.48054854                0.00010000                0.27712525                0.15473951               -0.57360341                0.00220797                1.26696186               -0.59681445
              17.72263721               13.82033658               72.02123729                0.00010000                1.96015116                0.23750455               -1.33276556               -1.40106107               10.08323186               -1.29323025
              18.75751444               13.32519019               71.71863987                0.00010000                3.07232454               -0.45699018               -1.32255258               -1.05740009               16.64127699               -0.48147976
              19.78408370               12.82734256               71.41610534                0.00010000                2.40655753                0.05097837               -1.99429171               -0.61232520               16.00544838               -0.52737238
              20.80564559               12.32191268               71.11720325                0.00010000                1.95426221                0.64592280               -3.07075268               -0.61718365               15.70669048               -0.57356292
              21.82316895               11.81245484               70.82112898                0.00010000                1.66065514                1.43526924               -4.53192206               -0.54639203               15.41748420               -0.65140571
              22.83885870               11.30385292               70.52509872                0.00010000                1.77044538                2.38282424               -6.61795076               -0.32758080               14.86016583               -0.73068951
              23.85857786               10.80180193               70.22001864                0.00010000                2.48511547                3.43665327               -9.69753403               -0.00658876               12.94672975               -0.91055090
              24.88856101               10.30954600               69.88605540                0.00010000                3.64472503                4.44598062              -13.31698611                0.27460199                7.97395990               -1.06400211
              25.93147236                9.82694963               69.49165152                0.00010000                4.29113505                5.21555039              -16.46668183               -0.01190425                4.15246399               -1.30665993
              11.46678085                4.89855259               75.29767811                1.00000000               -0.20842665               -0.22582446                0.79157304               -0.04583792               -0.38771741                0.49543841
              12.46469658                4.42263554               74.86768601                0.00010000               -0.18137282               -0.15824581                0.57928480               -0.02627158               -0.46740304                0.05569385
              13.46315339                3.94638165               74.43548886                0.00010000               -0.12558728               -0.09136165                0.36738148               -0.02627013               -0.48350818               -0.05874462
              14.46218484                3.46954769               74.00504439                0.00010000               -0.09184712               -0.02395099                0.15186514               -0.07439132               -0.44732102               -0.34831144
              15.46131645                2.99140244               73.57392362                0.00010000               -0.05782278                0.05480991               -0.06494915               -0.10830700               -0.41227136               -0.30296201
              16.46102838                2.51203114               73.14483370                0.00010000               -1.10350812                0.10505975               -0.31000045               -1.20285036                0.72754245               -0.55804018
              17.43924629                2.01044876               72.73757295                0.00010000               -5.88889670                1.45102169               -0.32811714              -10.26779413               11.61320846               -2.52912649
              18.34325045                1.30924054               72.52981754                0.00010000               -3.97414221                0.77589524               -2.06820139               -9.70271912               22.16124836                1.06103749
              19.35976345                0.60418183               72.29098497                0.00010000                6.02255159               -1.25686671               -2.60500461               -8.25054613               19.78555661                1.49320270
              20.46370148               -0.09570978               72.02918196                1.00000000                5.58758684                0.55693023               -2.49985332               -7.82918605                8.87884900               -0.07113277
              21.47151518               -0.63593427               71.59029613                1.00000000                0.78137010                0.58575601               -2.59547812               -0.18010952               -0.00797724               -0.05756656
              11.94223952                5.89629434               75.16301446                1.00000000               -0.17201792               -0.21197829                0.68881189               -0.01142827                0.02922407                0.69777218
              12.94051934                5.42105308               74.73283317                0.00010000               -0.14024499               -0.14563783                0.47705102                0.00696933                0.10656665                0.07980389
              13.93943462                4.94546803               74.30366805                0.00010000               -0.07944035               -0.07872656                0.26632325                0.00491101                0.15638324               -0.25121280
              14.93893053                4.46930818               73.87444074                0.00010000               -0.02214797               -0.02089639                0.06377123               -0.02684144                0.25556382               -0.31283743
              15.93899166                3.99195054               73.44771699                0.00010000                0.02730924                0.05123729               -0.17119850               -0.05516632                0.27486612               -0.24625394
              16.93947672                3.51308174               73.01981361                0.00010000               -0.05140039                0.11253744               -0.41337362               -0.47976885                0.37565851               -0.43074676
              17.93796365                3.02495898               72.59649937                0.00010000                0.49400049                0.78952964               -0.72586033              -10.53010806               11.31743028               -1.29023631
              18.94935673                2.31699949               72.38901102                0.00010000                2.08847452               -1.23020475               -2.18157510              -14.61826299               19.74716624                2.68459157
              19.97973314                1.59161316               72.12662476                0.00010000                2.80554714               -0.37863715               -2.41715788              -12.08810583               15.56961552                2.45739886
              21.00546767                0.90985952               71.82837317                1.00000000                1.51027173                0.39540829               -1.40278334               -6.92936221                7.02962978               -0.08498248
              22.00993858                0.36992329               71.38948988                1.00000000                0.44709070                0.42183804               -1.48551847               -0.15443405                0.00608642               -0.09352528
              12.41703480                6.89431302               75.03155839                1.00000000               -0.13725216               -0.18053777                0.58356364               -0.01549840                0.16872756                0.82231644
              13.41566228                6.41972278               74.59815255                0.00010000               -0.10191441               -0.11842775                0.37423830               -0.00116797                0.36317914               -0.00365922
              14.41499651                5.94480712               74.16819260                0.00010000               -0.02483883               -0.04773034                0.16457503               -0.02716227                0.88489758               -0.68610664
              15.41516550                5.46912976               73.74526539                0.00010000                0.07215277               -0.62059067               -0.01732443               -0.61074626                1.28910556                0.82396916
              16.41643957                4.99242718               73.32394564                0.00010000                0.16295277               -1.15487080               -0.27340542               -0.78895891                1.13178644                2.44311565
              17.41842456                4.51428189               72.89917469                0.00010000                0.41434036               -2.13152145               -0.51736360               -0.70032501                1.20174515                4.70941759
              18.42472638                4.02623936               72.48105946                0.00010000                3.29032240               -5.38290890               -0.86765675              -11.23544230               12.78651426                8.75131328
              19.48423101                3.28463644               72.29037420                0.00010000                5.02074574               -2.41917151               -3.63080055              -18.94381019               18.73812508                6.02856452
              20.52514129                2.59660909               71.98305958                0.00010000                3.12865484                0.58848209               -3.19854392              -15.17850195               10.55841582                5.06504471
              21.54680411                1.91219839               71.62760237                0.00010000                1.15788350                0.10240063               -0.40079527               -7.08484491                4.16206005               -0.02078094
              22.54829896                1.37250249               71.18866206                1.00000000                0.14948570                0.12349752               -0.45766791               -0.14490031                0.01267961               -0.04420324
              12.89111002                7.89268359               74.89861329                0.00010000               -0.11081394               -0.14195946                0.47965408               -0.01931850                0.27811038                0.70425380
              13.89000188                7.41868453               74.46139789                0.00010000               -0.08128150               -0.09064309                0.27392980               -0.00101891                0.48495590               -0.38675004
              14.88948439                6.94451342               74.02796380                0.00010000               -0.54531715               -0.03553804                0.06395644               -0.65505225                2.84996970               -1.19338474
              15.87909554                6.45689637               73.63816979                0.00010000               -0.57120183               -0.92278376               -0.49126906               -1.83591703                5.44454865                1.40427575
              16.87806036                5.96885312               73.25276978                0.00010000                0.62812505               -2.08059807               -1.17218838               -2.36354579                6.46219245                4.25275696
              17.89165804                5.47045131               72.87875593                0.00010000                3.24199484               -4.20190075               -2.14760547               -4.68600946                9.22086322                8.02814562
              18.94290025                4.91730080               72.54314620                0.00010000                5.42263762               -7.84330698               -3.80777149              -10.57035828               11.88986407               12.69617164
              20.00011079                4.26861606               72.21962059                0.00010000                5.28504512               -1.13927503               -5.81586454              -16.72231321               11.71419711                7.54891317
              21.04860115                3.60338280               71.88029999                0.00010000                4.38832846                1.49891903               -6.14335274              -18.59915846                4.39155429                7.71729112
              22.08787736                2.91190754               71.42741551                0.00010000                1.89156009                4.62875000                0.46100208              -12.43564677               -0.66917106                9.41689861
              23.08643236                2.37239324               70.98840519                0.00010000               -0.14450059                5.71433420                0.42010564               -5.32560848               -0.01061425                9.97257858
              13.36464655                8.89147383               74.76408268                0.00010000               -0.08344849               -0.09903071                0.38161939               -0.01628830                0.00502472                0.63341599
              14.36381207                8.41790992               74.31890794                0.00010000               -0.04814607               -0.06925013                0.17452396                0.00056603                0.46997746               -0.58022743
              15.36368363                7.94409636               73.88274668                0.00010000               -0.48522984               -0.08992868               -0.05917426               -0.95128372                4.62612178               -1.81042660
              16.35410747                7.45067409               73.52034667                0.00010000               -0.40349570               -0.50702575               -0.87034608               -2.07382696                8.82267333                0.27271664
              17.35561371                6.95081522               73.16374300                0.00010000                1.10746093               -1.50614144               -1.88308498               -3.21717070               10.04861800                2.31267116
              18.37625669                6.43024387               72.81976631                0.00010000                2.97703736               -2.96573560               -3.29280904               -6.14400477               11.68330275                4.38462663
              19.41515446                5.86937322               72.48914550                0.00010000                4.37230281               -3.04059398               -5.27380161              -11.64588859               12.83758005                5.35403539
              20.46370274                5.26185094               72.16158490                0.00010000                4.73560909                0.33102963               -7.73805616              -16.49137880               11.87897579                6.33557670
              21.50986664                4.62658747               71.80794456                0.00010000                3.26889932                3.99441570               -9.74390067              -18.00832091                8.41340469                7.91512689
              22.52908073                4.00477339               71.41493305                0.00010000                0.54743672               10.05984629              -10.82648057              -12.91074715                4.08036593               14.41526594
              23.52081538                3.48678918               70.98750701                0.00010000               -0.82653516               11.73003878              -11.03768894               -6.68866427                1.41838843               16.02938630
              13.83791207                9.89070297               74.62907024                0.00010000               -0.05213951               -0.06215760                0.27710949               -0.02125268               -0.00341938                0.66446433
              14.83739068                9.41729952               74.17827941                0.00010000               -0.01087616               -0.04541959                0.07456850               -0.04907670                0.20859665               -0.47537185
              15.83769455                8.94271485               73.73153701                0.00010000               -0.32452720               -0.10203446               -0.20497582               -1.14566255                5.77617944               -2.03000531
              16.83090013                8.44675585               73.39223444                0.00010000               -0.17736970               -0.27467711               -1.13767481               -2.55196262               11.40383540               -0.73206441
              17.83414716                7.93873029               73.05473279                0.00010000                0.96599068               -0.79480930               -2.33169727               -4.05251537               12.14364565                0.46928592
              18.85021995                7.41113660               72.72479986                0.00010000                2.21141286               -1.10707075               -3.92445606               -6.82546100               13.20918174                1.50772006
              19.87837541                6.85648892               72.40190715                0.00010000                3.14245098               -0.30100308               -6.07510145              -10.47044285               13.87279126                2.38629697
              20.91306897                6.27523665               72.07769693                0.00010000                3.35684372                2.15987168               -8.83380655              -13.51958390               13.33748578                3.32950480
              21.94551229                5.68327112               71.73811060                0.00010000                2.81958700                5.98006980              -12.01634326              -13.89953128               10.83316844                5.11436445
              22.96946071                5.11310446               71.36561291                0.00010000                2.15576009               10.13057045              -15.00733308               -9.10714514                6.25311716                7.16523047
              23.98862749                4.60699402               70.94812921                0.00010000                1.91667824               11.18478850              -16.34022420               -3.90434445                2.68390519                7.93232706
              14.31102839               10.89023068               74.49461323                0.00010000               -0.02097380               -0.03455380                0.17316182               -0.02209901               -0.01085845                0.72924526
              15.31081865               10.41700153               74.03792029                0.00010000                0.01428292               -0.01178843               -0.02922207               -0.07672797                0.08768178               -0.46623764
              16.31131405                9.94205567               73.58310082                0.00010000               -0.18829385               -0.02117742               -0.31697119               -1.23471798                6.54980122               -1.83620626
              17.30705278                9.44518055               73.25626415                0.00010000               -0.05656921               -0.01432352               -1.29689440               -2.74701193               13.04503691               -1.42772812
              18.31018266                8.93491903               72.93037923                0.00010000                0.74680291               -0.07090395               -2.54625876               -4.22655239               13.50517349               -0.83233154
              19.32198883                8.40810246               72.60915350                0.00010000                1.57314428                0.17259825               -4.18843716               -6.27971013               14.18996166               -0.24547120
              20.34164555                7.86335316               72.29175331                0.00010000                2.22700186                1.18456197               -6.36180306               -8.50765712               14.59760157                0.30553253
              21.36652887                7.30504837               71.97225825                0.00010000                2.61813278                3.21369691               -9.16207921               -9.93748411               14.05237265                0.92113008
              22.39400821                6.74618886               71.63877270                0.00010000                2.83430271                5.95014745              -12.41989379               -9.30201185               11.73264354                1.61191502
              23.42321493                6.20738480               71.27443676                0.00010000                3.04705849                8.38418578              -15.36513827               -5.79676270                6.93941035                2.24103467
              24.45494938                5.71048495               70.85916368                0.00010000                3.17344502                8.99199340              -16.81810412               -2.71935823                3.09614566                2.30111772
              14.78392839               11.89001190               74.36038358                0.00010000                0.01027412               -0.00896835                0.06769582               -0.02046861               -0.00261717                0.77388711
              15.78403113               11.41706376               73.89759689                0.00010000                0.04463918                0.02399207               -0.13067389               -0.08060401                0.07078281               -0.49277809
              16.78482117               10.94229130               73.43629074                0.00010000               -0.04673026                0.05410689               -0.41783234               -1.19466593                7.15054100               -1.77530249
              17.78309653               10.44646938               73.11600569                0.00010000                0.09365111                0.22579146               -1.36734275               -2.58259992               14.15605991               -1.74661971
              18.78669420                9.93731221               72.79691660                0.00010000                0.65475485                0.39825394               -2.58743647               -3.78186920               14.40040602               -1.52519969
              19.79619162                9.41458856               72.48081298                0.00010000                1.22910798                0.85243084               -4.18678156               -5.13427842               14.78067211               -1.24099553
              20.81127636                8.88018016               72.16668744                0.00010000                1.76459774                1.82706877               -6.28363746               -6.32451033               14.92287296               -0.96172540
              21.83148358                8.33951059               71.84916670                0.00010000                2.29296359                3.36047210               -8.95865364               -6.78465670               14.21552151               -0.70159967
              22.85713563                7.80227407               71.51718834                0.00010000                2.88728947                5.15988915              -12.03416282               -5.94801896               11.79832961               -0.47810801
              23.88922937                7.28078818               71.15341324                0.00010000                3.54521973                6.55979089              -14.86614187               -3.57923121                6.97337381               -0.37722920
              24.92804002                6.78683389               70.73765857                0.00010000                3.88106545                6.73066015              -16.43219357               -1.72095855                3.19018092               -0.48522976
              15.25651530               12.89005131               74.22634224                0.00010000                0.04118684                0.01732723               -0.04055362               -0.01853452               -0.00034087                0.78658459
              16.25692717               12.41748137               73.75698885                0.00010000                0.07499027                0.05946163               -0.22881321               -0.07621827                0.09821245               -0.54607122
              17.25801510               11.94313780               73.28973879                0.00010000                0.17263506                0.10582291               -0.51521189               -1.06108510                7.76623259               -1.50492426
              18.26037987               11.44969638               72.97490920                0.00010000                0.42054997                0.31407246               -1.38478853               -2.14361607               15.07869282               -1.69680785
              19.26642610               10.94288411               72.65968254                0.00010000                0.80277232                0.55013708               -2.51407677               -2.92984999               15.00569818               -1.62540853
              20.27643531               10.42515108               72.34638146                0.00010000                1.19036066                1.06911678               -4.00884156               -3.67890117               15.09202366               -1.52691982
              21.29023332                9.89989453               72.03361594                0.00010000                1.61532599                1.91805658               -5.96628442               -4.20549009               14.97652530               -1.45046507
              22.30874183                9.37225782               71.71627149                0.00010000                2.17684605                3.06561012               -8.46682444               -4.20596388               14.09632248               -1.40587053
              23.33377024                8.84938665               71.38372068                0.00010000                2.91643234                4.30492558              -11.37268926               -3.45119920               11.62875930               -1.39403614
              24.36707048                8.33858061               71.01909633                0.00010000                3.73342747                5.24868735              -14.14647488               -1.96454206                6.86484970               -1.44739719
              25.40843879                7.84509815               70.60206431                0.00010000                4.13683059                5.34637313              -15.89630663               -1.00305910                3.19582355               -1.69196825
              15.72869758               13.89035844               74.09196571                0.00010000                0.07226939                0.04539366               -0.15255001               -0.01663800                0.05118946                0.72526254
              16.72942027               13.41825299               73.61607479                0.00010000                0.13434438                0.09327418               -0.32260548               -0.07236639                0.50508517               -0.56975062
              17.73138447               12.94440776               73.14950537                0.00010000                0.55288105                0.12105817               -0.65077787               -0.93222048                8.56643002               -1.20778796
              18.74047789               12.45275083               72.83611918                0.00010000                1.06290144                0.07444725               -1.37680195               -1.36221709               15.77256063               -1.13401548
              19.75264250               11.94831495               72.52389840                0.00010000                1.25626435                0.43527521               -2.37891725               -1.68813278               15.46024124               -1.08742894
              20.76560318               11.43597090               72.21212789                0.00010000                1.37086585                0.99121201               -3.73522003               -1.96418876               15.24869229               -1.08611838
              21.78005981               10.91854130               71.89973380                0.00010000                1.61345022                1.74874038               -5.51058651               -2.13280997               14.91216292               -1.10836740
              22.79787219               10.40082279               71.58189723                0.00010000                2.08645154                2.66399166               -7.79588848               -2.01028516               13.91723907               -1.16052175
              23.82178884                9.88837258               71.24855465                0.00010000                2.81774171                3.60971704              -10.49979037               -1.52030413               11.46351309               -1.23715165
              24.85422702                9.38576193               70.88310193                0.00010000                3.65774610                4.36768695              -13.18401485               -0.78313583                6.77851994               -1.32815423
              25.89494377                8.89376135               70.46399224                0.00010000                4.07167456                4.63197237              -15.09661118               -0.47795373                3.26219355               -1.71889669
              16.20039344               14.89095918               73.95639040                0.00010000                0.10370773                0.06007449               -0.26005141                0.00835305                0.32365952                0.67711832
              17.20143052               14.41934685               73.47566218                0.00010000                0.22397044                0.10938667               -0.41893419               -0.06898651                1.09531377               -0.58610486
              18.20487285               13.94555897               73.01070432                0.00010000                1.38989070                0.11512072               -0.83517664               -1.05923855                9.76054384               -1.23518251
              19.22922833               13.45118532               72.70515545                0.00010000                2.22852663               -0.15655116               -1.36510461               -0.82342378               16.58815064               -0.48922861
              20.24944338               12.95158962               72.39494714                0.00010000                1.88484321                0.32746647               -2.24790870               -0.63041168               15.81905105               -0.51838105
              21.26692520               12.44497532               72.08462273                0.00010000                1.66409198                0.90044189               -3.46191801               -0.70381250               15.44712553               -0.55080818
              22.28272522               11.93486934               71.77298547                0.00010000                1.58898251                1.63280443               -5.04845203               -0.70534252               15.00190965               -0.61998388
              23.29870485               11.42553765               71.45569237                0.00010000                1.78498989                2.47148577               -7.09255730               -0.58115164               14.01476290               -0.73411368
              24.31842502               10.92158099               71.12333597                0.00010000                2.36570727                3.32084080               -9.55378137               -0.31654724               11.71598757               -0.90779542
              25.34601899               10.42593435               70.75988562                0.00010000                3.22279212                4.01724281              -12.06615638               -0.01297227                7.17033337               -1.11504154
              26.38288086                9.93773760               70.34083012                0.00010000                3.68618701                4.39762487              -13.97571504               -0.02596592                3.86616513               -1.72166049
              11.89395118                5.03866758               76.30487790                1.00000000               -0.17831527               -0.18452882                0.65117915               -0.03130138               -0.38797248                0.49227626
              12.89216803                4.55855147               75.87318192                0.00010000               -0.16293147               -0.14277125                0.52021562               -0.01421112               -0.46858423                0.05494100
              13.89069255                4.07813000               75.43928157                0.00010000               -0.13057749               -0.10051466                0.38915659               -0.01387146               -0.48584285               -0.05644459
              14.88955648                3.59719151               75.00710034                0.00010000               -0.11609637               -0.05843006                0.25479475               -0.05571253               -0.44932915               -0.33112023
              15.88837063                3.11510511               74.57424572                0.00010000               -0.09980544               -0.00747198                0.12173440               -0.08511804               -0.42563902               -0.30290723
              16.88756037                2.63198719               74.14315043                0.00010000               -1.20208958                0.01754187               -0.03598380               -1.16380045                0.81663785               -0.55756793
              17.86432883                2.12707412               73.73616687                0.00010000               -4.97163288                1.39158250                0.00534999               -8.33003765               11.01220715               -2.75390622
              18.78812771                1.45858124               73.51059186                0.00010000               -2.83225402                0.32243619               -1.75578275               -7.96318750               20.94625091                0.65384340
              19.80768375                0.77948321               73.26581791                0.00010000                5.75770796               -1.34712814               -2.40070847               -7.13794690               19.45298304                1.03769689
              20.90328187                0.09917609               73.00464843                1.00000000                5.15777784                0.56525881               -2.45296245               -6.86373723                8.93871261               -0.04705811
              21.91083931               -0.44082632               72.56513473                1.00000000                0.75574374                0.57847526               -2.48758961               -0.16364947                0.00266026               -0.01827468
              12.37375428                6.03682229               76.16925065                1.00000000               -0.14595692               -0.17213608                0.56103116               -0.00994689                0.02686211                0.69195447
              13.37229471                5.55712376               75.73737174                0.00010000               -0.12602296               -0.13205688                0.43077252                0.00642976                0.10364756                0.07874144
              14.37123382                5.07712485               75.30651694                0.00010000               -0.08914553               -0.09022573                0.30105046                0.00495785                0.15866562               -0.24786149
              15.37051180                4.59660721               74.87568618                0.00010000               -0.05561067               -0.05642185                0.17996287               -0.02232122                0.24906250               -0.28940245
              16.37012161                4.11503039               74.44705324                0.00010000               -0.02869673               -0.00969782                0.03000338               -0.04818873                0.25338837               -0.23967342
              17.36993786                3.63216261               74.01717369                0.00010000               -0.11950876                0.02553159               -0.12528523               -0.43164484                0.32186588               -0.42285817
              18.36773143                3.14098994               73.59119306                0.00010000                0.61767133                0.70334761               -0.34426724               -8.83320709               10.69587350               -1.42733600
              19.38229129                2.46180560               73.37001025                0.00010000                2.41377143               -1.48474951               -1.67812179              -12.20119280               19.02297246                1.75531813
              20.41600686                1.76601193               73.10485722                0.00010000                3.12539887               -0.63511390               -2.01432755              -10.17198654               15.85464816                1.61548666
              21.44479927                1.10482868               72.81412080                1.00000000                1.65991853                0.41293294               -1.43393075               -5.91544578                7.43985611               -0.05469019
              22.44920523                0.56495843               72.37466340                1.00000000                0.44059618                0.42620203               -1.46786161               -0.14987423                0.00032430               -0.04178405
              12.85314931                7.03522486               76.03680754                0.00010000               -0.11552483               -0.14332857                0.46856130               -0.01368097                0.16478211                0.81495585
              13.85199406                6.55591033               75.60172868                0.00010000               -0.09205266               -0.10896811                0.34091269               -0.00093311                0.35825821               -0.00335467
              14.85130826                6.07632548               75.17009264                0.00010000               -0.03947739               -0.06443585                0.21279088               -0.02398637                0.89398641               -0.68188373
              15.85120452                5.59606307               74.74576438                0.00010000                0.02715967               -0.62730089                0.11081806               -0.49250674                1.27704127                0.63993933
              16.85185145                5.11491115               74.32231838                0.00010000                0.08817038               -1.14127515               -0.06086075               -0.53386396                1.09626977                2.02960884
              17.85296792                4.63249782               73.89556671                0.00010000                0.30851212               -2.04638712               -0.21585220               -0.26526388                1.12960571                3.94024609
              18.85802170                4.14114107               73.47444527                0.00010000                3.30569718               -4.98294230               -0.46488484               -9.12215469               11.61019143                7.37699930
              19.91908187                3.42888625               73.25986792                0.00010000                5.15996252               -2.61911766               -2.66714106              -15.72894979               17.56962089                4.34435231
              20.96122095                2.76678093               72.95715718                0.00010000                3.34722953                0.07004697               -2.30896393              -12.46568880               11.76269649                3.05723172
              21.98602646                2.10743475               72.62311796                0.00010000                1.31806898                0.12490738               -0.45072395               -5.83395229                5.27433001               -0.05669629
              22.98758233                1.56769772               72.18371514                1.00000000                0.15558670                0.13724838               -0.48188173               -0.14657438               -0.00277283               -0.05656976
              13.33210971                8.03395572               75.90288779                0.00010000               -0.09342897               -0.10735840                0.37726289               -0.01508109                0.27379851                0.69952731
              14.33117542                7.55494440               75.46404214                0.00010000               -0.07541790               -0.08727316                0.25452995                0.00318650                0.47634581               -0.38334557
              15.33060135                7.07583614               75.02890602                0.00010000               -0.45497138               -0.07707542                0.12226078               -0.59954293                2.64940121               -1.19598710
              16.32207599                6.58406119               74.63363054                0.00010000               -0.37958869               -0.94520547               -0.40647415               -1.60613200                4.97108618                1.07793434
              17.32300958                6.09220489               74.24165909                0.00010000                0.81633395               -2.05237105               -1.01993304               -1.88925416                5.73105031                3.54057028
              18.33840267                5.59123486               73.85852475                0.00010000                3.29451633               -4.01481788               -1.85313845               -3.69972585                7.88539553                6.74906930
              19.38889991                5.04133109               73.50775932                0.00010000                5.18348782               -7.29570428               -3.15432431               -8.50870634               10.00397165               10.71119362
              20.44207243                4.40942325               73.17132529                0.00010000                4.96223391               -1.52394734               -4.29008654              -13.79747222               10.16375187                5.68690032
              21.48814458                3.76741287               72.83248546                0.00010000                4.25655049                0.72596041               -4.19310788              -15.22627272                6.85822442                4.74645154
              22.52720344                3.10732683               72.43233765                0.00010000                1.88016120                3.57495818                0.45108112              -10.55683846                1.95317552                4.51597745
              23.52574781                2.56770340               71.99292503                0.00010000               -0.14556312                4.92876826                0.42392060               -5.16520865                0.01984774                5.20715743
              13.81087034                9.03307769               75.76743109                0.00010000               -0.06929612               -0.06880836                0.29014598               -0.01295730               -0.00042048                0.62707695
              14.81017738                8.55416487               75.32065514                0.00010000               -0.03348674               -0.07056638                0.17369388               -0.01100558                0.44794474               -0.57663521
              15.81020061                8.07478398               74.88256627                0.00010000               -0.37321281               -0.13584623                0.02096927               -0.91084450                4.25584516               -1.80435973
              16.80271312                7.57715896               74.51186822                0.00010000               -0.16539549               -0.58754213               -0.80548930               -1.93608705                8.01528680                0.08454824
              17.80689270                7.07386373               74.14525486                0.00010000                1.35670383               -1.55558913               -1.76786712               -2.89802822                8.88106875                1.87844829
              18.82984720                6.55220146               73.78773863                0.00010000                3.13832433               -2.92442583               -3.01761344               -5.41981602                9.91694493                3.67388187
              19.86965918                5.99522698               73.43946002                0.00010000                4.36017242               -3.02960967               -4.57484976              -10.19294040               10.38675155                4.47834148
              20.91705065                5.39840730               73.09257538                0.00010000                4.45663656               -0.16401100               -6.16906610              -14.10372803                9.33602924                5.00523342
              21.95879191                4.78130014               72.72837833                0.00010000                2.87742568                2.82891379               -6.96392903              -15.16701245                6.45444301                5.49824849
              22.97459916                4.17893391               72.33265593                0.00010000                0.23665492                7.84022065               -7.05917567              -10.98523965                3.19882013                7.71632683
              23.96352501                3.66627308               71.90728443                0.00010000               -1.10741501                9.64397061               -6.70207245               -5.93175415                1.65323032                8.96856233
              14.28967621               10.03257955               75.63141109                0.00010000               -0.04271828               -0.03624005                0.19377584               -0.01708931               -0.00251470                0.65338867
              15.28924902                9.55353307               75.17911697                0.00010000               -0.01429184               -0.04959833                0.09170448               -0.05888402                0.17289255               -0.47406586
              16.28939037                9.07311921               74.73013811                0.00010000               -0.24872646               -0.12618008               -0.07517219               -1.13927049                5.31435331               -1.97525385
              17.28427450                8.57231035               74.38100532                0.00010000                0.03080725               -0.36487594               -1.08337124               -2.48740397               10.43236449               -0.78690214
              18.29000652                8.06109311               74.03154538                0.00010000                1.21843040               -0.87182130               -2.25071429               -3.82889114               10.81122715                0.31312922
              19.30864310                7.53274635               73.68618716                0.00010000                2.44143701               -1.17833635               -3.69836926               -6.31453302               11.30853942                1.26715627
              20.33883526                6.98073890               73.34352587                0.00010000                3.26408029               -0.49906804               -5.46975453               -9.52671253               11.27527777                2.08455152
              21.37392471                6.40614303               72.99625055                0.00010000                3.27212346                1.59713689               -7.43537834              -12.10658939               10.13203115                2.92682319
              22.40427772                5.82399114               72.63272712                0.00010000                2.43004984                4.73096550               -9.34091197              -12.17405141                7.68503261                4.15709550
              23.42252571                5.26413124               72.24204473                0.00010000                1.40783312                8.06961594              -10.73101757               -7.87375903                4.15129117                5.57682674
              24.43243439                4.76058281               71.81731311                0.00010000                0.99086813                8.84038886              -11.18845989               -3.40262073                1.79347615                5.79242077
              14.76862153               11.03235289               75.49595720                0.00010000               -0.01614832               -0.01128443                0.09887707               -0.01823971               -0.00888262                0.71465823
              15.76846004               10.55317290               75.03782818                0.00010000                0.00081957               -0.02174433                0.00895163               -0.07870222                0.05687263               -0.46362000
              16.76863792               10.07226037               74.58091309                0.00010000               -0.17344464               -0.05161604               -0.13473084               -1.22827896                6.06017049               -1.75501158
              17.76499115                9.56986144               74.24342344                0.00010000                0.06204787               -0.09112709               -1.24434877               -2.72090145               12.03005472               -1.36926260
              18.76987887                9.05642731               73.90486788                0.00010000                0.94597971               -0.14804412               -2.50224560               -4.06963055               12.17223231               -0.78314011
              19.78391074                8.52863473               73.56754412                0.00010000                1.79246880                0.06913095               -4.03539820               -5.95705957               12.35988377               -0.19460431
              20.80572825                7.98524562               73.22975148                0.00010000                2.38779368                0.96351795               -5.89943424               -7.98372135               12.12784867                0.39352998
              21.83166662                7.43035004               72.88556741                0.00010000                2.57972127                2.72876074               -8.05357582               -9.23270035               11.01062052                1.05963489
              22.85732268                6.87591945               72.52548521                0.00010000                2.44328506                5.05383261              -10.27127714               -8.57780355                8.62311863                1.83070676
              23.88053232                6.34032623               72.13802552                0.00010000                2.26233920                7.00907691              -12.08850642               -5.30526710                4.84518140                2.42382085
              24.90256946                5.84308086               71.71268695                0.00010000                2.20371409                7.42173455              -12.81698816               -2.42023581                2.18098189                2.23625889
              15.24767139               12.03235387               75.36073202                0.00010000                0.00961086                0.01074594                0.00701360               -0.01750084               -0.00060645                0.75266383
              16.24776750               11.55309818               74.89661753                0.00010000                0.02324321                0.00581597               -0.06916511               -0.07992320                0.04315986               -0.48424259
              17.24813625               11.07208689               74.43338428                0.00010000               -0.10389811                0.00367774               -0.19001569               -1.17710304                6.66787422               -1.69691535
              18.24568953               10.57048781               74.10250028                0.00010000                0.08521814                0.17620862               -1.31250526               -2.56062276               13.18450799               -1.61734884
              19.24984061               10.05813222               73.77082188                0.00010000                0.74970323                0.35688268               -2.58371437               -3.67404465               13.16857521               -1.35719589
              20.26068360                9.53412897               73.43885414                0.00010000                1.38024542                0.78132800               -4.11795198               -4.95976723               13.13863455               -1.02931997
              21.27744552                9.00000926               73.10472627                0.00010000                1.89566372                1.65667142               -5.97531366               -6.08141320               12.75459921               -0.68458170
              22.29859687                8.46071824               72.76308329                0.00010000                2.26499705                3.01498444               -8.12467133               -6.49657019               11.57643443               -0.32765585
              23.32274546                7.92506780               72.40495155                0.00010000                2.53310423                4.58454508              -10.35855868               -5.66221803                9.15963923               -0.01416430
              24.34925896                7.40431278               72.01857562                0.00010000                2.78874770                5.78099337              -12.21700257               -3.37987321                5.21688566                0.08929508
              25.37852042                6.90901750               71.59139534                0.00010000                2.92614603                5.85553781              -13.07748803               -1.56070657                2.38778517               -0.31634901
              15.72678288               13.03256781               75.22567938                0.00010000                0.03456782                0.03234682               -0.08536066               -0.01573439                0.00152452                0.75873846
              16.72712855               12.55328922               74.75516911                0.00010000                0.04616783                0.03262348               -0.14261961               -0.07414269                0.07148375               -0.53109618
              17.72770623               12.07233393               74.28617430                0.00010000                0.03024039                0.03766793               -0.24247524               -1.00979587                7.30821644               -1.44708813
              18.72773336               11.57338562               73.96127137                0.00010000                0.25252946                0.31728636               -1.33034868               -2.09044465               14.19995212               -1.54594878
              19.73275682               11.06356496               73.63413272                0.00010000                0.75525002                0.58436857               -2.55768979               -2.86003139               13.93687704               -1.42060870
              20.74283836               10.54426129               73.30580096                0.00010000                1.23769437                1.06804266               -4.03537380               -3.61787428               13.70664661               -1.26732252
              21.75751071               10.01837905               72.97413099                0.00010000                1.69191575                1.82780014               -5.81714248               -4.14900896               13.16886402               -1.12139537
              22.77667668                9.49064973               72.63400448                0.00010000                2.14865365                2.83375556               -7.87647736               -4.15167952               11.90226356               -1.00147857
              23.80048378                8.96761035               72.27661155                0.00010000                2.61542379                3.90046432              -10.02955710               -3.39466242                9.42284230               -0.95492366
              24.82898515                8.45594610               71.88976935                0.00010000                3.07310514                4.67105187              -11.86941941               -1.90780252                5.37915840               -1.10044002
              25.86194588                7.96019161               71.46008298                0.00010000                3.29607318                4.63164454              -12.82579506               -0.87855514                2.51710961               -1.65241096
              16.20591387               14.03300080               75.09025969                0.00010000                0.06046497                0.05637313               -0.18112626               -0.01294185                0.05218705                0.69520519
              17.20651852               13.55375065               74.61344168                0.00010000                0.09650345                0.05901437               -0.21595884               -0.06926659                0.45003255               -0.55134714
              18.20784394               13.07284025               74.14479714                0.00010000                0.30655436                0.04505471               -0.34263085               -0.81342640                8.12120249               -1.16831575
              19.21264961               12.57683353               73.82252396                0.00010000                0.69601835                0.19737250               -1.33726437               -1.28596855               15.02375546               -1.01670092
              20.22176431               12.06981959               73.49938706                0.00010000                1.04312075                0.56562553               -2.49209312               -1.65515437               14.58891542               -0.94039269
              21.23351202               11.55548982               73.17372588                0.00010000                1.31563001                1.08227769               -3.88539623               -1.97714611               14.14747847               -0.89350972
              22.24807691               11.03656526               72.84387087                0.00010000                1.64099776                1.75863804               -5.56044486               -2.17348369               13.48440872               -0.86215350
              23.26633198               10.51739335               72.50494100                0.00010000                2.07394689                2.54653163               -7.49732736               -2.06807002               12.16236503               -0.85871786
              24.28955585               10.00307708               72.14830959                0.00010000                2.60948331                3.32365200               -9.54180637               -1.57194836                9.66847505               -0.90545909
              25.31852164                9.49773381               71.76132368                0.00010000                3.14512188                3.88658422              -11.33706671               -0.79691625                5.54633231               -1.06700778
              26.35245828                9.00165039               71.32873510                0.00010000                3.39366383                3.93245288              -12.34174290               -0.36030332                2.67040596               -1.64212399
              16.68502434               15.03369527               74.95366589                0.00010000                0.08794360                0.06944697               -0.27990895               -0.01152938                0.30983582                0.64656466
              17.68590377               14.55446951               74.47216986                0.00010000                0.16652417                0.07188586               -0.29282091               -0.08448702                0.98786801               -0.56375737
              18.68835482               14.07323502               74.00453376                0.00010000                0.95654348                0.03947748               -0.46443326               -0.80573401                9.31471722               -1.17986361
              19.70503464               13.57733307               73.69133777                0.00010000                1.63213127                0.04995326               -1.38156904               -0.67937397               16.00717846               -0.46190181
              20.72099745               13.07487747               73.37114716                0.00010000                1.57575631                0.50578771               -2.47286059               -0.64799683               15.13392614               -0.47121097
              21.73654977               12.56590685               73.04796489                0.00010000                1.55700257                1.04170289               -3.79632764               -0.76250830               14.58772456               -0.47673971
              22.75213750               12.05355181               72.72015994                0.00010000                1.61268427                1.69865472               -5.38651885               -0.81026510               13.88109473               -0.51367290
              23.76880346               11.54158036               72.38324757                0.00010000                1.82834277                2.41870075               -7.23072208               -0.72627312               12.60208762               -0.58689692
              24.78870435               11.03408339               72.02894301                0.00010000                2.28350326                3.10063093               -9.19687009               -0.48027800               10.22752380               -0.71075843
              25.81447352               10.53367778               71.64473227                0.00010000                2.91011563                3.59439688              -10.95966927               -0.16694836                6.12521338               -0.90437793
              26.84690667               10.03884067               71.21213722                0.00010000                3.24331459                3.71902822              -11.97129157               -0.03887268                3.29063369               -1.53452102
              12.32241336                5.17965261               77.31070170                0.00010000               -0.14921311               -0.14488288                0.51651565               -0.01766890               -0.38848285                0.48916222
              13.32092123                4.69535471               76.87809032                0.00010000               -0.14476259               -0.12735643                0.46180349               -0.00305406               -0.47025924                0.05446229
              14.31951811                4.21078200               76.44327199                0.00010000               -0.13435631               -0.10822760                0.40667241               -0.00251643               -0.48886721               -0.05384869
              15.31823410                3.72575362               76.01014028                0.00010000               -0.13822648               -0.08975251                0.34835745               -0.03849977               -0.45092322               -0.31394865
              16.31675358                3.23972925               75.57635831                0.00010000               -0.13970590               -0.06448428                0.29300546               -0.06418457               -0.43517493               -0.30227970
              17.31543999                2.75283327               75.14411403                0.00010000               -1.23522853               -0.06249728                0.21860792               -1.08712741                0.88307654               -0.55834853
              18.29204901                2.24531826               74.73767995                0.00010000               -4.14577776                1.28156092                0.24498363               -6.76807690               10.41772142               -2.89657000
              19.23252443                1.60348062               74.49470189                0.00010000               -1.86412390               -0.06508297               -1.42863391               -6.56029663               19.66108166                0.36191520
              20.25476653                0.94685715               74.24297080                0.00010000                5.53172406               -1.42735280               -2.17659284               -6.15891242               18.90978447                0.70098420
              21.34315891                0.28440433               73.98012272                1.00000000                4.79146315                0.58918647               -2.45711999               -5.98074306                8.85341635               -0.01631069
              22.35059580               -0.25535710               73.54054434                1.00000000                0.74368824                0.58643042               -2.43233902               -0.14973720                0.00513503                0.00492754
              12.80653457                6.17820378               77.17423508                0.00010000               -0.12085779               -0.13388083                0.43863350               -0.00852275                0.02444246                0.68593025
              13.80532599                5.69408115               76.74144862                0.00010000               -0.11205397               -0.11847096                0.38477374                0.00585329                0.10043464                0.07802111
              14.80429349                5.20969973               76.30968906                0.00010000               -0.09752549               -0.10008190                0.33088488                0.00486879                0.16040890               -0.24365152
              15.80337548                4.72485610               75.87803999                0.00010000               -0.08607907               -0.08847140                0.28538074               -0.01844172                0.24378795               -0.26651164
              16.80257191                4.23908441               75.44831706                0.00010000               -0.08006375               -0.06578731                0.21460373               -0.04193735                0.23645521               -0.23379895
              17.80177421                3.75220830               75.01730790                0.00010000               -0.17636737               -0.05487604                0.14188536               -0.37503712                0.27899115               -0.41671506
              18.79904456                3.25813387               74.58961403                0.00010000                0.71889055                0.59474155                0.02117206               -7.43992541               10.07536037               -1.53576938
              19.81615202                2.60282979               74.35544859                0.00010000                2.68354955               -1.66360884               -1.28477511              -10.25815849               18.24399659                1.04433555
              20.85271555                1.93258362               74.08633821                0.00010000                3.41532938               -0.83658349               -1.74114610               -8.50774765               15.89415836                0.98507797
              21.88445861                1.29029619               73.79969455                1.00000000                1.80721507                0.42216401               -1.47317941               -4.97512917                7.65140757               -0.02898535
              22.88885986                0.75050720               73.36013265                1.00000000                0.44012483                0.42332866               -1.45443532               -0.15623200               -0.00002081               -0.02620682
              13.29048818                7.17697500               77.04092962                0.00010000               -0.09458244               -0.10765991                0.35848966               -0.01183401                0.16084454                0.80650802
              14.28954235                6.69298529               76.60497081                0.00010000               -0.08238179               -0.09949990                0.30756051               -0.00050267                0.35324678               -0.00226288
              15.28884054                6.20878037               76.17244842                0.00010000               -0.05308800               -0.07898415                0.25568560               -0.02052893                0.90155874               -0.67755306
              16.28848059                5.72398419               75.74748175                0.00010000               -0.01389532               -0.62524378                0.22666454               -0.39890806                1.26571331                0.43529272
              17.28856263                5.23841350               75.32272843                0.00010000                0.02045970               -1.11781813                0.13487331               -0.35166070                1.06734760                1.59722659
              18.28888979                4.75173575               74.89485764                0.00010000                0.20331853               -1.94737580                0.06388437                0.01455507                1.07490783                3.18719740
              19.29262900                4.25721309               74.47176176                0.00010000                3.20108617               -4.58119722               -0.07947804               -7.51963574               10.59855643                6.17778633
              20.35291151                3.57020845               74.23703138                0.00010000                5.22580871               -2.65915942               -2.01529564              -13.22899719               16.56619026                2.87787313
              21.39714518                2.93012548               73.93688030                0.00010000                3.64106198               -0.27464664               -1.94590068              -10.26615552               12.55506408                1.51411029
              22.42573275                2.29284761               73.61858790                0.00010000                1.49519818                0.11964628               -0.42385591               -4.74866568                6.08314243               -0.06210106
              23.42704914                1.75310947               73.17902443                1.00000000                0.13163936                0.12299526               -0.42123378               -0.13407922               -0.01030431               -0.06960103
              13.77427729                8.17605059               76.90615855                0.00010000               -0.07667251               -0.07414664                0.27956320               -0.01085050                0.26912999                0.69110207
              14.77351057                7.69209115               76.46648849                0.00010000               -0.06966393               -0.08414542                0.23464127                0.00814425                0.46519258               -0.37643205
              15.77288402                7.20812005               76.03040901                0.00010000               -0.38731921               -0.10016505                0.17631360               -0.54965071                2.42536907               -1.19380775
              16.76576419                6.71235122               75.63004031                0.00010000               -0.25484369               -0.94969625               -0.30100338               -1.40739854                4.46097632                0.71054037
              17.76778714                6.21672805               75.23237112                0.00010000                0.87507705               -1.99578001               -0.82038391               -1.51441976                5.01485860                2.78066273
              18.78326573                5.71326078               74.84169316                0.00010000                3.11960040               -3.78383203               -1.48390784               -2.93587429                6.76580815                5.47341038
              19.83017915                5.16650992               74.48005972                0.00010000                4.76969803               -6.70197959               -2.45847654               -6.90952166                8.57492020                8.83140101
              20.87865969                4.54964660               74.13381886                0.00010000                4.72870654               -1.65890475               -3.28685181              -11.54128643                9.25047666                3.98174425
              21.92475328                3.92709069               73.79643784                0.00010000                4.39208078                0.30926504               -3.66115852              -12.76138553                8.18634656                2.38711336
              22.96650130                3.29268912               73.43643713                0.00010000                2.04506351                2.82726204                0.31152296               -9.28526467                3.97214277                0.92632862
              23.96565455                2.75296711               72.99688360                0.00010000               -0.08467511                4.43314381                0.29881934               -5.09350951                0.01515957                1.88754610
              14.25819003                9.17549206               76.76988560                0.00010000               -0.05542584               -0.04029762                0.20299167               -0.01033086               -0.00477988                0.61245847
              15.25763578                8.69130239               76.32238182                0.00010000               -0.03012884               -0.07229913                0.17052479               -0.00520274                0.42333805               -0.56599530
              16.25758746                8.20677707               75.88316606                0.00010000               -0.29555774               -0.16285456                0.09576373               -0.85514363                3.84358228               -1.77395441
              17.25172462                7.70499027               75.50423688                0.00010000               -0.01113896               -0.64443167               -0.70166280               -1.79515942                7.13851533               -0.13567303
              18.25736468                7.19849790               75.12838566                0.00010000                1.43329007               -1.56740974               -1.56972364               -2.57642205                7.72332943                1.39335377
              19.28039042                6.67605911               74.75941405                0.00010000                3.03440337               -2.82932733               -2.61080984               -4.70899453                8.35636728                2.90792652
              20.31805275                6.12317350               74.39764851                0.00010000                4.05572966               -2.93107135               -3.79206330               -8.76951627                8.53122327                3.46626933
              21.36150502                5.53703035               74.03820358                0.00010000                4.04111036               -0.44327608               -4.89848106              -11.95070327                7.64323903                3.63923510
              22.39887495                4.93631078               73.66866598                0.00010000                2.63230102                2.11077307               -5.34149579              -12.94860105                5.37772912                3.18278634
              23.41415104                4.34939285               73.27374954                0.00010000                0.28740133                6.32911428               -5.58349112               -9.65695979                2.63293715                2.97444567
              24.40462298                3.84177235               72.85346556                0.00010000               -0.95280565                8.22364017               -4.95722429               -5.34676584                1.67285984                4.02446312
              14.74245003               10.17524463               76.63294575                0.00010000               -0.03285197               -0.01445752                0.11650717               -0.01400927               -0.00079511                0.63077302
              15.74212151                9.69064517               76.18011350                0.00010000               -0.01783850               -0.05369095                0.10556585               -0.05086203                0.14639303               -0.46322890
              16.74209326                9.20486295               75.73003357                0.00010000               -0.19906768               -0.15339016                0.04696339               -1.09239209                4.79905079               -1.91692934
              17.73814016                8.69946259               75.37056701                0.00010000                0.15483000               -0.43449676               -0.97991282               -2.37543229                9.34397257               -0.85972681
              18.74518986                8.18537985               75.00971850                0.00010000                1.31350424               -0.92590869               -2.07131987               -3.53231984                9.44449864                0.10794979
              19.76441024                7.65667423               74.65083247                0.00010000                2.43138594               -1.22578592               -3.31952215               -5.67894331                9.54901175                0.93523237
              20.79381758                7.10788850               74.29251206                0.00010000                3.10490481               -0.65750696               -4.71370212               -8.38833310                9.14523608                1.61709208
              21.82650834                6.54078108               73.92898937                0.00010000                2.98005903                1.11889900               -6.10059615              -10.45399076                7.85812729                2.20304208
              22.85341876                5.96930615               73.55129236                0.00010000                2.06961001                3.71338970               -7.28168811              -10.31860827                5.63042278                2.86535832
              23.86790054                5.41927140               73.15099256                0.00010000                1.02707413                6.49687333               -7.96959599               -6.65502323                2.90077381                3.52421427
              24.87396024                4.91743991               72.72436001                0.00010000                0.60597040                6.96777750               -8.08267434               -2.95199154                1.36492048                3.15915218
              15.22710878               11.17520291               76.49659077                0.00010000               -0.01085642                0.00491801                0.03360263               -0.01267370               -0.00515548                0.69210156
              16.22700021               10.69022857               76.03809932                0.00010000               -0.00932899               -0.03035975                0.04214799               -0.06865459                0.03956278               -0.45038892
              17.22692220               10.20370926               75.58040620                0.00010000               -0.16505670               -0.08855857                0.01860664               -1.18627960                5.49074824               -1.68741702
              18.22369908                9.69630033               75.23137717                0.00010000                0.12922183               -0.15940525               -1.14248855               -2.62603003               10.84382699               -1.31778168
              19.22950664                9.17997973               74.88033432                0.00010000                1.03019158               -0.22381990               -2.35879660               -3.81174824               10.74394390               -0.77225237
              20.24430291                8.65154339               74.52844553                0.00010000                1.83362992               -0.04644578               -3.72504402               -5.46533456               10.56968745               -0.21807668
              21.26617923                8.11002336               74.17376463                0.00010000                2.33523181                0.71102627               -5.24918233               -7.19067212                9.96310945                0.33358828
              22.29100755                7.55940833               73.81118674                0.00010000                2.39166162                2.18696579               -6.84595600               -8.15830678                8.62808464                0.92642471
              23.31401247                7.01057857               73.43334716                0.00010000                2.09546314                4.07791464               -8.31634180               -7.43303498                6.44840781                1.54099540
              24.33291681                6.47933032               73.03266663                0.00010000                1.76168376                5.57794227               -9.36866433               -4.51139661                3.48312485                1.91873355
              25.34924614                5.98112790               72.60282392                0.00010000                1.63293305                5.78354863               -9.66700580               -2.01043985                1.59358165                1.46393487
              15.71214525               12.17534299               76.36052385                0.00010000                0.00968214                0.02477505               -0.04366578               -0.00762467                0.00158409                0.73114648
              16.71224207               11.69003797               75.89621359                0.00010000                0.00753277               -0.00966351               -0.01745169               -0.06947537                0.03098284               -0.46626102
              17.71229590               11.20309178               75.43249043                0.00010000               -0.14464902               -0.04630403               -0.00994757               -1.13042570                6.08254633               -1.62763765
              18.70934909               10.69627448               75.08975559                0.00010000                0.07079682                0.12266966               -1.21942635               -2.47334607               11.98591291               -1.49035054
              19.71371184               10.18090345               74.74524232                0.00010000                0.78554176                0.29635120               -2.48887856               -3.47008755               11.77353343               -1.20991759
              20.72505993                9.65574532               74.39845395                0.00010000                1.42136772                0.66947504               -3.90099440               -4.62636813               11.43620261               -0.86017604
              21.74213920                9.12210902               74.04718116                0.00010000                1.88635318                1.41493322               -5.47399396               -5.59985373               10.72215199               -0.48419930
              22.76278699                8.58452040               73.68667328                0.00010000                2.13484403                2.54811019               -7.13886032               -5.89727941                9.35339436               -0.09833572
              23.78483608                8.05086444               73.31001716                0.00010000                2.21681478                3.81757780               -8.71144080               -5.06202005                7.11178180                0.22048819
              24.80712328                7.53083025               72.90907318                0.00010000                2.26601066                4.72467227               -9.88810576               -2.97440753                3.92685438                0.25140042
              25.83015629                7.03311088               72.47610881                0.00010000                2.30330048                4.67911417              -10.30017556               -1.32655832                1.81314090               -0.33198007
              16.19756632               13.17569841               76.22463503                0.00010000                0.02955925                0.04665182               -0.12227386               -0.00470708                0.00259732                0.73482317
              17.19786192               12.69003530               75.75413646                0.00010000                0.02554263                0.00936640               -0.07281448               -0.06369139                0.06087657               -0.50964781
              18.19807718               12.20278318               75.28488929                0.00010000               -0.07207136               -0.02048955               -0.04009694               -0.94256180                6.72387533               -1.39391987
              19.19642049               11.69875373               74.94830223                0.00010000                0.12784356                0.30379627               -1.25246976               -1.99312180               13.03861980               -1.39690246
              20.20063405               11.18590675               74.60852874                0.00010000                0.70747456                0.57946032               -2.52297214               -2.71568966               12.63342250               -1.22369959
              21.21056998               10.66493289               74.26567399                0.00010000                1.23865147                1.00957279               -3.92962754               -3.42878568               12.15759386               -1.02110635
              22.22540708               10.13832202               73.91727309                0.00010000                1.68682793                1.65801286               -5.48968150               -3.90843400               11.34799792               -0.81252641
              23.24430654                9.61037053               73.55874194                0.00010000                2.05275680                2.49424712               -7.14210834               -3.87490575                9.92101688               -0.62490849
              24.26646221                9.08693013               73.18312954                0.00010000                2.34378400                3.35337503               -8.71513792               -3.13035912                7.59872465               -0.53364600
              25.29118222                8.57382376               72.78170794                0.00010000                2.58457498                3.93142998               -9.91489915               -1.73075363                4.22828997               -0.69722725
              26.31815371                8.07471018               72.34554841                0.00010000                2.69714934                3.78768745              -10.37545475               -0.74272045                1.97974482               -1.35564314
              16.68337734               14.17627603               76.08834318                0.00010000                0.05061333                0.06898294               -0.20155917               -0.00427738                0.04801664                0.66432425
              17.68388347               13.69022530               75.61175561                0.00010000                0.06744494                0.02900306               -0.13059575               -0.05679695                0.41333957               -0.52748596
              18.68472624               13.20268199               75.14265275                0.00010000                0.12398036               -0.01473587               -0.11494199               -0.69763978                7.53367544               -1.13088563
              19.68636308               12.70235041               74.80937389                0.00010000                0.42463220                0.27829643               -1.28336932               -1.19256651               13.93273777               -0.90832125
              20.69321888               12.19249266               74.47405654                0.00010000                0.88529313                0.63692214               -2.53187224               -1.57764471               13.39676374               -0.79453095
              21.70406894               11.67593677               74.13441997                0.00010000                1.26569928                1.10148044               -3.90908557               -1.90632231               12.76399024               -0.70313907
              22.71853287               11.15526928               73.78852490                0.00010000                1.63059114                1.68478644               -5.43035373               -2.09370377               11.87734974               -0.61594742
              23.73668077               10.63440534               73.43195068                0.00010000                2.01213983                2.34080121               -7.04103765               -1.98401752               10.41543639               -0.55058648
              24.75877567               10.11793194               73.05771853                0.00010000                2.40236971                2.95844260               -8.58427411               -1.49589527                8.04333378               -0.55202623
              25.78472816                9.60945885               72.65636060                0.00010000                2.73766903                3.36029234               -9.77820446               -0.74602421                4.50651861               -0.71468192
              26.81352905                9.10886463               72.21715739                0.00010000                2.88008854                3.27663733              -10.24034567               -0.27292610                2.15710015               -1.30461279
              17.16958223               15.17707807               75.95079222                0.00010000                0.07377820                0.08020428               -0.29133863               -0.02578226                0.29939844                0.60951571
              18.17032002               14.69061536               75.46980577                0.00010000                0.12085215                0.03900566               -0.18798423               -0.08582635                0.91567360               -0.53523473
              19.17199928               14.20248846               75.00141566                0.00010000                0.62192390               -0.01935277               -0.19688620               -0.58748163                8.69914653               -1.13359543
              20.18275849               13.70431965               74.67752407                0.00010000                1.17477557                0.19692473               -1.36532779               -0.55262224               14.96793002               -0.42478127
              21.19549479               13.19864520               74.34548992                0.00010000                1.34542112                0.61525385               -2.60064650               -0.64026748               14.01492310               -0.41030328
              22.20966692               12.68696250               74.00869618                0.00010000                1.47848232                1.10257247               -3.96386693               -0.77157522               13.29747990               -0.38907883
              23.22506443               12.17201775               73.66525509                0.00010000                1.61483049                1.67484728               -5.47002634               -0.83564052               12.38194527               -0.38929415
              24.24196353               11.65718656               73.31107793                0.00010000                1.82131826                2.27812179               -7.07013668               -0.76766270               10.95720767               -0.41488306
              25.26149080               11.14609898               72.93939857                0.00010000                2.16827604                2.81670388               -8.61622762               -0.53633425                8.66474095               -0.49045739
              26.28532905               10.64102961               72.54069224                0.00010000                2.61964155                3.15707588               -9.83890712               -0.23271427                5.08371409               -0.65665137
              27.31388363               10.14024293               72.10140429                0.00010000                2.85545838                3.13782950              -10.30860005               -0.04321003                2.68787282               -1.20749030
              12.75140428                5.32138405               78.31520821                0.00010000               -0.12117240               -0.10710780                0.38779251               -0.00481696               -0.38899800                0.48594158
              13.75019255                4.83292411               77.88241799                0.00010000               -0.12695135               -0.11204180                0.40409516                0.00742853               -0.47216030                0.05428999
              14.74886525                4.34421888               77.44741501                0.00010000               -0.13704290               -0.11434902                0.41954496                0.00798727               -0.49235128               -0.05089429
              15.74745169                3.85511311               77.01406749                0.00010000               -0.15859342               -0.11775999                0.43193980               -0.02305736               -0.45232843               -0.29741247
              16.74569338                3.36514201               76.58010583                0.00010000               -0.17757180               -0.11577191                0.44781732               -0.04508998               -0.44077172               -0.30125695
              17.74390026                2.87443247               76.14752259                0.00010000               -1.17989904               -0.13477782                0.45190540               -0.96132577                0.88815301               -0.55958895
              18.72209540                2.36527457               75.74106654                0.00010000               -3.39208796                1.09181737                0.39056805               -5.60506117                9.80052863               -2.88008595
              19.67605850                1.74432614               75.48201918                0.00010000               -1.08183932               -0.39633174               -1.11980543               -5.48647038               18.33813310                0.13717903
              20.70045861                1.10676808               75.22228605                0.00010000                5.33590785               -1.49640917               -1.96984223               -5.31245202               18.13860779                0.41920362
              21.78277666                0.45970620               74.95550603                1.00000000                4.48200715                0.60775875               -2.45653220               -5.20799111                8.62548579               -0.04311765
              22.79009876               -0.07990439               74.51648795                1.00000000                0.73221005                0.58585941               -2.36137313               -0.13807264                0.00036555               -0.03906270
              13.23981605                6.32031298               78.17802332                0.00010000               -0.09666234               -0.09762509                0.32185289               -0.00695039                0.02200719                0.67963743
              14.23884942                5.83180370               77.74506722                0.00010000               -0.09827109               -0.10494509                0.33915437                0.00550316                0.09697886                0.07769539
              15.23785063                5.34307539               77.31313464                0.00010000               -0.10449339               -0.10822059                0.35576746                0.00475274                0.16145827               -0.23857204
              16.23675956                4.85393551               76.88139379                0.00010000               -0.11339114               -0.11722495                0.38009332               -0.01520100                0.23951238               -0.24488529
              17.23558280                4.36398429               76.45134531                0.00010000               -0.12694166               -0.11701911                0.38334451               -0.03608464                0.22461281               -0.22849104
              18.23422072                3.87308469               76.02001140                0.00010000               -0.22424260               -0.12879783                0.38927353               -0.31295317                0.25340171               -0.41170924
              19.23109795                3.37619274               75.59161650                0.00010000                0.81131589                0.44882669                0.37039576               -6.34990861                9.42026185               -1.57089796
              20.25044704                2.74036282               75.34431475                0.00010000                2.92730560               -1.81263513               -0.97443288               -8.75800601               17.33522111                0.48006945
              21.28964406                2.09180399               75.07003429                0.00010000                3.67929687               -0.99022847               -1.54735281               -7.21359696               15.67806849                0.37368317
              22.32403298                1.46578379               74.78465721                1.00000000                1.93422789                0.48719709               -1.51058389               -4.15406269                7.68939767               -0.00114471
              23.32832862                0.92595421               74.34557469                1.00000000                0.42956424                0.47295661               -1.42696285               -0.16273724               -0.00042752               -0.03390656
              13.72828383                7.31943155               78.04397734                0.00010000               -0.07436296               -0.07455984                0.25376390               -0.00981447                0.15690378                0.79742944
              14.72754020                6.83082521               77.60787989                0.00010000               -0.07276684               -0.08994772                0.27436253                0.00011520                0.34802648               -0.00035155
              15.72682849                6.34205447               77.17520635                0.00010000               -0.06507131               -0.09165282                0.29338319               -0.01751599                0.90698764               -0.67253774
              16.72623877                5.85276861               76.75029767                0.00010000               -0.05029916               -0.62093234                0.33112924               -0.33394903                1.25541129                0.22621963
              17.72582251                5.36280163               76.32501584                0.00010000               -0.04030137               -1.09116891                0.31586042               -0.24205000                1.04599967                1.17155128
              18.72543275                4.87185651               75.89684440                0.00010000                0.09982909               -1.84690093                0.32508257                0.16294925                1.04288928                2.49028347
              19.72781909                4.37425110               75.47285571                0.00010000                2.99271943               -4.20601863                0.29158437               -6.33042069                9.65241387                5.08908471
              20.78528713                3.70807344               75.21956200                0.00010000                5.14733082               -2.62384460               -1.51226113              -11.35153952               15.44276823                1.69719619
              21.83076571                3.08696351               74.91823917                0.00010000                4.01290237               -0.42172653               -1.84474433               -8.95070568               13.01569256               -0.24990327
              22.86554518                2.46945015               74.61464084                0.00010000                1.78687355                0.24539808               -0.52967891               -3.76206044                6.77889035               -0.22551240
              23.86650318                1.92955475               74.17529046                1.00000000                0.09579965                0.25294870               -0.45624362               -0.14806738                0.02154278               -0.30085034
              14.21683244                8.31882178               77.90847905                0.00010000               -0.06036289               -0.04459477                0.18744866               -0.00677979                0.26415701                0.68007189
              15.21622881                7.83000474               77.46873496                0.00010000               -0.06377647               -0.08026317                0.21454483                0.01220181                0.45237158               -0.36678668
              16.21555691                7.34124234               77.03243229                0.00010000               -0.34476969               -0.11870686                0.22595755               -0.50495932                2.19438622               -1.18789136
              17.20933342                6.84151686               76.62761047                0.00010000               -0.19515031               -0.94249037               -0.17979052               -1.25281779                3.95961631                0.32704201
              18.21165390                6.34216092               76.22525142                0.00010000                0.83484099               -1.92091040               -0.59683791               -1.25052892                4.38289550                2.01852280
              19.22603024                5.83614667               75.82884660                0.00010000                2.83093520               -3.53179160               -1.09926326               -2.39047987                5.84969751                4.24998035
              20.26827261                5.29207237               75.45858979                0.00010000                4.23368038               -6.10755402               -1.85870833               -5.72928555                7.53511298                7.08430892
              21.31070384                4.68788593               75.10558825                0.00010000                4.04903179               -1.60259700               -2.54762407               -9.75460457                8.12343174                2.47753532
              22.34925324                4.08336946               74.75926229                0.00010000                4.77483448                0.15689167               -2.91042450              -10.85796768                8.74232678                0.36331762
              23.40620053                3.47069175               74.43856811                0.00010000                2.79524146                2.72086260               -3.14946500               -8.77215662                2.69509719               -0.99297584
              24.40515807                2.93101318               73.99890142                0.00010000               -0.10424612                4.48655934               -0.77841505               -5.41550761               -2.86614438                1.64503280
              14.70578231                9.31853966               77.77149092                0.00010000               -0.04186297               -0.01659665                0.12115081               -0.00735225               -0.00728436                0.59226663
              15.70536368                8.82921995               77.32406564                0.00010000               -0.02825612               -0.07268789                0.16664542                0.00004688                0.39764165               -0.54951704
              16.70521719                8.33968033               76.88448155                0.00010000               -0.25499206               -0.18509268                0.16472551               -0.79700904                3.42686293               -1.73917115
              17.70026384                7.83391880               76.49783496                0.00010000                0.04824684               -0.67706688               -0.56741794               -1.65806581                6.26687478               -0.37543070
              18.70618212                7.32438342               76.11386038                0.00010000                1.37239279               -1.54287374               -1.32259975               -2.28605012                6.66774575                0.87651518
              19.72771169                6.80122068               75.73552243                0.00010000                2.76559965               -2.68635817               -2.16955563               -4.07419290                7.07908146                2.10036419
              20.76149412                6.25210002               75.36361875                0.00010000                3.55931313               -2.75538741               -3.07159318               -7.49443507                7.12661868                2.43216261
              21.79889796                5.67602150               74.99460575                0.00010000                3.46532083               -0.53326107               -3.87749534              -10.01977825                6.43389199                2.24247551
              22.83080053                5.09010134               74.62154842                0.00010000                2.17801840                1.66238385               -4.37107954              -10.32621790                4.09411742                1.76253724
              23.84245832                4.52386740               74.22098610                0.00010000                0.33748174                5.25033410               -4.30814124               -8.47712040                1.94742221               -0.33882594
              24.83755017                4.01928593               73.80813994                0.00010000               -0.49081565                7.16971572               -4.18754459               -5.06615480                1.89022248                0.28417289
              15.19532481               10.31848985               77.63374124                0.00010000               -0.02357390                0.00385841                0.04847753               -0.00793654                0.00194909                0.60451183
              16.19508907                9.82855098               77.18122828                0.00010000               -0.02034670               -0.05774557                0.11634893               -0.04385906                0.12849197               -0.44536127
              17.19491788                9.33754048               76.73107738                0.00010000               -0.18100301               -0.18125810                0.15258277               -1.03088059                4.25719685               -1.85052110
              18.19146901                8.82797552               76.36140707                0.00010000                0.18565748               -0.48007852               -0.83920645               -2.22806508                8.21978376               -0.95757120
              19.19863103                8.31130344               75.99011898                0.00010000                1.26803837               -0.94624886               -1.82957395               -3.20243761                8.15281196               -0.15422288
              20.21682978                7.78241951               75.61979672                0.00010000                2.24760290               -1.22844740               -2.88190084               -5.00881661                8.03799852                0.51037852
              21.24358308                7.23696462               75.24925183                0.00010000                2.77385898               -0.74258680               -3.96980594               -7.22218371                7.49491248                1.00222767
              22.27230696                6.67722071               74.87423862                0.00010000                2.56499513                0.75865628               -4.97318770               -8.72998319                6.22584174                1.35546246
              23.29488299                6.11661713               74.48709336                0.00010000                1.75832889                2.89566074               -5.72527158               -8.37559350                4.34776744                1.55612822
              24.30747354                5.57569844               74.08265281                0.00010000                0.90574597                4.83764414               -6.11258940               -5.19749523                2.18475344                1.97245176
              25.31299790                5.07440750               73.65565962                0.00010000                0.55243699                5.06624105               -6.03895274               -2.30027621                1.07926195                1.03199591
              15.68550130               11.31861683               77.49662925                0.00010000               -0.00654412                0.02213443               -0.02082207               -0.00523977               -0.00186889                0.67071068
              16.68543586               10.82806504               77.03867114                0.00010000               -0.01631343               -0.04075779                0.06963681               -0.06150767                0.03073568               -0.43134329
              17.68517504               10.33605517               76.58128523                0.00010000               -0.17481421               -0.12447151                0.14576315               -1.12102532                4.87666054               -1.61394751
              18.68193958                9.82431723               76.22057367                0.00010000                0.12571773               -0.21098925               -1.00626520               -2.47049169                9.57528460               -1.29714372
              19.68768939                9.30545845               75.85769195                0.00010000                0.99673010               -0.27819974               -2.14698147               -3.48418009                9.33116604               -0.82610388
              20.70187418                8.77665173               75.49304324                0.00010000                1.72799235               -0.13612559               -3.33853033               -4.87855668                8.95146852               -0.35335565
              21.72224924                8.23724829               75.12476783                0.00010000                2.13858002                0.49260959               -4.56698170               -6.26854792                8.18102933                0.10150921
              22.74464578                7.69119462               74.74864829                0.00010000                2.12808510                1.69878077               -5.74489495               -6.93559623                6.85321854                0.54032633
              23.76481094                7.14801456               74.35915838                0.00010000                1.80361382                3.15390209               -6.72370257               -6.14380689                4.95326391                0.94488305
              24.78071806                6.62062028               73.95065223                0.00010000                1.46577908                4.23005189               -7.33105544               -3.65864715                2.61270194                1.00981487
              25.79412652                6.12061075               73.51934684                0.00010000                1.34084634                4.26229526               -7.42235481               -1.61524872                1.25165904                0.37653154
              16.17632359               12.31893254               77.35985871                0.00010000                0.00969809                0.04140568               -0.08662361               -0.00313779                0.00193901                0.71164386
              17.17642057               11.82773583               76.89626850                0.00010000               -0.00392073               -0.02553997                0.02497026               -0.06127606                0.02740211               -0.44412130
              18.17624518               11.33505105               76.43318533                0.00010000               -0.18823340               -0.08809820                0.13377661               -1.05685776                5.43195044               -1.55222260
              19.17265590               10.82375574               76.07811176                0.00010000                0.01838752                0.07560180               -1.09858864               -2.31924393               10.65272921               -1.39391576
              20.17661293               10.30573945               75.72104431                0.00010000                0.74064502                0.24091495               -2.32538030               -3.18473111               10.32278533               -1.12378438
              21.18746880                9.77969699               75.36083426                0.00010000                1.35281516                0.56107070               -3.59769475               -4.17754607                9.80543868               -0.79231573
              22.20366923                9.24681681               74.99524639                0.00010000                1.76799788                1.17682500               -4.91007655               -4.96735952                8.93969457               -0.44214296
              23.22282876                8.71119633               74.62030608                0.00010000                1.94559816                2.08397645               -6.18791300               -5.12634293                7.56318024               -0.10095449
              24.24258119                8.17969518               74.23072273                0.00010000                1.94378177                3.06107561               -7.28826145               -4.31077604                5.58742954                0.13534598
              25.26170440                7.66029947               73.82081351                0.00010000                1.90653956                3.70469302               -8.01558620               -2.48138741                3.01823248                0.06640958
              26.28071198                7.15965340               73.38539183                0.00010000                1.90075873                3.57097112               -8.16589004               -1.07794098                1.41266509               -0.61516872
              16.66783196               13.31944494               77.22323390                0.00010000                0.02598621                0.05987769               -0.15544166               -0.00278280                0.00417480                0.71365029
              17.66809182               12.82755424               76.75371282                0.00010000                0.00930035               -0.01021022               -0.01544979               -0.05482809                0.05969072               -0.48425256
              18.66801797               12.33429321               76.28537237                0.00010000               -0.16127592               -0.06774437                0.12051875               -0.85354853                6.05119617               -1.33451733
              19.66486631               11.82582927               75.93622197                0.00010000                0.00177719                0.28447626               -1.15346913               -1.83858960               11.68640213               -1.27442159
              20.66805351               11.31027674               75.58367328                0.00010000                0.61897926                0.56141726               -2.41944946               -2.49577751               11.19693271               -1.07682938
              21.67724589               10.78787314               75.22720841                0.00010000                1.16746002                0.93539267               -3.72884102               -3.13186452               10.57372452               -0.85454487
              22.69140271               10.26078479               74.86433736                0.00010000                1.59973347                1.47237483               -5.07640167               -3.52875153                9.63376479               -0.62443717
              23.70924056                9.73287415               74.49116231                0.00010000                1.90447791                2.14246541               -6.39429230               -3.44651984                8.20101199               -0.42027811
              24.72949227                9.20923607               74.10230879                0.00010000                2.09457613                2.80361797               -7.54189040               -2.73642991                6.12275282               -0.32823261
              25.75113208                8.69471414               73.69147137                0.00010000                2.21837856                3.20782036               -8.31370308               -1.48485671                3.34158253               -0.51185693
              26.77385984                8.19203018               73.25257389                0.00010000                2.27277598                3.00244277               -8.48133242               -0.60366011                1.57340118               -1.18110069
              17.16004934               14.32013009               77.08622851                0.00010000                0.04264048                0.07712783               -0.22061354               -0.00218335                0.04088421                0.63498812
              18.16047574               13.82753162               76.61082977                0.00010000                0.04249201                0.00551370               -0.05773253               -0.04659681                0.38661006               -0.49726386
              19.16089918               13.33369617               76.14249830                0.00010000               -0.02875830               -0.06279538                0.06580343               -0.57424406                6.83585254               -1.08537843
              20.15990057               12.82944526               75.79685657                0.00010000                0.18771622                0.33539028               -1.20784124               -1.06378496               12.58891807               -0.82008013
              21.16465350               12.31696779               75.44874962                0.00010000                0.72114483                0.67639479               -2.49316533               -1.44850628               11.98913167               -0.67910847
              22.17432347               11.79840485               75.09554417                0.00010000                1.17198437                1.08498572               -3.81659265               -1.76075856               11.23719786               -0.56106167
              23.18809319               11.27626431               74.73526380                0.00010000                1.55618047                1.57603767               -5.17561626               -1.91836374               10.23857046               -0.44280742
              24.20544708               10.75404563               74.36412024                0.00010000                1.89597096                2.10770275               -6.50655161               -1.79665999                8.76962824               -0.34515806
              25.22601261               10.23576754               73.97662411                0.00010000                2.18830379                2.58390459               -7.67297214               -1.33485807                6.61806469               -0.32313259
              26.24921316                9.72445588               73.56575959                0.00010000                2.39970516                2.85836666               -8.46212833               -0.65276400                3.64058428               -0.47638733
              27.27400671                9.21970226               73.12392818                0.00010000                2.47935540                2.70834419               -8.61330843               -0.20635321                1.73461011               -1.01925989
              17.65298523               15.32098750               76.94783912                0.00010000                0.06085866                0.08574067               -0.29756313               -0.03870933                0.29133630                0.57067228
              18.65359381               14.82766451               76.46841017                0.00010000                0.08171110                0.01328886               -0.09739511               -0.08570260                0.86005851               -0.49811422
              19.65461945               14.33303730               76.00059603                0.00010000                0.33625840               -0.06588647                0.01038131               -0.38434479                7.94656577               -1.08154316
              20.66031898               13.83253707               75.66403122                0.00010000                0.77521785                0.30918089               -1.31452711               -0.41979241               13.59500859               -0.38680972
              21.67012380               13.32380464               75.31913423                0.00010000                1.12076101                0.68368491               -2.61875861               -0.60118036               12.60039953               -0.35380538
              22.68273420               12.80957286               74.96868755                0.00010000                1.36354232                1.11680103               -3.96204109               -0.73388207               11.76949330               -0.31467489
              23.69739465               12.29230554               74.61075941                0.00010000                1.55349676                1.60412292               -5.34255049               -0.79708610               10.73941381               -0.29021041
              24.71380414               11.77502821               74.24184484                0.00010000                1.74951069                2.09825740               -6.70080692               -0.73386333                9.29317967               -0.28509866
              25.73238486               11.26091416               73.85661846                0.00010000                2.01689726                2.51466269               -7.90356605               -0.52011094                7.19121034               -0.32857140
              26.75414208               10.75188147               73.44795413                0.00010000                2.34275796                2.74255940               -8.73960783               -0.24296261                4.14675927               -0.46759748
              27.77924002               10.24619706               73.00596522                0.00010000                2.50979431                2.64948031               -8.89723097               -0.04510998                2.15888424               -0.92485052
              13.18021385                5.46374123               79.31845755                0.00010000               -0.09426287               -0.07138266                0.26519120                0.00738933               -0.38968075                0.48271711
              14.17927122                4.97114206               78.88617222                0.00010000               -0.10961356               -0.09689018                0.34721235                0.01748465               -0.47461927                0.05447768
              15.17802158                4.47832487               78.45166289                0.00010000               -0.13872485               -0.11879174                0.42755159                0.01798605               -0.49685611               -0.04755383
              16.17649672                3.98515277               78.01877908                0.00010000               -0.17692661               -0.14245625                0.50511378               -0.00915313               -0.45498052               -0.28198226
              17.17448305                3.49122514               77.58531466                0.00010000               -0.21271970               -0.16205689                0.58574765               -0.02809325               -0.44363705               -0.29862558
              18.17224233                2.99666388               77.15315213                0.00010000               -1.04600245               -0.20115752                0.66398805               -0.79755377                0.80320643               -0.56006621
              19.15356300                2.48661662               76.74549131                0.00010000               -2.70873713                0.83101273                0.48351884               -4.79319470                9.12087659               -2.66752937
              20.11806759                1.88163307               76.47230578                0.00010000               -0.47555808               -0.67447114               -0.83415295               -4.70648802               16.98698719               -0.05225570
              21.14405184                1.25974473               76.20357396                0.00010000                5.16995722               -1.56405671               -1.77763539               -4.63140984               17.15242405                0.18079575
              22.22146673                0.62523962               75.93099207                1.00000000                4.22937199                0.58988690               -2.43370406               -4.57888589                8.27421638               -0.04894735
              23.22863928                0.08568815               75.49331688                1.00000000                0.71725436                0.53384015               -2.24842395               -0.11744102               -0.01009440               -0.06836422
              13.67288692                6.46302741               79.18067214                0.00010000               -0.07326698               -0.06366912                0.21080134               -0.00506015                0.01948484                0.67320704
              14.67215425                5.97017315               78.74823171                0.00010000               -0.08454188               -0.09157697                0.29401350                0.00560970                0.09317896                0.07784399
              15.67119608                5.47713695               78.31680441                0.00010000               -0.10995953               -0.11464534                0.37571673                0.00479932                0.16156734               -0.23257746
              16.66995506                4.98372821               77.88564186                0.00010000               -0.13747600               -0.14304318                0.46450120               -0.01248910                0.23631977               -0.22499399
              17.66844656                4.48960457               77.45598395                0.00010000               -0.16920028               -0.16433557                0.53746359               -0.03115275                0.21912364               -0.22283581
              18.66657105                3.99465230               77.02509337                0.00010000               -0.26500535               -0.19788302                0.61828738               -0.25062226                0.24970501               -0.40692756
              19.66314645                3.49492675               76.59702194                0.00010000                0.89337994                0.27024405                0.69913771               -5.51836304                8.71337378               -1.50265205
              20.68443865                2.87488836               76.33595993                0.00010000                3.13940037               -1.93771038               -0.71387842               -7.62533806               16.27174747                0.06170352
              21.72593446                2.24410416               76.05539115                0.00010000                3.91337559               -1.19226566               -1.42240756               -6.27107560               15.22511912               -0.23056277
              22.76270616                1.63113849               75.76948287                1.00000000                2.05409377                0.45934193               -1.54001140               -3.51425416                7.58857008               -0.04394880
              23.76701634                1.09102655               75.33159339                1.00000000                0.43101739                0.40387946               -1.37334972               -0.13412024                0.00523522               -0.09911707
              14.16582115                7.46246785               79.04600490                0.00010000               -0.05472798               -0.04444843                0.15452260               -0.00764840                0.15297804                0.78822896
              15.16527387                6.96931052               78.61045806                0.00010000               -0.06293191               -0.08017436                0.24138689                0.00073148                0.34269198                0.00236283
              16.16456251                6.47603196               78.17831608                0.00010000               -0.07472720               -0.10249661                0.32603431               -0.01592276                0.91028461               -0.66657305
              17.16377932                5.98229191               77.75410433                0.00010000               -0.08133055               -0.61867196                0.42556306               -0.29556044                1.24792333                0.02285932
              18.16293590                5.48793843               77.32904564                0.00010000               -0.09358074               -1.06753050                0.48440526               -0.19116648                1.03566947                0.76605155
              19.16190771                4.99270622               76.90135929                0.00010000                0.00118908               -1.75349735                0.57081779                0.22166621                1.04027265                1.84345380
              20.16295968                4.49202150               76.47759345                0.00010000                2.72378498               -3.87468471                0.64739058               -5.44170271                8.75472863                4.09264097
              21.21638341                3.84287886               76.20678615                0.00010000                4.97102558               -2.53673997               -1.10688616              -10.00524576               14.23613748                0.72005519
              22.26238019                3.23589942               75.89998541                0.00010000                4.39379257               -0.65281855               -1.77528110               -8.38834518               13.21488847               -1.15730965
              23.30425926                2.63442646               75.60799432                0.00010000                2.19002787                1.76729245               -0.73744378               -6.20378607                7.29501129               -3.67212289
              24.30618075                2.09376574               75.16989955                1.00000000                0.19214889                3.09958664               -0.58153636               -3.03363650                0.06955537               -1.45677233
              14.65904862                8.46213844               78.90990752                0.00010000               -0.04438506               -0.01963199                0.10090886               -0.00318850                0.25796145                0.66776876
              15.65860476                7.96856967               78.47077938                0.00010000               -0.05761908               -0.07458976                0.19418043                0.01363497                0.43772100               -0.35405545
              16.65789623                7.47508702               78.03492816                0.00010000               -0.32336901               -0.13417055                0.27048686               -0.47110060                1.96686187               -1.17771049
              17.65213738                6.97135477               77.62644450                0.00010000               -0.18436555               -0.93034265               -0.05425933               -1.14645514                3.48945300               -0.05183545
              18.65420892                6.46825396               77.22043436                0.00010000                0.73919602               -1.83888918               -0.37391740               -1.08380953                3.83818555                1.27613287
              19.66692131                5.95958236               76.81970789                0.00010000                2.49654161               -3.27949727               -0.74651009               -2.02574678                5.12318421                3.08950087
              20.70413975                5.41743305               76.44288555                0.00010000                3.67672568               -5.54333952               -1.35642270               -4.84433399                6.68165619                5.44749182
              21.74045582                4.82415356               76.08286638                0.00010000                3.12401026               -1.48246862               -1.97417727               -8.52577375                7.73418317                1.17712050
              22.76661996                4.23104779               75.73822935                0.00010000                2.01541505                0.39155197               -2.10315493               -8.28362297                6.80384476               -1.28766629
              23.78076412                3.66648434               75.37344783                0.00010000                1.05225447                3.20525874               -4.74122821               -5.78904069                2.23295858               -3.68539621
              24.78766505                3.15301828               74.98131530                0.00010000                0.69009299                4.84659290               -2.81528889               -3.24965543                0.85649115               -1.18885446
              15.15289492                9.46207521               78.77230862                0.00010000               -0.02969324                0.00290510                0.04625491               -0.00233360               -0.00696076                0.57363940
              16.15259798                8.96781872               78.32571473                0.00010000               -0.02697612               -0.07186134                0.16402657                0.00118938                0.37174240               -0.53004813
              17.15235539                8.47334855               77.88646057                0.00010000               -0.24573515               -0.20190821                0.22784815               -0.74857407                3.01418598               -1.69235615
              18.14768328                7.96368506               77.49288853                0.00010000                0.03383645               -0.68911591               -0.42171848               -1.54155293                5.43313266               -0.62551590
              19.15303212                7.45116064               77.10193366                0.00010000                1.22652005               -1.48950667               -1.06864146               -2.04606281                5.73444274                0.34053881
              20.17221368                6.92711627               76.71602293                0.00010000                2.42348369               -2.51106789               -1.76054866               -3.54449370                6.04353920                1.27833249
              21.20150180                6.38115471               76.33621664                0.00010000                3.00197555               -2.53245410               -2.47308745               -6.43763073                6.12511017                1.38663522
              22.23225319                5.81322949               75.96065367                0.00010000                2.64375776               -0.51528799               -3.07276852               -8.23482138                5.56205909                0.93904282
              23.25437695                5.24373046               75.58124439                0.00010000                1.71273807                1.58854799               -3.59959741               -7.46789436                3.92262333               -0.18444836
              24.26650795                4.69853163               75.18758672                0.00010000                0.68713999                3.12849858               -3.31325086               -4.53838184                1.80895185               -0.98155504
              25.26811975                4.19069760               74.76971467                0.00010000                0.16117972                3.69273232               -3.51264428               -2.69006390                0.97066645               -2.65223857
              15.64751492               10.46219654               78.63391530                0.00010000               -0.01597090                0.02122225               -0.01032817               -0.00177434                0.00277980                0.58297523
              16.64735521                9.96713244               78.18244048                0.00010000               -0.02282505               -0.06286164                0.12661594               -0.03933553                0.11623701               -0.42599386
              17.64705842                9.47104886               77.73308522                0.00010000               -0.19304882               -0.20130961                0.24187437               -0.96812510                3.71233080               -1.77006320
              18.64349423                8.95757245               77.35378288                0.00010000                0.13990161               -0.50161450               -0.68508837               -2.07351316                7.11052714               -1.08083245
              19.64985645                8.43846383               76.97312702                0.00010000                1.12715662               -0.93141600               -1.57264114               -2.87915941                6.96957874               -0.46880966
              20.66603737                7.90936100               76.59319446                0.00010000                1.97087360               -1.18387681               -2.46365781               -4.38185701                6.77421823                0.00672867
              21.68927392                7.36678397               76.21311594                0.00010000                2.35731388               -0.75478649               -3.32854041               -6.14101128                6.23859328                0.28720878
              22.71318364                6.81384780               75.82952561                0.00010000                2.13430029                0.54589551               -4.08890573               -7.12685179                5.16277225                0.34748598
              23.73195993                6.26281875               75.43678693                0.00010000                1.49228493                2.10582024               -4.58031437               -6.40483209                3.58326676                0.24582116
              24.74302934                5.72905431               75.02874077                0.00010000                0.87859599                3.14171383               -4.82008343               -3.87356944                1.82220705               -0.09882473
              25.74953185                5.22687293               74.60358095                0.00010000                0.65025054                3.41143612               -4.74567777               -1.77962021                1.03006688               -0.97048779
              16.14298763               11.46249965               78.49617433                0.00010000               -0.00286696                0.03873414               -0.06788073               -0.00133985               -0.00002615                0.64891304
              17.14295896               10.96656149               78.03949206                0.00010000               -0.02173731               -0.05092872                0.09292376               -0.05345075                0.02938459               -0.40857484
              18.14255288               10.46932236               77.58332147                0.00010000               -0.20804547               -0.15443324                0.25220884               -1.04377441                4.24606528               -1.53267797
              19.13879805                9.95365277               77.21125187                0.00010000                0.05537548               -0.24122938               -0.85690661               -2.28697858                8.28653552               -1.31286162
              20.14366039                9.43253232               76.83739469                0.00010000                0.87291760               -0.30086965               -1.91173612               -3.13127154                7.98464900               -0.95270417
              21.15625640                8.90343874               76.46167493                0.00010000                1.52671902               -0.18135848               -2.95165841               -4.27720464                7.52776355               -0.60123335
              22.17419477                8.36605898               76.08242499                0.00010000                1.87124879                0.34563330               -3.95631506               -5.35519986                6.74773885               -0.29451178
              23.19368138                7.82414740               75.69628884                0.00010000                1.84395143                1.30697415               -4.84727284               -5.74107547                5.54822208               -0.05208017
              24.21107380                7.28584686               75.29887311                0.00010000                1.56505062                2.38010950               -5.52455938               -4.93320885                3.95299403                0.07688189
              25.22498239                6.76136591               74.88604552                0.00010000                1.29081553                3.11424985               -5.88663214               -2.85655255                2.06609397               -0.06470075
              26.23689011                6.25892632               74.45437682                0.00010000                1.19077218                3.03537645               -5.87993206               -1.25790427                1.00873973               -0.86293952
              16.63936445               12.46297122               78.35879138                0.00010000                0.00990366                0.05509827               -0.12487409               -0.00051776                0.00216519                0.68644389
              17.63946349               11.96611387               77.89671299                0.00010000               -0.01364004               -0.03862566                0.06146183               -0.05263592                0.02915137               -0.41613370
              18.63909165               11.46796019               77.43516596                0.00010000               -0.24593962               -0.12712477                0.25215682               -0.96634651                4.74555916               -1.46963257
              19.63454470               10.95274787               77.06778382                0.00010000               -0.08233017                0.04338562               -0.96444804               -2.12320941                9.25575151               -1.33749751
              20.63744505               10.43244643               76.69873471                0.00010000                0.62109600                0.20662654               -2.13001862               -2.85440818                8.87952687               -1.11554260
              21.64696662                9.90573383               76.32650005                0.00010000                1.20081056                0.48466715               -3.27377040               -3.68129018                8.29230158               -0.84536169
              22.66146126                9.37369664               75.94897963                0.00010000                1.58038173                0.98784456               -4.37904742               -4.29064227                7.40580786               -0.57334368
              23.67857425                8.83998728               75.56291502                0.00010000                1.73079895                1.70017046               -5.37926681               -4.33008628                6.13357637               -0.33772848
              24.69607724                8.31042094               75.16425193                0.00010000                1.71222902                2.43086182               -6.16796962               -3.55567780                4.44609062               -0.22631338
              25.71281883                7.79133931               74.74876146                0.00010000                1.65878537                2.86373166               -6.62267081               -2.00370459                2.37205076               -0.41525332
              26.72925295                7.28758046               74.31279101                0.00010000                1.64341139                2.68127470               -6.63074055               -0.84955556                1.13372852               -1.11576792
              17.13669198               13.46360162               78.22152619                0.00010000                0.02252871                0.06996759               -0.18379855                0.00013835                0.00624574                0.68650507
              18.13691727               12.96578898               77.75382746                0.00010000               -0.00500152               -0.02655956                0.03489976               -0.04696821                0.06167283               -0.45179331
              19.13659195               12.46677986               77.28729966                0.00010000               -0.25348261               -0.11047175                0.25239478               -0.74718328                5.31987271               -1.26523604
              20.13184762               11.95452048               76.92523284                0.00010000               -0.15028443                0.26958462               -1.03913322               -1.63847908               10.21972756               -1.18714286
              21.13358626               11.43666485               76.56013975                0.00010000                0.47663886                0.55015510               -2.27347677               -2.22597636                9.70262810               -0.99890053
              22.14138039               10.91313208               76.19109717                0.00010000                1.02711040                0.87512847               -3.48413879               -2.77584388                9.02074140               -0.79456775
              23.15412847               10.38581587               75.81574506                0.00010000                1.44874746                1.31472214               -4.65493550               -3.08571640                8.06060473               -0.58969523
              24.17035534                9.85815081               75.43085609                0.00010000                1.72398731                1.84161855               -5.72234115               -2.96065030                6.72274640               -0.42036020
              25.18860822                9.33446410               75.03229173                0.00010000                1.86967178                2.33693428               -6.57624527               -2.30449435                4.92698650               -0.37037359
              26.20774878                8.81864054               74.61543388                0.00010000                1.94042395                2.60545172               -7.07415125               -1.22476722                2.65460525               -0.57949409
              27.22741670                8.31255181               74.17592176                0.00010000                1.96679173                2.37538194               -7.07536315               -0.47731757                1.25956956               -1.21717257
              17.63499251               14.46437057               78.08393091                0.00010000                0.03533727                0.08343354               -0.23776982               -0.00004597                0.03328240                0.60262657
              18.63534588               13.96558268               77.61060096                0.00010000                0.02119879               -0.01483564                0.00778106               -0.03864061                0.36140958               -0.46153123
              19.63541649               13.46575076               77.14396882                0.00010000               -0.17278780               -0.10588624                0.21416373               -0.43627619                6.05724416               -1.02777598
              20.63189013               12.95813956               76.78521706                0.00010000               -0.05512816                0.38568449               -1.11107581               -0.90141869               11.07903755               -0.75404341
              21.63431392               12.44344954               76.42419324                0.00010000                0.52042995                0.70675019               -2.39465810               -1.28214895               10.45939827               -0.60677212
              22.64229873               11.92323640               76.05808812                0.00010000                1.02071403                1.06250757               -3.64860816               -1.57036222                9.66113601               -0.48682096
              23.65472820               11.39999108               75.68501257                0.00010000                1.42071475                1.47032224               -4.86164383               -1.69248960                8.64486236               -0.36838531
              24.67071302               10.87681965               75.30181965                0.00010000                1.73847075                1.89422928               -5.97206990               -1.56093611                7.26377109               -0.27267608
              25.68949762               10.35715963               74.90425908                0.00010000                1.97613766                2.25373786               -6.86753065               -1.13869047                5.38479555               -0.25437007
              26.71023577                9.84344834               74.48711803                0.00010000                2.11932208                2.43240170               -7.39124756               -0.54514205                2.92340247               -0.40395095
              27.73188406                9.33508810               74.04489122                0.00010000                2.16482858                2.25600117               -7.36937732               -0.15490290                1.39172650               -0.88436358
              18.13426686               15.46527029               77.94484096                0.00010000                0.04974149                0.08997174               -0.30233612               -0.05036780                0.28154485                0.53166564
              19.13476427               14.96549226               77.46785786                0.00010000                0.05213430               -0.00904121               -0.01848377               -0.08856835                0.80860498               -0.45806072
              20.13530955               14.46466214               77.00162329                0.00010000                0.06780946               -0.10886166                0.17829886               -0.17359875                7.09171934               -1.01612065
              21.13612046               13.96223417               76.65123353                0.00010000                0.37684492                0.40946105               -1.22992630               -0.27008032               12.00773665               -0.35154078
              22.14284644               13.45079986               76.29311475                0.00010000                0.86555717                0.73503230               -2.54952234               -0.53934474               11.01987143               -0.31097824
              23.15343161               12.93438223               75.92945535                0.00010000                1.19244898                1.11458325               -3.83908332               -0.66558900               10.14450425               -0.26674454
              24.16669542               12.41522232               75.55840408                0.00010000                1.42682324                1.52312368               -5.08817953               -0.72061970                9.09149493               -0.23433049
              25.18196807               11.89603539               75.17706179                0.00010000                1.62551476                1.92157415               -6.23829391               -0.65866788                7.72024015               -0.21823566
              26.19920572               11.37953885               74.78132725                0.00010000                1.84746978                2.23792269               -7.17784301               -0.46653073                5.87291797               -0.24806828
              27.21891747               10.86728858               74.36590008                0.00010000                2.09167041                2.38402363               -7.74686209               -0.22518151                3.34444397               -0.36792849
              28.24103913               10.35767184               73.92345967                0.00010000                2.21216595                2.25837385               -7.72923410               -0.04616748                1.72590050               -0.74554573
              13.60818131                5.60660921               80.32051203                0.00010000               -0.06864809               -0.03794424                0.14908676                0.01907837               -0.39104639                0.47977199
              14.60749483                5.10989470               79.88936223                0.00010000               -0.09300158               -0.08199527                0.29144593                0.02736835               -0.47854287                0.05509433
              15.60632128                4.61298476               79.45596605                0.00010000               -0.13972550               -0.12141141                0.43061680                0.02771448               -0.50361626               -0.04380182
              16.60470032                4.11574789               79.02416977                0.00010000               -0.19368464               -0.16375221                0.56759930                0.00291660               -0.46037476               -0.26807310
              17.60244758                3.61783091               78.59182078                0.00010000               -0.24562932               -0.20343125                0.70690590               -0.01334336               -0.44478712               -0.29459647
              18.59978773                3.11934867               78.16080235                0.00010000               -0.85441478               -0.26096897                0.85431478               -0.60949874                0.62956732               -0.56184589
              19.58535929                2.60886273               77.75073692                0.00010000               -2.10360640                0.51748385                0.60435823               -4.25483909                8.32232566               -2.27341773
              20.55771560                2.01597272               77.46533612                0.00010000               -0.02692427               -0.88562032               -0.56962640               -4.12593851               15.60618741               -0.22531938
              21.58482080                1.40674960               77.18673334                0.00010000                5.04012286               -1.59683288               -1.59941130               -4.13108361               15.98119500               -0.04471172
              22.65851806                0.78174565               76.90683195                1.00000000                4.02132255                0.61569178               -2.35697438               -4.12030677                7.80269818                0.02750487
              23.66524725                0.24217531               76.47151947                1.00000000                0.67291936                0.52138869               -2.06185627               -0.06053087               -0.02067081               -0.02070307
              14.10508660                6.60622977               80.18223934                0.00010000               -0.05058711               -0.03242305                0.10568467               -0.00271426                0.01667903                0.66694532
              15.10458073                6.10907474               79.75094749                0.00010000               -0.07073915               -0.07849500                0.24951349                0.00644537                0.08869611                0.07854963
              16.10367182                5.61177065               79.32064897                0.00010000               -0.11371623               -0.11927535                0.39070140                0.00511305                0.16044518               -0.22564997
              17.10230641                5.11411037               78.89068382                0.00010000               -0.15790289               -0.16623695                0.53859851               -0.01033411                0.23482604               -0.20693892
              18.10051376                4.61579660               78.46209458                0.00010000               -0.20647876               -0.20793275                0.67703278               -0.02690218                0.22151492               -0.21631591
              19.09817683                4.11673898               78.03237715                0.00010000               -0.30074484               -0.26188011                0.82947997               -0.19281881                0.26909663               -0.40285860
              20.09449887                3.61403757               77.60559926                0.00010000                0.96679728                0.06887927                1.00169742               -4.87474686                7.95183316               -1.33466512
              21.11751278                3.00711652               77.33003718                0.00010000                3.30623172               -2.02023151               -0.48685161               -6.66769874               15.01986216               -0.27861954
              22.16062350                2.39078127               77.04158614                0.00010000                4.10446798               -1.28852399               -1.35240328               -5.50897199               14.53382381               -0.75993731
              23.19960214                1.78790257               76.75385698                1.00000000                2.17943942                0.51485380               -1.71456770               -3.01894351                7.36390496                0.00475100
              24.20421229                1.24738919               76.31810770                1.00000000                0.46101507                0.42610442               -1.42930248               -0.10950964                0.01770101               -0.08695654
              14.60243707                7.60596075               80.04706779                0.00010000               -0.03542171               -0.01781673                0.06093645               -0.00552810                0.14894552                0.77923485
              15.60208285                7.10832480               79.61270763                0.00010000               -0.05245808               -0.07038911                0.20863652                0.00101805                0.33723730                0.00579602
              16.60138791                6.61059926               79.18172704                0.00010000               -0.08075835               -0.11135068                0.35355687               -0.01722179                0.91211950               -0.65972380
              17.60046769                6.11242316               78.75880893                0.00010000               -0.10534862               -0.62072065                0.51047232               -0.28085651                1.24589250               -0.17105348
              18.59928094                5.61367225               78.33470395                0.00010000               -0.13886503               -1.05005240                0.64104931               -0.18358181                1.04034050                0.37892529
              19.59769039                5.11411106               77.90826076                0.00010000               -0.08970656               -1.67329638                0.80345302                0.22169758                1.07141982                1.23433789
              20.59748681                4.61024031               77.48580352                0.00010000                2.49637672               -3.58192762                0.98489203               -4.71472964                7.85680873                3.11836676
              21.64761792                3.97556809               77.19742428                0.00010000                4.81842538               -2.47778477               -0.83119506               -8.83651298               12.92758696               -0.02592982
              22.69385531                3.38097912               76.88273355                0.00010000                4.69566744               -0.72120584               -1.63811667               -7.47000916               13.20056810               -1.94816465
              23.74153127                2.79204273               76.59989196                0.00010000                2.51142504                1.47444302               -1.09673932               -6.10550564                7.61675905               -5.03299101
              24.74408381                2.25069739               76.16365974                1.00000000                0.25525447                3.00158921               -0.83170159               -4.01749939                0.07748109               -3.39321235
              15.10024795                8.60587343               79.91049723                0.00010000               -0.02853599                0.00219576                0.01975832               -0.00095695                0.25036847                0.65566938
              16.09996259                8.10766696               79.47261857                0.00010000               -0.05094602               -0.06834536                0.17369995                0.01169600                0.42133731               -0.33755248
              17.09922903                7.60954364               79.03784203                0.00010000               -0.31731540               -0.14615520                0.30925584               -0.45159017                1.74732433               -1.16330763
              18.09361628                7.10169596               78.62652528                0.00010000               -0.20374038               -0.91765265                0.06420706               -1.08811840                3.05253726               -0.41843292
              19.09515422                6.59479555               78.21777307                0.00010000                0.62132237               -1.75853604               -0.17070057               -0.99836388                3.36692555                0.55577163
              20.10604273                6.08327305               77.81391640                0.00010000                2.17965118               -3.04051497               -0.44288968               -1.78937138                4.50372735                1.97276505
              21.13874724                5.54239901               77.43146133                0.00010000                3.20004915               -5.03189898               -0.97403361               -4.19167228                6.00491969                3.88101618
              22.17004371                4.95756083               77.06610471                0.00010000                2.80007199               -1.37124857               -1.55111733               -7.42741923                7.27542289                0.02780359
              23.19474868                4.37635716               76.71719919                0.00010000                1.88650216                0.34378356               -2.06871468               -7.58523767                6.74912815               -2.43268579
              24.20777375                3.81739143               76.34374355                0.00010000                0.59021426                2.84503143               -2.65695277               -6.01501832                4.10958004               -7.37329484
              25.20655297                3.30742098               75.94259564                0.00010000               -0.12207847                4.66390551               -3.25476524               -3.56585649                2.40621126               -6.07914912
              15.59883087                9.60600467               79.77241602                0.00010000               -0.01843033                0.02051037               -0.02184636               -0.00057221               -0.00360028                0.55733831
              16.59864657                9.10695789               79.32734617                0.00010000               -0.02518833               -0.07065947                0.16054825               -0.00236049                0.34567406               -0.50717413
              17.59832711                8.60767615               78.88903851                0.00010000               -0.25965835               -0.21326556                0.28361479               -0.71473634                2.60953530               -1.63457779
              18.59345340                8.09407010               78.48940059                0.00010000               -0.02952688               -0.68502136               -0.28342167               -1.45765738                4.64271383               -0.88112205
              19.59773657                7.57850153               78.09248756                0.00010000                1.04230449               -1.41646639               -0.83871475               -1.86562672                4.89674018               -0.20635934
              20.61429949                7.05330076               77.70031146                0.00010000                2.08145060               -2.31854819               -1.42142823               -3.13083536                5.17369452                0.44740519
              21.63936558                6.50960233               77.31415701                0.00010000                2.54059491               -2.29492830               -2.02059779               -5.59405469                5.33966345                0.36406625
              22.66511139                5.94814312               76.93315038                0.00010000                2.14771858               -0.45127809               -2.55880575               -6.99499166                5.04266850               -0.31836295
              23.68231995                5.38785479               76.54955647                0.00010000                1.25278445                1.37738422               -2.96583401               -6.33076446                3.99520537               -1.97419335
              24.69016708                4.84894336               76.15472109                0.00010000                0.51938180                2.89358526               -3.16881252               -3.72646951                2.08144709               -3.26145887
              25.69270759                4.34397550               75.73788706                0.00010000                0.25405085                3.14573067               -3.22053743               -1.62848944                1.04976251               -4.36371415
              16.09833005               10.60628364               79.63353467                0.00010000               -0.00861628                0.03571744               -0.06430972               -0.00126493                0.00339111                0.56260208
              17.09824389               10.10625377               79.18376060                0.00010000               -0.02539829               -0.06684313                0.13590480               -0.03877370                0.10729208               -0.40605317
              18.09782209                9.60527832               78.73591487                0.00010000               -0.23030701               -0.21776394                0.31881204               -0.91244072                3.17386155               -1.68097785
              19.09363775                9.08799553               78.34770530                0.00010000                0.03944681               -0.50055191               -0.53875419               -1.93342189                6.03246714               -1.22577356
              20.09861102                8.56646622               77.95866616                0.00010000                0.93437352               -0.88524296               -1.33758280               -2.59353545                5.87917157               -0.82556838
              21.11232522                8.03690208               77.57052356                0.00010000                1.67063836               -1.09896476               -2.11228493               -3.84330625                5.68544290               -0.55095936
              22.13202379                7.49650045               77.18268102                0.00010000                1.97830980               -0.70539851               -2.84086967               -5.25711500                5.24321994               -0.48239664
              23.15189142                6.94853526               76.79246051                0.00010000                1.76546840                0.43102475               -3.45945357               -5.92724443                4.42703083               -0.71140773
              24.16733316                6.40390484               76.39548707                0.00010000                1.26161172                1.71161996               -3.86852861               -5.07389728                3.19229415               -1.17012491
              25.17712365                5.87526314               75.98625114                0.00010000                0.82928620                2.51811113               -4.01562623               -2.86000544                1.64638371               -1.85444998
              26.18391888                5.37033559               75.56074607                0.00010000                0.67952323                2.50832014               -4.02565672               -1.24619811                0.85138856               -2.78867168
              16.59886531               11.60671901               79.49527164                0.00010000                0.00111010                0.05129520               -0.11119656               -0.00011835                0.00072481                0.62343822
              17.59887641               11.10562103               79.04052962                0.00010000               -0.02643895               -0.05880100                0.11303563               -0.05065096                0.03193162               -0.38403700
              18.59833653               10.60332087               78.58632940                0.00010000               -0.26396722               -0.17990601                0.33973086               -0.96492584                3.61176963               -1.44804110
              19.59359707               10.08405906               78.20343554                0.00010000               -0.06886122               -0.24853605               -0.71316163               -2.09798836                7.00481466               -1.36286211
              20.59695931                9.56079667               77.81945723                0.00010000                0.69010367               -0.28913463               -1.68999748               -2.79306958                6.70572556               -1.14306118
              21.60739914                9.03132147               77.43401007                0.00010000                1.28153967               -0.17672812               -2.61652837               -3.72788102                6.25530648               -0.93857848
              22.62259010                8.49549436               77.04564153                0.00010000                1.58814835                0.27647161               -3.47235011               -4.56056125                5.55489783               -0.80402787
              23.63916211                7.95676362               76.65170283                0.00010000                1.57620164                1.06696189               -4.19437658               -4.75353003                4.54440969               -0.77321154
              24.65411414                7.42208719               76.24866719                0.00010000                1.36870562                1.89227196               -4.70435524               -3.95673180                3.23271079               -0.89715065
              25.66653622                6.89930558               75.83291959                0.00010000                1.17622908                2.36714554               -4.95095947               -2.22313006                1.69551967               -1.25974005
              26.67763872                6.39414191               75.40174820                0.00010000                1.11024949                2.27287547               -4.89988802               -0.94593857                0.85738841               -2.03375798
              17.10052366               12.60730955               79.35736123                0.00010000                0.01053522                0.06582461               -0.15914334                0.00127220                0.00251283                0.65714947
              18.10062901               12.10507775               78.89749773                0.00010000               -0.02190629               -0.04953136                0.09277622               -0.04769719                0.03309115               -0.38566377
              19.10008553               11.60168020               78.43822847                0.00010000               -0.32134149               -0.15676233                0.34939528               -0.86897176                4.04022676               -1.38452867
              20.09420218               11.08302481               78.05882280                0.00010000               -0.22991527                0.02970494               -0.83200056               -1.90864878                7.83298580               -1.32045147
              21.09548723               10.56068353               77.67844393                0.00010000                0.44338652                0.20217675               -1.93575128               -2.51874227                7.46416048               -1.18017671
              22.10306991               10.03336752               77.29535885                0.00010000                0.99415946                0.45361265               -2.97815266               -3.19986889                6.88316901               -1.00432303
              23.11537042                9.50202988               76.90766544                0.00010000                1.35790372                0.87317892               -3.93928780               -3.66136220                6.05781632               -0.84388106
              24.13022799                8.96987450               76.51272075                0.00010000                1.51430718                1.43993494               -4.76154415               -3.61464507                4.94886263               -0.74209505
              25.14565656                8.44175028               76.10736334                0.00010000                1.51891738                1.98671288               -5.36423885               -2.89641884                3.55100385               -0.76989899
              26.16060634                7.92260605               75.68836009                0.00010000                1.48354471                2.27310546               -5.66311863               -1.59496217                1.88448527               -1.04518727
              27.17532746                7.41579310               75.25277702                0.00010000                1.47211208                2.07223050               -5.59412557               -0.65945704                0.91559271               -1.72493934
              17.60335434               13.60803551               79.21955793                0.00010000                0.01974694                0.07791537               -0.20795056                0.00205010                0.00799292                0.65674710
              18.60355181               13.10463040               78.75441082                0.00010000               -0.01721510               -0.04035778                0.07778609               -0.04064358                0.06344024               -0.41631407
              19.60301004               12.60018563               78.29042026                0.00010000               -0.35655210               -0.14315906                0.36045353               -0.63174057                4.55200924               -1.18998682
              20.59642077               12.08465316               77.91543931                0.00010000               -0.33841431                0.26694501               -0.92061893               -1.41453442                8.68987017               -1.13470351
              21.59624175               11.56484021               77.53820375                0.00010000                0.28173227                0.55869096               -2.11292975               -1.93881294                8.19009981               -0.98776665
              22.60205541               11.04039372               77.15752563                0.00010000                0.83070628                0.84713584               -3.23992385               -2.41126648                7.51480567               -0.83356949
              23.61285588               10.51295794               76.77123865                0.00010000                1.25466968                1.21038485               -4.28112920               -2.64714624                6.60854745               -0.68895058
              24.62714881                9.98556232               76.37671549                0.00010000                1.52991670                1.62559569               -5.17948780               -2.49442426                5.42516399               -0.58778966
              25.64345421                9.46182145               75.97078389                0.00010000                1.67226753                1.99471717               -5.84671287               -1.90205256                3.92469782               -0.60074490
              26.66059416                8.94476769               75.54998834                0.00010000                1.73106278                2.16523069               -6.17976250               -0.98960986                2.09888679               -0.83776863
              27.67807547                8.43558652               75.11106662                0.00010000                1.74813102                1.93419899               -6.08670229               -0.36974650                1.00898345               -1.41892733
              18.10737487               14.60886785               79.08147311                0.00010000                0.02911459                0.08825981               -0.25162166                0.00167335                0.02655442                0.56835132
              19.10766602               14.10427060               78.61098539                0.00010000                0.00265428               -0.03204509                0.06363886               -0.03095264                0.33501877               -0.42286560
              20.10742796               13.59881702               78.14678158                0.00010000               -0.32045545               -0.13898347                0.33475588               -0.29193785                5.22412738               -0.96053127
              21.10125691               13.08836371               77.77463506                0.00010000               -0.32287740                0.44100809               -1.00246072               -0.71990990                9.46931486               -0.70891894
              22.10097041               12.57185735               77.40085646                0.00010000                0.27349706                0.74509158               -2.26283386               -1.09979101                8.86921829               -0.57652389
              23.10672685               12.05031024               77.02257200                0.00010000                0.81442437                1.05548839               -3.44972859               -1.36701158                8.08250063               -0.47678769
              24.11725890               11.52623758               76.63803092                0.00010000                1.23745706                1.39389854               -4.54852285               -1.45807954                7.11689399               -0.38284438
              25.13147599               11.00238641               76.24467885                0.00010000                1.55756194                1.73084497               -5.50218087               -1.32279929                5.88478427               -0.31374840
              26.14841014               10.48164462               75.83927349                0.00010000                1.77865384                1.99975102               -6.21731807               -0.94625174                4.30428424               -0.31739177
              27.16704907                9.96591066               75.41793464                0.00010000                1.89423648                2.10955570               -6.57492282               -0.44315831                2.31680183               -0.46744468
              28.18629487                9.45447708               74.97654064                0.00010000                1.92457976                1.92813622               -6.45616989               -0.11518850                1.10900392               -0.88725423
              18.61258232               15.60980070               78.94179240                0.00010000                0.04012683                0.09328497               -0.30547733               -0.06037584                0.27103959                0.49065156
              19.61298359               15.10398950               78.46804050                0.00010000                0.02479245               -0.02810989                0.04891846               -0.08798044                0.75554996               -0.41563404
              20.61307817               14.59740596               78.00416201                0.00010000               -0.20006708               -0.14110655                0.31442222                0.03921224                6.16769763               -0.93869544
              21.60898225               14.09347333               77.63943269                0.00010000               -0.03893809                0.51096134               -1.12301306               -0.11066225               10.29628041               -0.32085950
              22.61229941               13.57974204               77.26814379                0.00010000                0.56763539                0.78846936               -2.42663465               -0.46559225                9.36019173               -0.28394794
              23.62033495               13.06150349               76.89190589                0.00010000                0.96593527                1.11932511               -3.65432551               -0.58449625                8.49910864               -0.24630587
              24.63161811               12.54083591               76.50899582                0.00010000                1.24754107                1.45983353               -4.79232965               -0.63029239                7.49327489               -0.21970135
              25.64528578               12.02017922               76.11707896                0.00010000                1.46934106                1.77928006               -5.78636413               -0.56999383                6.26231633               -0.20764850
              26.66100493               11.50181647               75.71306160                0.00010000                1.68063801                2.01718471               -6.54293910               -0.40154109                4.70418915               -0.23684368
              27.67889854               10.98695880               75.29301689                0.00010000                1.88169631                2.10481425               -6.93854774               -0.19841482                2.66020153               -0.34488397
              28.69863886               10.47414924               74.85138054                0.00010000                1.97403235                1.96721621               -6.82183056               -0.04655687                1.37669597               -0.66122652
              14.03469252                5.74988205               81.32143928                0.00010000               -0.04461716               -0.00714970                0.04028336                0.03030788               -0.39386654                0.47750213
              15.03424635                5.24907344               80.89200114                0.00010000               -0.07754025               -0.06746860                0.23728525                0.03726513               -0.48521680                0.05626126
              16.03314172                4.74808298               80.46027522                0.00010000               -0.14059280               -0.12200157                0.42877390                0.03718224               -0.51418471               -0.03959108
              17.03143450                4.24676322               80.03013106                0.00010000               -0.20935000               -0.18129484                0.61888509                0.01227833               -0.47005448               -0.25605937
              18.02895472                3.74478560               79.59945277                0.00010000               -0.27584799               -0.23905167                0.80874429               -0.00141086               -0.44589481               -0.28920419
              19.02591754                3.24227738               79.17023843                0.00010000               -0.67394868               -0.31406474                1.01908799               -0.41502291                0.41939495               -0.56441992
              20.01547574                2.73142359               78.75757848                0.00010000               -1.58613108                0.17432577                0.83045372               -3.82290617                7.39719622               -1.84950483
              20.99419491                2.14772457               78.46091325                0.00010000                0.33520804               -1.04967596               -0.32709776               -3.64852538               14.17709345               -0.38616760
              22.02217991                1.54914489               78.17158573                0.00010000                4.92698277               -1.62396813               -1.42078091               -3.73812266               14.69009435               -0.21400432
              23.09273457                0.93173966               77.88385258                1.00000000                3.83354591                0.64338382               -2.24530619               -3.77954951                7.22792774                0.00394517
              24.09885082                0.39209763               77.45207975                1.00000000                0.61162541                0.50495243               -1.83454214                0.03760665               -0.02054152               -0.04694062
              14.53580422                6.74981056               81.18278583                0.00010000               -0.02856750               -0.00436963                0.00702851                0.00021275                0.01320610                0.66127823
              15.53551854                6.24839875               80.75322198                0.00010000               -0.05677812               -0.06590439                0.20586689                0.00827106                0.08292320                0.07990968
              16.53466865                5.74686296               80.32461844                0.00010000               -0.11562862               -0.12192714                0.40051120                0.00566934                0.15755689               -0.21774131
              17.53320597                5.24495027               79.89641383                0.00010000               -0.17425620               -0.18669205                0.60156642               -0.00910566                0.23521920               -0.19078605
              18.53118353                4.74239508               79.46952461                0.00010000               -0.23788281               -0.24735745                0.80056245               -0.02386856                0.23365234               -0.20875186
              19.52844831                4.23913673               79.04168297                0.00010000               -0.33302214               -0.32118249                1.02190190               -0.14546172                0.31080212               -0.39963855
              20.52452309                3.73316685               78.61705589                0.00010000                1.02003483               -0.14484150                1.27485611               -4.32261659                7.13722482               -1.12647477
              21.54884901                3.13722781               78.32622290                0.00010000                3.41340238               -2.07159163               -0.30113081               -5.82257163               13.57269615               -0.60973723
              22.59279113                2.53290521               78.02834309                0.00010000                4.23068494               -1.39109082               -1.28500859               -4.86551750               13.52227617               -1.13614411
              23.63346271                1.93817350               77.73519152                1.00000000                2.30388935                0.60702089               -1.98361939               -2.64121892                6.92700921               -0.00565210
              24.63886892                1.39714715               77.30300734                1.00000000                0.54062139                0.46579625               -1.55041980               -0.03543440                0.01657605               -0.10844210
              15.03752038                7.74979466               81.04722363                0.00010000               -0.01610164                0.00465175               -0.02667484               -0.00347652                0.14446156                0.77106395
              16.03735937                7.24775535               80.61463079                0.00010000               -0.04083953               -0.06093401                0.17612256                0.00089743                0.33138112                0.01018769
              17.03670359                6.74564444               80.18538722                0.00010000               -0.08195525               -0.11767851                0.37557533               -0.02293114                0.91302840               -0.65219961
              18.03572026                6.24302937               79.76431378                0.00010000               -0.12063536               -0.62779061                0.58481727               -0.28774325                1.25190796               -0.35701384
              19.03429089                5.73983845               79.34186662                0.00010000               -0.17418622               -1.04046485                0.78504197               -0.21014292                1.06645461                0.00285794
              20.03223654                5.23585373               78.91742836                0.00010000               -0.16792766               -1.60748866                1.02409821                0.17737914                1.14298395                0.63474743
              21.03093233                4.72852676               78.49729129                0.00010000                2.28842899               -3.32334800                1.30152889               -4.10171197                6.91174741                2.12540908
              22.07800512                4.10629274               78.19016225                0.00010000                4.64957680               -2.41221411               -0.65604948               -7.79131371               11.44670412               -0.70964376
              23.12392387                3.52132308               77.86722308                0.00010000                4.88315672               -0.86670278               -1.47116513               -6.56200547               12.71114698               -2.66941368
              24.17566825                2.94388008               77.58605953                1.00000000                2.81354787                1.30079128               -1.68370158               -5.79064795                7.54138901               -5.76392665
              25.18019483                2.40141355               77.15326552                1.00000000                0.45265741                3.00304158               -1.22496118               -4.28584407                0.07743960               -4.46633953
              15.53981330                8.74990359               80.91030269                0.00010000               -0.01265878                0.01949348               -0.05578255               -0.00024025                0.24183315                0.64480231
              16.53968671                8.24718007               80.47425338                0.00010000               -0.04386468               -0.06110733                0.15305536                0.00677047                0.40320498               -0.31844746
              17.53893601                7.74450939               80.04111328                0.00010000               -0.32148134               -0.15301402                0.34175780               -0.44987668                1.53503921               -1.14569724
              18.53325709                7.23239445               79.62772864                0.00010000               -0.23898448               -0.90733877                0.16749856               -1.07776771                2.64370835               -0.77409507
              19.53415632                6.72158579               79.21702035                0.00010000                0.50252493               -1.68490413                0.00324581               -0.98211624                2.94074961               -0.15344699
              20.54330759                6.20698696               78.81085010                0.00010000                1.89467590               -2.81982569               -0.19601016               -1.65521569                3.93668572                0.86914949
              21.57204984                5.66669989               78.42340488                0.00010000                2.84594157               -4.56552053               -0.69147564               -3.67398101                5.28529289                2.32574301
              22.60022642                5.08898353               78.05184403                0.00010000                2.59569239               -1.28931533               -1.33891291               -6.57133741                6.61698765               -0.96911053
              23.62396369                4.51557116               77.69685505                0.00010000                1.86664276                0.23178176               -1.96223029               -6.80038582                6.27622304               -3.47665991
              24.63755927                3.96418932               77.32030878                0.00010000                0.70607013                2.34573951               -2.22055001               -5.71125584                3.89354717               -8.64480403
              25.63808509                3.45720798               76.91621999                0.00010000                0.05258146                4.19296667               -2.36710645               -3.56872211                2.68828849               -7.72472664
              16.04296261                9.75018453               80.77187169                0.00010000               -0.00736381                0.03446853               -0.08449229                0.00074652                0.00033051                0.54155703
              17.04288898                9.24653321               80.32892569                0.00010000               -0.02354674               -0.06760716                0.15448353               -0.00831153                0.31878164               -0.48076294
              18.04249168                8.74258416               79.89213287                0.00010000               -0.29002308               -0.21854922                0.33161211               -0.69978307                2.21297512               -1.56804646
              19.03708851                8.22488260               79.48722009                0.00010000               -0.12178094               -0.66862099               -0.16483378               -1.41542940                3.88456489               -1.14117595
              20.04005606                7.70614037               79.08515937                0.00010000                0.84648043               -1.33014998               -0.64950477               -1.74800431                4.11380771               -0.76360032
              21.05401812                7.17945721               78.68759437                0.00010000                1.77000403               -2.11718773               -1.16221218               -2.82501219                4.36967275               -0.38883835
              22.07545614                6.63721635               78.29580469                0.00010000                2.18444887               -2.05241884               -1.71408089               -4.93996242                4.58834039               -0.62945991
              23.09770710                6.08050643               77.90947756                0.00010000                1.86271082               -0.39581641               -2.25599938               -6.12829233                4.48537881               -1.42437067
              24.11271036                5.52595871               77.52192771                0.00010000                1.10496039                1.23671885               -2.66149821               -5.58300327                3.73965935               -3.22081592
              25.11980631                4.99079487               77.12421047                0.00010000                0.50363521                2.47887433               -2.92875706               -3.37735404                2.14036833               -4.60898122
              26.12278306                4.48527288               76.70530392                0.00010000                0.29767532                2.50151865               -3.04091670               -1.57796457                1.13810796               -5.69389554
              16.54713088               10.75059296               80.63262911                0.00010000               -0.00100230                0.04786676               -0.11464641               -0.00032539                0.00392713                0.54085531
              17.54712086               10.24582793               80.18515857                0.00010000               -0.02699640               -0.06947934                0.14207956               -0.04018517                0.10010364               -0.38417439
              18.54659095                9.74013841               79.73946146                0.00010000               -0.28642864               -0.22681095                0.38237970               -0.87076122                2.64073564               -1.58693112
              19.54139229                9.21902203               79.34300780                0.00010000               -0.09846675               -0.48022868               -0.41322429               -1.82388106                4.97792023               -1.38812848
              20.54462162                8.69498279               78.94637537                0.00010000                0.71695376               -0.81235235               -1.14444515               -2.36172618                4.84230610               -1.21204830
              21.55573136                8.16464320               78.55094876                0.00010000                1.37898760               -0.98126666               -1.84634045               -3.40855872                4.67757985               -1.13819307
              22.57220137                7.62565151               78.15629855                0.00010000                1.65934234               -0.61111744               -2.50677356               -4.57160886                4.33997672               -1.25518584
              23.58891821                7.08106720               77.76033654                0.00010000                1.49069057                0.39582523               -3.06935793               -5.07545830                3.74155859               -1.68097839
              24.60201518                6.54030553               77.35941636                0.00010000                1.08899048                1.50344348               -3.46583617               -4.27497463                2.79616454               -2.36230937
              25.61069802                6.01376681               76.94842825                0.00010000                0.77772872                2.16336450               -3.65049435               -2.35308566                1.49692503               -3.19741872
              26.61756976                5.50723836               76.52306782                0.00010000                0.68717393                2.04736616               -3.63117490               -0.97296526                0.79907100               -3.94349425
              17.05248617               11.75114187               80.49395040                0.00010000                0.00536576                0.06174781               -0.15098798                0.00071606                0.00092307                0.59623147
              18.05253983               11.24514362               80.04175277                0.00010000               -0.03019089               -0.06542706                0.12940189               -0.04783584                0.03328739               -0.35959855
              19.05188235               10.73804794               79.59011608                0.00010000               -0.33866559               -0.19798246                0.41024709               -0.89427117                2.97649799               -1.36432174
              20.04576651               10.21527803               79.19698863                0.00010000               -0.23409902               -0.23434838               -0.58794089               -1.92789775                5.73437431               -1.44048122
              21.04720037                9.68989332               78.80359474                0.00010000                0.47058551               -0.24432025               -1.50330690               -2.49377789                5.46824692               -1.37957074
              22.05517823                9.15983188               78.40934436                0.00010000                1.01997974               -0.12556995               -2.35674360               -3.26110950                5.06254261               -1.33163552
              23.06759997                8.62499400               78.01297799                0.00010000                1.31828433                0.27851937               -3.13040366               -3.91773137                4.47066245               -1.36134738
              24.08154391                8.08842293               77.61240131                0.00010000                1.34556447                0.95327613               -3.77252982               -4.00155097                3.66022053               -1.51116736
              25.09451125                7.55602758               77.20478600                0.00010000                1.21339304                1.63003645               -4.21605240               -3.24589958                2.62505198               -1.81837075
              26.10581177                7.03406216               76.78702633                0.00010000                1.09347032                1.98000015               -4.40788245               -1.77052675                1.38445259               -2.29363245
              27.11638066                6.52622021               76.35637906                0.00010000                1.05688890                1.82624456               -4.33507543               -0.72613528                0.70641337               -2.99961157
              17.55914170               12.75182792               80.35560851                0.00010000                0.01163750                0.07414057               -0.18924311                0.00214210                0.00258489                0.62669220
              18.55925807               12.24451939               79.89856852                0.00010000               -0.02852863               -0.05842894                0.11824436               -0.04326209                0.03520563               -0.35593833
              19.55857113               11.73617876               79.44215387                0.00010000               -0.41345630               -0.18104586                0.42660412               -0.77315136                3.32405272               -1.29927970
              20.55098895               11.21433507               79.05114380                0.00010000               -0.41894585                0.03680616               -0.71269857               -1.69936785                6.40143632               -1.33640543
              21.55019221               10.69009638               78.66001969                0.00010000                0.22097733                0.23018392               -1.76390147               -2.20508526                6.06915069               -1.29987962
              22.55540849               10.16213180               78.26693700                0.00010000                0.75317406                0.47078264               -2.73782228               -2.77055525                5.53392074               -1.23573323
              23.56525569                9.63122190               77.87019388                0.00010000                1.12225576                0.83386897               -3.61488300               -3.12447408                4.80858005               -1.19730289
              24.57785361                9.10013272               77.46768413                0.00010000                1.31011402                1.30069907               -4.34305512               -3.02730825                3.88748015               -1.22635177
              25.59145797                8.57290626               77.05696716                0.00010000                1.36206238                1.72557303               -4.85207973               -2.37239213                2.77249045               -1.37379529
              26.60509486                8.05336681               76.63549909                0.00010000                1.36364887                1.91242364               -5.07382630               -1.27555036                1.47060711               -1.71009109
              27.61873095                7.54376325               76.20090850                0.00010000                1.36360909                1.70947210               -4.95695874               -0.50739947                0.73383623               -2.32094145
              18.06714607               13.75262468               80.21736718                0.00010000                0.01776758                0.08376070               -0.22825757                0.00290371                0.00997877                0.62622953
              19.06732374               13.24397504               79.75538318                0.00010000               -0.02712110               -0.05118527                0.11223119               -0.03589694                0.06395465               -0.38068308
              20.06660365               12.73442702               79.29450873                0.00010000               -0.47311046               -0.16901887                0.44515348               -0.51413265                3.76292309               -1.11513573
              21.05786154               12.21601415               78.90682047                0.00010000               -0.56508578                0.28163633               -0.80833570               -1.18587118                7.12769595               -1.11191252
              22.05530193               11.69449700               78.51788116                0.00010000                0.03900344                0.59413171               -1.95887410               -1.65987429                6.67201646               -1.02842334
              23.05864160               11.16924753               78.12629869                0.00010000                0.59038166                0.85942957               -3.02577997               -2.07299192                6.04030531               -0.94442359
              24.06710956               10.64167138               77.73012247                0.00010000                1.03358889                1.16775616               -3.98735342               -2.25535327                5.22798487               -0.87773457
              25.07931338               10.11443692               77.32726634                0.00010000                1.33598790                1.50242466               -4.79015447               -2.09099084                4.22919387               -0.85676553
              26.09382932                9.59053904               76.91535748                0.00010000                1.50651991                1.78139117               -5.35629208               -1.56283719                3.02821195               -0.93514952
              27.10944378                9.07231063               76.49183863                0.00010000                1.58052390                1.88520469               -5.59996090               -0.79597892                1.61305306               -1.18999974
              28.12543980                8.56040965               76.05418772                0.00010000                1.59960201                1.66329255               -5.45089381               -0.28403828                0.79104074               -1.70468888
              18.57649905               14.75350313               80.07889848                0.00010000                0.02387461                0.09100349               -0.26090658                0.00152457                0.02061176                0.53245797
              19.57673779               14.24349568               79.61187374                0.00010000               -0.01248411               -0.04528378                0.10772290               -0.02614167                0.30701703               -0.38270929
              20.57624936               13.73279838               79.15066394                0.00010000               -0.47681249               -0.16498276                0.42951205               -0.14301179                4.36110551               -0.89259035
              21.56720154               13.21996779               78.76516785                0.00010000               -0.62440124                0.51037789               -0.89318022               -0.53083037                7.80733160               -0.68177851
              22.56376134               12.70197902               78.37893656                0.00010000               -0.02136337                0.80246195               -2.12098820               -0.91861241                7.25084640               -0.57905111
              23.56677428               12.17932039               77.98909354                0.00010000                0.55989506                1.07704090               -3.25533090               -1.17409255                6.51054360               -0.51412497
              24.57495924               11.65457702               77.59404212                0.00010000                1.01959273                1.36135550               -4.28020907               -1.24304486                5.63538017               -0.45889327
              25.58716613               11.13018121               77.19177603                0.00010000                1.36841361                1.63226396               -5.14108578               -1.11038486                4.58630441               -0.42851288
              26.60232751               10.60853409               76.77991272                0.00010000                1.60692696                1.83433681               -5.75397617               -0.77940272                3.31626985               -0.46088662
              27.61930467               10.09107090               76.35561957                0.00010000                1.72623126                1.89578859               -6.01849853               -0.35731063                1.77548706               -0.61194841
              28.63685214                9.57702910               75.91576782                0.00010000                1.75474688                1.71789243               -5.84204938               -0.08388379                0.86315358               -0.97433418
              19.08719146               15.75444475               79.93873142                0.00010000                0.03142055                0.09416144               -0.30091527               -0.06829719                0.25838237                0.44678530
              20.08750566               15.24306936               79.46883623                0.00010000                0.00399225               -0.04263198                0.10051563               -0.08908218                0.69942766               -0.37060002
              21.08727130               14.73112736               79.00791173                0.00010000               -0.47206843               -0.16710180                0.41888761                0.25981085                5.20957575               -0.85937459
              22.07806429               14.22622171               78.62877327                0.00010000               -0.48471090                0.62539126               -1.00766124                0.05721888                8.52295583               -0.29542288
              23.07757708               13.71054624               78.24458206                0.00010000                0.22487272                0.85672230               -2.28083062               -0.39009337                7.66748591               -0.27017771
              24.08256175               13.19078835               77.85636884                0.00010000                0.69053808                1.14679569               -3.45642955               -0.50364015                6.85698131               -0.24708748
              25.09138785               12.66889849               77.46255749                0.00010000                1.02934360                1.43214688               -4.51982123               -0.54244727                5.94010418               -0.23454474
              26.10314862               12.14708219               77.06133451                0.00010000                1.29818659                1.69009801               -5.41900559               -0.48538655                4.88652286               -0.23457134
              27.11735158               11.62722578               76.65046846                0.00010000                1.53269674                1.86916924               -6.06964681               -0.34038325                3.63462196               -0.26949080
              28.13380256               11.11022640               76.22712913                0.00010000                1.72470805                1.91554954               -6.36660273               -0.17312535                2.05174112               -0.36887780
              29.15184574               10.59476750               75.78702306                0.00010000                1.80431835                1.77384011               -6.19081061               -0.04653007                1.08080950               -0.63715426
              14.45918026                5.89346615               82.32131770                0.00010000               -0.02257068                0.02048394               -0.05968959                0.04102773               -0.39913245                0.47626205
              15.45895455                5.38857825               81.89410794                0.00010000               -0.06362965               -0.05349545                0.18544796                0.04722269               -0.49620643                0.05807390
              16.45790766                4.88350652               81.46454152                0.00010000               -0.14164358               -0.12026875                0.42185752                0.04649069               -0.53034107               -0.03485044
              17.45612168                4.37806117               81.03654747                0.00010000               -0.22426714               -0.19492353                0.65844450                0.01812685               -0.48707846               -0.24616569
              18.45342232                3.87190316               80.60799567                0.00010000               -0.30358760               -0.26954480                0.89146929                0.00503571               -0.45008071               -0.27953058
              19.45004993                3.36517118               80.18118411                0.00010000               -0.53969647               -0.36149043                1.15713043               -0.26810063                0.25319573               -0.56566602
              20.44262839                2.85291781               79.76734599                0.00010000               -1.13998525               -0.11225504                1.13051842               -3.36955082                6.39658422               -1.56810601
              21.42725022                2.27763008               79.45879416                0.00010000                0.65274825               -1.19573012               -0.11069434               -3.15522170               12.61171343               -0.51014632
              22.45568336                1.68895480               79.15831772                0.00010000                4.76661842               -1.65337634               -1.25611112               -3.28246485               13.23742072               -0.26301645
              23.52258259                1.07914668               78.86192583                1.00000000                3.63493633                0.64358977               -2.19372311               -3.38912633                6.53928505               -0.10545948
              24.52838208                0.53938132               78.43482862                1.00000000                0.57994933                0.46532651               -1.67504662                0.07647210               -0.01429177               -0.11441939
              14.96447843                6.89367099               82.18237991                0.00010000               -0.00718412                0.01995113               -0.08402667                0.00381656                0.00833095                0.65655556
              15.96440659                6.38804330               81.75506482                0.00010000               -0.04236631               -0.05405498                0.16336379                0.01125845                0.07475778                0.08204198
              16.96363111                5.88230383               81.32865920                0.00010000               -0.11509852               -0.12230468                0.40419385                0.00632314                0.15199043               -0.20867807
              17.96210462                5.37611194               80.90271514                0.00010000               -0.18567192               -0.20465514                0.65234392               -0.00956753                0.23807104               -0.17659099
              18.95991767                4.86920771               80.47810583                0.00010000               -0.26215144               -0.28347430                0.90758702               -0.02412620                0.25942936               -0.19865478
              19.95686159                4.36155628               80.05281518                0.00010000               -0.36071172               -0.37661504                1.19361975               -0.11684912                0.37715301               -0.39697982
              20.95270344                3.85179526               79.63109638                0.00010000                1.04089559               -0.32591516                1.51019657               -3.77620193                6.26465540               -0.96857613
              21.97767951                3.26567277               79.32401456                0.00010000                3.46984836               -2.09379964               -0.21155588               -5.00021138               11.97962829               -0.83692141
              23.02210040                2.67242104               79.01588597                0.00010000                4.28992804               -1.49379605               -1.17214845               -4.17962880               12.23402266               -1.28272267
              24.06347807                2.08558258               78.71418459                1.00000000                2.34058822                0.62501267               -2.04640953               -2.23262177                6.30709294               -0.12537044
              25.06891217                1.54403458               78.28709930                1.00000000                0.54341005                0.43883177               -1.49700720               -0.01287261                0.00303940               -0.16682612
              15.47051198                7.89386517               82.04653429                0.00010000                0.00349022                0.02252123               -0.10757308               -0.00156285                0.13882292                0.76441121
              16.47054688                7.38749715               81.61623008                0.00010000               -0.02732470               -0.05200934                0.14381038                0.00023751                0.32419669                0.01580479
              17.46996548                6.88106042               81.18923854                0.00010000               -0.07602193               -0.12098929                0.39073774               -0.03528198                0.91277543               -0.64379482
              18.46902644                6.37396807               80.77050528                0.00010000               -0.12350164               -0.64020950                0.64653183               -0.31739956                1.27023507               -0.53847008
              19.46749545                5.86623367               80.35040479                0.00010000               -0.19505229               -1.03869221                0.91350252               -0.26995508                1.12516954               -0.37326925
              20.46512540                5.35763888               79.92874272                0.00010000               -0.22537979               -1.55331273                1.22904449                0.08480740                1.26548472                0.02170851
              21.46298786                4.84639951               79.51183409                0.00010000                2.07474076               -3.06973908                1.58436490               -3.55645339                5.90511637                1.06377616
              22.50662021                4.23575408               79.18430329                0.00010000                4.45965584               -2.34047318               -0.55819836               -6.80334203                9.81585507               -1.24283499
              23.55218097                3.65907888               78.85331025                0.00010000                4.98481982               -1.01508545               -1.29714958               -5.71995750               11.74760440               -3.14169404
              24.60631661                3.09164694               78.56621793                1.00000000                2.95198255                1.03809171               -1.85812559               -5.40596182                7.10157299               -6.10768408
              25.61122062                2.54815795               78.13916051                1.00000000                0.49040159                2.84267308               -1.26576830               -4.36969104                0.05649435               -5.02900069
              15.97718323                8.89412142               81.90938158                0.00010000                0.00328697                0.03221061               -0.12519750               -0.00095564                0.23167650                0.63623026
              16.97721610                8.38700311               81.47567968                0.00010000               -0.03643377               -0.05298559                0.13192389               -0.00116147                0.38246136               -0.29669410
              17.97645455                7.87988404               81.04467718                0.00010000               -0.33163582               -0.15466904                0.36719239               -0.46843184                1.32648315               -1.12461584
              18.97058338                7.36330775               80.62987525                0.00010000               -0.28033987               -0.90003201                0.25001767               -1.11792054                2.25300394               -1.12400897
              19.97084775                6.84843387               80.21783798                0.00010000                0.39042655               -1.61795832                0.14194672               -1.03373626                2.54099124               -0.86576881
              20.97839191                6.33049002               79.80999619                0.00010000                1.63057070               -2.61067720               -0.00274835               -1.60555807                3.36901097               -0.25553677
              22.00345917                5.79040048               79.41763182                0.00010000                2.52706892               -4.11400214               -0.48061356               -3.26826835                4.46671342                0.76307088
              23.02893329                5.21886331               79.03932645                0.00010000                2.41746158               -1.22954414               -1.19244545               -5.81027058                5.74467875               -1.79446661
              24.05180840                4.65211933               78.67795459                0.00010000                1.86732341                0.08991446               -1.79534370               -6.11598192                5.64324880               -4.27396036
              25.06627976                4.10634442               78.29933255                0.00010000                0.83439563                1.84986624               -2.03637072               -5.39748282                3.56709949               -9.45945336
              26.06849631                3.60088805               77.89525351                0.00010000                0.22165544                3.75459066               -1.98757486               -3.44252627                2.48199255               -8.96352223
              16.48472948                9.89450939               81.77072618                0.00010000                0.00315440                0.04503130               -0.14163410                0.00112708                0.00432165                0.52838797
              17.48476103                9.38643744               81.33043584                0.00010000               -0.02186353               -0.06299523                0.14685639               -0.01724162                0.29064902               -0.45186777
              18.48429221                8.87796704               80.89567075                0.00010000               -0.33214095               -0.21637776                0.37098184               -0.70684922                1.81983697               -1.49777150
              19.47811821                8.35596743               80.48610392                0.00010000               -0.23268814               -0.64216630               -0.07198841               -1.41968314                3.14225893               -1.40568405
              20.47963845                7.83387451               80.07949746                0.00010000                0.64647100               -1.23219917               -0.50603169               -1.69368284                3.34855870               -1.33138107
              21.49104763                7.30542534               79.67706721                0.00010000                1.48053775               -1.90508969               -0.97584112               -2.60966606                3.55959129               -1.23442228
              22.50924920                6.76411946               79.27987539                0.00010000                1.88241604               -1.80885249               -1.51168665               -4.41428822                3.76918867               -1.58440022
              23.52869595                6.21116320               78.88803040                0.00010000                1.65655138               -0.34356832               -2.06337969               -5.42853992                3.78373685               -2.39495331
              24.54238023                5.66087717               78.49632650                0.00010000                1.04511447                1.08405158               -2.49488950               -4.95812977                3.25455610               -4.19822146
              25.54959824                5.12864426               78.09614594                0.00010000                0.54513040                2.10772399               -2.73400997               -3.02482353                1.90759577               -5.66361717
              26.55328284                4.62324977               77.67706872                0.00010000                0.36846022                1.97512608               -2.70171762               -1.43320678                1.04553458               -6.73484946
              16.99334966               10.89502204               81.63124175                0.00010000                0.00639448                0.05774286               -0.15993238               -0.00040692                0.00435641                0.52097577
              17.99341361               10.38574320               81.18660219                0.00010000               -0.02810436               -0.07091619                0.14499443               -0.04250534                0.09151488               -0.36230797
              18.99278758                9.87555649               80.74356246                0.00010000               -0.35656794               -0.23125028                0.43117002               -0.84701811                2.10912507               -1.49464293
              19.98628225                9.35046442               80.33944081                0.00010000               -0.26356957               -0.44269972               -0.31407083               -1.75394526                3.93431604               -1.56247130
              20.98751619                8.82378988               79.93577725                0.00010000                0.48356921               -0.71567825               -0.99834076               -2.18730568                3.81954418               -1.61598191
              21.99595364                8.29238823               79.53359675                0.00010000                1.09596781               -0.83624096               -1.66177038               -3.06736718                3.67664313               -1.73686726
              23.00943554                7.75422343               79.13254555                0.00010000                1.38255740               -0.48736863               -2.29827567               -4.03495416                3.41844890               -2.00721866
              24.02360478                7.21199194               78.73107335                0.00010000                1.28646004                0.40147385               -2.85693713               -4.42802504                2.98744172               -2.55167020
              25.03516474                6.67380036               78.32617035                0.00010000                0.99029537                1.36459039               -3.26742697               -3.69415651                2.28460479               -3.34014597
              26.04341069                6.14849889               77.91324125                0.00010000                0.77282111                1.88589153               -3.46164870               -2.01879072                1.25522922               -4.20818746
              27.05062117                5.64039057               77.48812257                0.00010000                0.72104748                1.65296150               -3.40411366               -0.82189825                0.69747529               -4.88835913
              17.50327902               11.89566424               81.49225188                0.00010000                0.00974539                0.07022801               -0.18591307                0.00077093                0.00085990                0.56992611
              18.50337647               11.38501911               81.04311765                0.00010000               -0.03241936               -0.07073137                0.14090715               -0.04740255                0.03273018               -0.33680167
              19.50263063               10.87334204               80.59453434                0.00010000               -0.42852848               -0.21272631                0.46397186               -0.83509792                2.33933082               -1.28736113
              20.49480590               10.34711343               80.19167672                0.00010000               -0.43310547               -0.19997739               -0.48648316               -1.78491270                4.46805453               -1.53685827
              21.49396852                9.81956094               79.78939109                0.00010000                0.22304181               -0.16951836               -1.35805690               -2.24260244                4.24128725               -1.64267885
              22.49926674                9.28870052               79.38687520                0.00010000                0.74889415               -0.03448510               -2.17356211               -2.87841755                3.88332347               -1.75057565
              23.50894641                8.75437209               78.98303346                0.00010000                1.06458857                0.33579580               -2.91829700               -3.40742517                3.39350698               -1.92678312
              24.52055851                8.21919268               78.57625223                0.00010000                1.15218721                0.92452448               -3.54356961               -3.43017919                2.76697524               -2.21495624
              25.53199015                7.68816898               78.16434614                0.00010000                1.10368524                1.49512684               -3.98100170               -2.73519555                1.99358757               -2.63518290
              26.54263222                7.16636209               77.74476194                0.00010000                1.05356897                1.75465151               -4.16567529               -1.45967681                1.06280554               -3.15744513
              27.55306153                6.65630900               77.31504669                0.00010000                1.04293132                1.55875230               -4.05705218               -0.57709973                0.56833335               -3.76996751
              18.01465534               12.89642660               81.35357636                0.00010000                0.01324251                0.08029428               -0.21472226                0.00234228                0.00222677                0.59713497
              19.01478777               12.38432858               80.89986262                0.00010000               -0.03320206               -0.06538003                0.13703431               -0.04058806                0.03459189               -0.32876378
              20.01399130               11.87130196               80.44676055                0.00010000               -0.52113385               -0.19845975                0.48473908               -0.68315587                2.60187422               -1.22209364
              21.00436509               11.34646487               80.04456882                0.00010000               -0.64571249                0.06387180               -0.61182289               -1.50530404                4.96554361               -1.37486322
              22.00107705               10.82039952               79.64316591                0.00010000               -0.03954766                0.28969643               -1.62238214               -1.92655024                4.67687479               -1.45286835
              23.00357414               10.29169853               79.24060240                0.00010000                0.48589153                0.53240913               -2.56003120               -2.40533542                4.19493103               -1.50562345
              24.01079488                9.76093934               78.83536778                0.00010000                0.88150872                0.85914600               -3.40598189               -2.68572862                3.57533783               -1.58548326
              25.02120431                9.23048243               78.42585964                0.00010000                1.12482681                1.25712144               -4.10819534               -2.56486380                2.84414183               -1.72787733
              26.03329142                8.70370290               78.01032174                0.00010000                1.24364121                1.60019585               -4.59410888               -1.97172500                2.01151807               -1.96498085
              27.04607714                8.18359193               77.58688357                0.00010000                1.29469714                1.72425576               -4.79014835               -1.03722606                1.06673564               -2.32954136
              28.05918536                7.67156561               77.15363784                0.00010000                1.31082250                1.51622109               -4.64154423               -0.39580211                0.55462849               -2.86223267
              18.52752192               13.89727013               81.21499278                0.00010000                0.01674368                0.08630889               -0.24428361                0.00320037                0.01181217                0.59798902
              19.52768935               13.38371151               80.75665544                0.00010000               -0.03453486               -0.05826068                0.13738322               -0.03220785                0.06145798               -0.34799149
              20.52683122               12.86937284               80.29932333                0.00010000               -0.60435435               -0.18698701                0.50603519               -0.39779912                2.96428096               -1.04609557
              21.51560227               12.34839087               79.89927259                0.00010000               -0.83136792                0.31552341               -0.70753534               -0.96260677                5.55241494               -1.11045504
              22.51020386               11.82535487               79.49902626                0.00010000               -0.24910303                0.65879530               -1.82136175               -1.40287869                5.14616772               -1.10129873
              23.51062021               11.29934870               79.09701004                0.00010000                0.31220334                0.91295271               -2.85472508               -1.77709163                4.56668390               -1.09598741
              24.51644793               10.77155501               78.69149158                0.00010000                0.79387368                1.18426750               -3.78574339               -1.92622323                3.85886549               -1.11155213
              25.52649768               10.24433511               78.28091240                0.00010000                1.14991156                1.46327757               -4.55925681               -1.76274740                3.05409883               -1.16880713
              26.53944616                9.72017290               77.86365805                0.00010000                1.37636501                1.68065034               -5.09540477               -1.29436610                2.15556247               -1.30426278
              27.55402498                9.20084721               77.43798912                0.00010000                1.48759761                1.73946354               -5.30716686               -0.64564493                1.14395999               -1.56692412
              28.56919811                8.68663342               77.00204875                0.00010000                1.51731314                1.52947213               -5.12308777               -0.21757432                0.58301740               -2.00793213
              19.04183658               14.89815278               81.07625498                0.00010000                0.02043190                0.09002001               -0.26861698                0.00197909                0.01469861                0.50341828
              20.04204090               14.38316336               80.61313985                0.00010000               -0.02403084               -0.05294997                0.14045876               -0.02440429                0.27944764               -0.34779334
              21.04135596               13.86756222               80.15537182                0.00010000               -0.64549874               -0.18249788                0.49884464                0.00567034                3.48794343               -0.83068854
              22.02913092               13.35277534               79.75677145                0.00010000               -0.96471595                0.59815798               -0.78947953               -0.34090149                6.12462079               -0.66773466
              23.02206164               12.83357542               79.35843669                0.00010000               -0.36493793                0.88463070               -1.98237153               -0.74840348                5.61670868               -0.60215358
              24.02183217               12.30995758               78.95746539                0.00010000                0.26111846                1.13312187               -3.08533366               -1.00358932                4.93072449               -0.57874065
              25.02728401               11.78462469               78.55242674                0.00010000                0.77496562                1.37796307               -4.08112765               -1.06014968                4.15784497               -0.56741758
              26.03733148               11.25974799               78.14185713                0.00010000                1.18039908                1.60178663               -4.91275308               -0.93506040                3.30422034               -0.57838252
              27.05089199               10.73731590               77.72419397                0.00010000                1.46861176                1.75711371               -5.49406141               -0.64550971                2.35167387               -0.63892327
              28.06670371               10.21838120               77.29756467                0.00010000                1.61847279                1.78574673               -5.72415588               -0.29035326                1.25211720               -0.78801269
              29.08326145                9.70215506               76.85969965                0.00010000                1.65577375                1.61311303               -5.51172641               -0.05916017                0.62888921               -1.09380434
              19.55754033               15.89907053               80.93577409                0.00010000                0.02514941                0.09177496               -0.29405551               -0.07142610                0.23894213                0.41498232
              20.55779183               15.38265251               80.47005081                0.00010000               -0.01038421               -0.05108479                0.13677337               -0.09228945                0.64462603               -0.33396172
              21.55733265               14.86572288               80.01253976                0.00010000               -0.75103964               -0.18393376                0.49394657                0.48274433                4.24739247               -0.78842670
              22.54277103               14.36035403               79.61927947                0.00010000               -0.96395502                0.75786889               -0.89296159                0.23024117                6.73157375               -0.27418210
              23.53805355               13.84304749               79.22252718                0.00010000               -0.16359422                0.94720621               -2.13025994               -0.31795399                5.95976838               -0.26557988
              24.53949915               13.32201114               78.82277730                0.00010000                0.37004915                1.20535569               -3.27356950               -0.42996220                5.20805117               -0.26066908
              25.54545453               12.79911427               78.41859939                0.00010000                0.78030547                1.44895788               -4.30751809               -0.46496320                4.39196412               -0.26539874
              26.55510526               12.27637084               78.00869885                0.00010000                1.12241116                1.66228530               -5.17734007               -0.41257692                3.52893134               -0.27983396
              27.56790275               11.75531517               77.59166866                0.00010000                1.41367522                1.79992645               -5.79620448               -0.28935883                2.59174710               -0.32155318
              28.58337876               11.23656214               77.16568483                0.00010000                1.62822168                1.81809459               -6.05836273               -0.15346938                1.46558002               -0.41264694
              29.60046719               10.71889568               76.72756433                0.00010000                1.70884243                1.67406239               -5.84632242               -0.04607242                0.80262118               -0.63678701
              14.88112940                6.03728287               83.32024549                0.00010000               -0.00309995                0.04422064               -0.14819518                0.05098950               -0.40799929                0.47619653
              15.88109840                5.52832115               82.89571010                0.00010000               -0.05170173               -0.04036951                0.13705176                0.05698879               -0.51333257                0.06045499
              16.88009537                5.01915062               82.46871238                0.00010000               -0.14298075               -0.11582404                0.40952528                0.05544768               -0.55361268               -0.02995473
              17.87823879                4.50950455               82.04329995                0.00010000               -0.23894523               -0.20439148                0.68532838                0.01939822               -0.51129373               -0.23825771
              18.87531646                3.99897465               81.61728216                0.00010000               -0.33038322               -0.29617869                0.95949945                0.00542969               -0.45725929               -0.26496808
              19.87163112                3.48770191               81.19338104                0.00010000               -0.47595412               -0.40633895                1.27276801               -0.18372716                0.15624403               -0.56130757
              20.86579738                2.97256070               80.78018885                0.00010000               -0.80868337               -0.32534743                1.40772591               -2.74910924                5.38669395               -1.42724020
              21.85545745                2.40708085               80.45869936                0.00010000                0.89996400               -1.21005942                0.08987820               -2.37117871               11.01524913               -0.60133792
              22.88379666                1.82874807               80.14646351                0.00010000                4.57759579               -1.64898308               -1.24514076               -2.74790604               11.48195417               -0.04647616
              23.94700937                1.22511293               79.83997812                1.00000000                3.44813664                0.62610453               -2.20510511               -3.03582263                5.74745128               -0.13386183
              24.95275939                0.68526788               79.41857882                1.00000000                0.57500216                0.42108562               -1.58922746                0.04958469               -0.00946464               -0.11499545
              15.39060102                7.03772508               83.18110530                0.00010000                0.01333962                0.03991751               -0.16529245                0.00803129                0.00086857                0.65283478
              16.39073441                6.52791745               82.75648926                0.00010000               -0.02714378               -0.04322779                0.12256939                0.01539775                0.06205065                0.08488149
              17.39005814                6.01799238               82.33270231                0.00010000               -0.11068295               -0.12000337                0.39992971                0.00658594                0.14213469               -0.19855456
              18.38852075                5.50746064               81.90946071                1.00000000               -0.18930317               -0.22023444                0.68781249               -0.01297923                0.24510893               -0.16380228
              19.38627208                4.99601287               81.48767635                1.00000000               -0.27599636               -0.31668678                0.99396956               -0.02908698                0.30428162               -0.18478236
              20.38300083                4.48363853               81.06555537                0.00010000               -0.38276294               -0.42975134                1.34276903               -0.11099180                0.46854007               -0.39083155
              21.37861682                3.96930722               80.64725982                0.00010000                1.03255782               -0.46469283                1.71650637               -3.04907784                5.29670028               -0.88669285
              22.40365198                3.39498026               80.32199178                0.00010000                3.43423686               -2.04783511               -0.65809221               -3.98301867                9.70755789               -0.42161549
              23.44730156                2.81225824               80.00490012                0.00010000                4.23696265               -1.61637430               -0.89772995               -3.52208105               10.66604070               -1.29957070
              24.48839124                2.23137398               79.69426333                1.00000000                2.28993671                0.57327533               -1.89908026               -1.89697121                5.58116438               -0.13293262
              25.49310029                1.68947874               79.27306720                1.00000000                0.47090544                0.37057236               -1.28860200               -0.05551607                0.00000701               -0.13836113
              15.90090527                8.03808122               83.04507216                0.00010000                0.02337794                0.03556180               -0.18010487                0.00001818                0.13063839                0.75979103
              16.90113905                7.52745659               82.61750699                0.00010000               -0.01106851               -0.04385128                0.11174552               -0.00123696                0.31334674                0.02300286
              17.90068390                7.01675056               82.19320197                0.00010000               -0.05901658               -0.12037588                0.39652082               -0.05723869                0.90927160               -0.63362640
              18.89995872                6.50509986               81.77724442                0.00010000               -0.10635330               -0.65725002                0.68950105               -0.37370140                1.30148129               -0.71816244
              19.89855683                5.99264092               81.36013667                1.00000000               -0.19208965               -1.04175635                1.01332202               -0.37049246                1.22389618               -0.75551631
              20.89611693                5.47910689               80.94200924                0.00010000               -0.25413718               -1.50433996                1.40436920               -0.07404654                1.44548882               -0.62091543
              21.89347409                4.96326684               80.52897859                0.00010000                1.83645714               -2.76936064                1.82009198               -2.97728545                4.84348216               -0.07850031
              22.93284607                4.36612415               80.17899828                0.00010000                4.17436109               -2.28065839               -0.19421918               -5.78505080                7.90902351               -0.63879538
              23.97696131                3.79642058               79.84128009                0.00010000                4.95016871               -1.25912736               -0.99556314               -5.00123482               10.60384263               -3.68143377
              25.03184944                3.23657844               79.54889702                1.00000000                2.92391193                0.68491311               -1.57329148               -5.02650739                6.55122260               -6.36726278
              26.03543955                2.69267933               79.12795016                1.00000000                0.35901088                2.52752949               -0.96821512               -4.25077514                0.04167413               -5.50544113
              16.41185063                9.03843631               82.90779874                0.00010000                0.01897048                0.04054505               -0.18714362               -0.00336612                0.21881260                0.63114973
              17.41204034                8.52704043               82.47689186                0.00010000               -0.02902687               -0.04416305                0.11022337               -0.01165599                0.35761262               -0.27187707
              18.41127010                8.01558487               82.04845713                0.00010000               -0.34419870               -0.15035547                0.38423528               -0.50941740                1.11590250               -1.09991969
              19.40515636                7.49431564               81.63272900                0.00010000               -0.32074459               -0.89482531                0.30635979               -1.21294293                1.86985059               -1.47056529
              20.40485520                6.97517774               81.21985928                0.00010000                0.28688023               -1.55337195                0.23992221               -1.16284056                2.15295660               -1.58744647
              21.41089397                6.45355173               80.81079513                0.00010000                1.35993224               -2.39693397                0.13761210               -1.62713153                2.80017131               -1.42828573
              22.43205385                5.91392001               80.41379261                0.00010000                2.19516290               -3.63261124               -0.27727595               -2.88909981                3.49765414               -0.79573698
              23.45479723                5.34936709               80.02799512                0.00010000                2.23843579               -1.26318430               -0.94367472               -5.13798350                4.79541232               -2.43311800
              24.47682257                4.78707569               79.66094818                0.00010000                1.84025557               -0.13210300               -1.57173228               -5.57851141                4.94554898               -5.07738815
              25.49160234                4.24507224               79.27958136                0.00010000                0.95302220                1.35176879               -1.93073999               -5.08398989                3.09552165              -10.23295964
              26.49588301                3.74002933               78.87646850                0.00010000                0.42806705                3.25137528               -1.83255044               -3.18385899                2.23160914              -10.07188738
              16.92362972               10.03889212               82.76903901                0.00010000                0.01276616                0.05252301               -0.19184369                0.00044507                0.00789035                0.51965960
              17.92375738                9.52657333               82.33186282                0.00010000               -0.02046867               -0.05702354                0.13765645               -0.02792857                0.26012974               -0.42097284
              18.92322034                9.01374345               81.89955251                0.00010000               -0.38251959               -0.21014529                0.39934535               -0.73526162                1.42488341               -1.42757119
              19.91610699                8.48720336               81.48578032                0.00010000               -0.35782040               -0.60579169               -0.00630859               -1.47312594                2.40176344               -1.67088181
              20.91606394                7.96157348               81.07503873                0.00010000                0.43625173               -1.12041100               -0.40697975               -1.70168949                2.57939606               -1.90628401
              21.92483202                7.43116821               80.66807755                0.00010000                1.19063985               -1.67269264               -0.85078146               -2.46784491                2.71499187               -2.08781939
              22.93987673                6.89061462               80.26557095                0.00010000                1.60493496               -1.57854731               -1.37475658               -3.96339229                2.89086267               -2.54387037
              23.95693072                6.34086046               79.86820996                0.00010000                1.49045987               -0.37775655               -1.93385566               -4.82955397                2.97198786               -3.32880806
              24.96968593                5.79377852               79.47202992                0.00010000                1.01426422                0.92036434               -2.41349093               -4.42649150                2.62938399               -5.13703675
              25.97721600                5.26361382               79.06953027                0.00010000                0.60811339                1.79574104               -2.66210601               -2.69118225                1.57164517               -6.63033963
              26.98184820                4.75770684               78.65126957                0.00010000                0.46321928                1.57319386               -2.56455722               -1.29701738                0.89210170               -7.76284837
              17.43649711               11.03948677               82.62943046                0.00010000                0.01333298                0.06568234               -0.19857841               -0.00157645                0.00444433                0.50510742
              18.43663044               10.52589996               82.18805846                0.00010000               -0.02811374               -0.07130867                0.14434225               -0.04751131                0.08088040               -0.34140350
              19.43593484               10.01138196               81.74808486                0.00010000               -0.43833142               -0.23204114                0.46527716               -0.84052981                1.57641476               -1.41042502
              20.42786381                9.48219980               81.33672638                0.00010000               -0.45391369               -0.38952557               -0.24063767               -1.72242841                2.89036526               -1.74086020
              21.42685656                8.95276952               80.92640855                0.00010000                0.23160580               -0.59611929               -0.89446471               -2.06691136                2.78431449               -2.02417168
              22.43249593                8.42009787               80.51771335                0.00010000                0.81185927               -0.66767466               -1.54510821               -2.80250742                2.64167940               -2.34032951
              23.44309375                7.88234907               80.11033304                0.00010000                1.12731566               -0.34892564               -2.18946861               -3.60347904                2.42701926               -2.75446199
              24.45504224                7.34181196               79.70319780                0.00010000                1.12228147                0.42385277               -2.78042303               -3.91130379                2.12401745               -3.39294514
              25.46553938                6.80548298               79.29406782                0.00010000                0.94040677                1.26970026               -3.23197230               -3.23187623                1.64715161               -4.23604383
              26.47385038                6.28098706               78.87919528                0.00010000                0.81086224                1.68285600               -3.43739817               -1.74192200                0.92499055               -5.12081605
              27.48175662                5.77149321               78.45498555                0.00010000                0.79062452                1.37993736               -3.33068435               -0.68290401                0.55688133               -5.77313755
              17.95077182               12.04020577               82.49023213                0.00010000                0.01401480                0.07714720               -0.21457531               -0.00003051                0.00046643                0.54664812
              18.95091197               11.52514716               82.04457092                0.00010000               -0.03309585               -0.07468156                0.14674822               -0.04839315                0.02882810               -0.31644870
              19.95010990               11.00910262               81.59939552                0.00010000               -0.53205534               -0.22170299                0.49943789               -0.78833730                1.70143546               -1.21872348
              20.94027086               10.47941285               81.18725897                0.00010000               -0.66411310               -0.14789371               -0.40675595               -1.67104417                3.20208221               -1.64177528
              21.93682764                9.94965109               80.77643360                0.00010000               -0.05342670               -0.06828388               -1.24866444               -2.03792845                3.00099275               -1.91434713
              22.93920233                9.41781472               80.36587312                0.00010000                0.46327144                0.08933102               -2.05574626               -2.57028389                2.66956557               -2.17578162
              23.94609307                8.88363610               79.95461205                0.00010000                0.81842041                0.43525225               -2.81580667               -3.00328715                2.25615693               -2.48820002
              24.95557073                8.34933752               79.54152991                0.00010000                0.98901155                0.95515251               -3.47519988               -2.98616696                1.79143868               -2.88851676
              25.96587330                7.81917253               79.12516597                0.00010000                1.03983006                1.44058809               -3.95091277               -2.34707756                1.27771591               -3.38497803
              26.97636734                7.29727094               78.70371283                0.00010000                1.06522661                1.62808688               -4.15585708               -1.23019280                0.68550648               -3.92806240
              27.98717783                6.78530558               78.27523802                0.00010000                1.08104964                1.40116644               -4.02274497               -0.46861864                0.40501224               -4.47597499
              18.46661372               13.04102972               82.35131406                0.00010000                0.01520036                0.08500368               -0.23470286                0.00191953                0.00161640                0.57048515
              19.46676573               12.52440633               81.90130920                0.00010000               -0.03556584               -0.07045870                0.14827018               -0.03857152                0.03081467               -0.30494734
              20.46590241               12.00694790               81.45184865                0.00010000               -0.64356312               -0.21043919                0.52241161               -0.60010920                1.87961241               -1.15452323
              21.45389446               11.47924193               81.03890735                0.00010000               -0.91031389                0.10947869               -0.52711599               -1.33040089                3.53051691               -1.42469142
              22.44769613               10.95140384               80.62757204                0.00010000               -0.33946117                0.37745729               -1.50680809               -1.68486166                3.27087110               -1.61861850
              23.44710524               10.42188449               80.21573637                0.00010000                0.19045388                0.63250417               -2.43754914               -2.10210451                2.82304552               -1.78773153
              24.45150521                9.89105411               79.80207424                0.00010000                0.63386215                0.93726369               -3.30050749               -2.33390229                2.29087829               -1.97975740
              25.45978248                9.36091501               79.38552023                0.00010000                0.95796014                1.28628837               -4.03664598               -2.20506076                1.73875318               -2.22116062
              26.47066441                8.83429474               78.96508498                0.00010000                1.16654921                1.57045149               -4.55974653               -1.66878281                1.19170895               -2.52734175
              27.48311347                8.31354880               78.53969612                0.00010000                1.28252759                1.65100548               -4.77657270               -0.86066287                0.62742045               -2.90485817
              28.49631496                7.79951654               78.10807761                0.00010000                1.32014930                1.44418105               -4.61003786               -0.31307312                0.36231340               -3.36123863
              18.98405699               14.04190584               82.21248151                0.00010000                0.01653639                0.08802338               -0.25585564                0.00369259                0.01194138                0.57166867
              19.98422235               13.52373799               81.75813085                0.00010000               -0.03924379               -0.06309384                0.15286697               -0.02839104                0.05447740               -0.31817194
              20.98327211               13.00489384               81.30462944                0.00010000               -0.75077266               -0.19898603                0.54491019               -0.28306718                2.16770047               -0.98601390
              21.96920690               12.48160242               80.89266976                0.00010000               -1.13921359                0.36821481               -0.61681811               -0.74794912                3.97994221               -1.12014949
              22.96048784               11.95720024               80.48145392                0.00010000               -0.58484677                0.75155960               -1.69800575               -1.17160858                3.60607809               -1.18769181
              23.95750997               11.43046480               80.06920419                0.00010000               -0.00516670                1.00469133               -2.72458782               -1.52626893                3.06006525               -1.26238769
              24.96038451               10.90238138               79.65440760                0.00010000                0.53594627                1.25333722               -3.67363894               -1.65911616                2.44157111               -1.35867713
              25.96822889               10.37506328               79.23608120                0.00010000                0.97396702                1.49560540               -4.48174812               -1.50495007                1.82443601               -1.48851228
              26.97986385                9.85058156               78.81344938                0.00010000                1.28516947                1.67251345               -5.05474214               -1.08915951                1.23440469               -1.67248435
              27.99393228                9.33029105               78.38569529                0.00010000                1.45585256                1.70330713               -5.28702256               -0.53322413                0.64552470               -1.93494615
              29.00898090                8.81418920               77.95172596                0.00010000                1.50486201                1.50604481               -5.08766533               -0.16793443                0.36215512               -2.30058958
              19.50302329               15.04279019               82.07352614                0.00010000                0.01866198                0.09001618               -0.27639740                0.00342045                0.01399048                0.48020395
              20.50320991               14.52314445               81.61468292                0.00010000               -0.03233307               -0.05848911                0.16266033               -0.02059230                0.25273480               -0.31832659
              21.50237663               14.00296818               81.16064083                0.00010000               -0.82904123               -0.19354497                0.54244863                0.15900772                2.62033501               -0.77544688
              22.48662908               13.48660623               80.74937826                0.00010000               -1.34875241                0.70598063               -0.68984328               -0.15158457                4.44690608               -0.66098446
              23.47540158               12.96643503               80.33928913                0.00010000               -0.76151815                0.99267197               -1.84684852               -0.59205627                3.96931364               -0.63405904
              24.47139872               12.44197832               79.92738687                0.00010000               -0.08385911                1.22431760               -2.94244038               -0.85867953                3.31714663               -0.65366954
              25.47372440               11.91612085               79.51241956                0.00010000                0.50422916                1.44319118               -3.95731646               -0.91150702                2.63110728               -0.68640868
              26.48148330               11.39082712               79.09352097                0.00010000                0.99645298                1.63693961               -4.82539797               -0.79733790                1.96727823               -0.73716075
              27.49365346               10.86774501               78.67003149                0.00010000                1.36790167                1.76318897               -5.44561397               -0.54377412                1.33871980               -0.82288949
              28.50884134               10.34761494               78.24113646                0.00010000                1.57532505                1.77210416               -5.69778098               -0.24106836                0.69977971               -0.96688360
              29.52515996                9.82963743               77.80553329                0.00010000                1.63186199                1.60565983               -5.46883619               -0.03983777                0.38210218               -1.21233858
              20.02341687               16.04370617               81.93285031                0.00010000                0.02156452                0.09159810               -0.29360274               -0.07443815                0.22562295                0.39439020
              21.02363251               15.52256820               81.47157170                0.00010000               -0.02131881               -0.05762470                0.16334169               -0.09190062                0.59753755               -0.30666185
              22.02299049               15.00102294               81.01779066                0.00010000               -1.04620792               -0.19452386                0.54190032                0.71907817                3.30083468               -0.72441736
              23.00270836               14.49572203               80.61091404                0.00010000               -1.48579348                0.91158072               -0.77835766                0.40946412                4.95295092               -0.25673459
              23.99327462               13.97705368               80.20197686                0.00010000               -0.60289016                1.06186443               -1.97609881               -0.25123961                4.24262578               -0.26609096
              24.99065055               13.45495115               79.79089745                0.00010000                0.00154750                1.29728305               -3.11094129               -0.36524047                3.52594887               -0.28012692
              25.99330557               12.93124520               79.37640713                0.00010000                0.50037141                1.51243471               -4.16553173               -0.39933595                2.79237767               -0.30201107
              27.00065798               12.40780208               78.95778771                0.00010000                0.94474825                1.69749615               -5.07546716               -0.35252554                2.11221140               -0.32985484
              28.01220054               11.88584534               78.53454437                0.00010000                1.32802541                1.81003287               -5.73820408               -0.24873905                1.49521705               -0.37668313
              29.02721849               11.36573313               78.10596187                0.00010000                1.59693157                1.81181864               -6.02791910               -0.13943153                0.84557945               -0.45750661
              30.04413917               10.84630240               77.67009661                0.00010000                1.69206807                1.66649693               -5.80050050               -0.04515162                0.50711016               -0.63336799
              15.30009105                6.18127046               84.31835380                0.00010000                0.01299668                0.06305508               -0.22116369                0.05954297               -0.42146322                0.47713187
              16.30022101                5.66822904               83.89684897                0.00010000               -0.04227438               -0.02850101                0.09377915                0.06581182               -0.53813277                0.06307201
              17.29924556                5.15492754               83.47273203                0.00010000               -0.14474981               -0.10844043                0.39160275                0.06295200               -0.58438824               -0.02608811
              18.29732602                4.64097450               83.05025404                0.00010000               -0.25247553               -0.20830760                0.69669086                0.01506919               -0.53662036               -0.23201751
              19.29419605                4.12581542               82.62718565                0.00010000               -0.35289491               -0.31578707                1.00386201                0.00235338               -0.45614385               -0.24622276
              20.29026812                3.60959638               82.20663947                0.00010000               -0.45760525               -0.44849343                1.36388059               -0.14113791                0.12171424               -0.53901022
              21.28504394                3.09023106               81.79550051                0.00010000               -0.44937882               -0.49593970                1.61070632               -1.81318629                4.45175669               -1.32221597
              22.28128054                2.53901848               81.46059173                0.00010000                0.94998685               -0.20769396                0.10071420               -2.66296733                9.28218595               -1.93737774
              23.30404368                1.97115206               81.13341491                0.00010000                4.20678781               -1.95390171               -1.49050536               -2.64537380                9.80477074                0.20423342
              24.36541630                1.36789903               80.81782372                1.00000000                3.34738544                0.61059998               -2.18831375               -3.00057263                4.97917650               -0.07070522
              25.37099139                0.82810466               80.40304408                1.00000000                0.55750906                0.37913701               -1.48397360                0.05188069               -0.00593388               -0.07177314
              15.81372790                7.18190101               84.17907406                0.00010000                0.03226963                0.05485468               -0.23313505                0.01250388               -0.01067891                0.64982165
              16.81405059                6.66794403               83.75751621                0.00010000               -0.01127736               -0.03372195                0.08458248                0.02025572                0.04172198                0.08807510
              17.81350235                6.15384314               83.33665779                0.00010000               -0.10089120               -0.11472303                0.38587771                0.00576655                0.12438191               -0.18810849
              18.81203277                5.63889143               82.91647139                1.00000000               -0.17968516               -0.23189851                0.70105522               -0.01951164                0.25455506               -0.15266917
              19.80990865                5.12265755               82.49798522                1.00000000               -0.26919227               -0.34375043                1.04394959               -0.03837441                0.37413808               -0.16771842
              20.80664892                4.60511144               82.07967056                1.00000000               -0.38538096               -0.48077843                1.45778543               -0.12303771                0.61184098               -0.37094010
              21.80220103                4.08527166               81.66542651                0.00010000                0.37707224               -0.59671718                1.93249148               -1.51726909                3.83215547               -0.83461643
              22.81419037                3.53694154               81.31085272                0.00010000                3.04743209               -1.10218260               -0.62186810               -3.12199894                7.77341280               -0.68993122
              23.86314967                2.95161304               80.99793137                0.00010000                4.63719527               -2.08749576               -0.43293789               -3.63105509                9.69505106               -1.18610765
              24.90693427                2.37400503               80.67620299                1.00000000                2.40774511                0.55423073               -1.82031696               -1.72311595                4.67035994               -0.06967345
              25.91130457                1.83189603               80.26132726                1.00000000                0.43702973                0.32715886               -1.13374313               -0.06307818               -0.00192554               -0.09948713
              16.32825509                8.18236756               84.04293220                0.00010000                0.04289192                0.04382762               -0.24123775                0.00097189                0.11803417                0.75759605
              17.32868400                7.66755460               83.61846499                0.00010000                0.00792051               -0.03671458                0.08045355               -0.00375545                0.29511081                0.03210173
              18.32841350                7.15263308               83.19716896                0.00010000               -0.02813176               -0.11540099                0.39016709               -0.08924776                0.89559150               -0.61993000
              19.32812137                6.63633653               82.78429530                1.00000000               -0.06024749               -0.67654479                0.70231309               -0.45735987                1.33287268               -0.89506939
              20.32720855                6.11894041               82.37067123                1.00000000               -0.14640562               -1.04373357                1.05962717               -0.52118119                1.35507065               -1.13961703
              21.32519326                5.59998081               81.95683010                1.00000000               -0.21700434               -1.46277163                1.51461365               -0.34153064                1.69163815               -1.28179957
              22.32286846                5.07829671               81.54823593                0.00010000                1.36529619               -2.36891442                2.00922859               -1.44973716                4.09865384               -1.25060533
              23.35249918                4.51697483               81.18041891                0.00010000                3.57453160               -2.79761348                0.83773585               -4.26994861                5.89297823               -0.36823714
              24.39435909                3.92940214               80.83339898                0.00010000                4.90859065               -1.58956524               -0.25238132               -5.10038571                9.35601157               -4.56023734
              25.45067099                3.37898365               80.53475210                1.00000000                2.97943712                0.35234721               -1.47075519               -4.45093539                5.85164340               -6.68290536
              26.45394783                2.83464783               80.11979621                1.00000000                0.32768396                2.21174288               -0.80225071               -4.03109802                0.03736694               -6.10024903
              16.84337324                9.18277757               83.90563871                0.00010000                0.03367207                0.04516500               -0.23902351               -0.00755348                0.20197568                0.63100657
              17.84370996                8.66720974               83.47788414                0.00010000               -0.02188870               -0.03516134                0.08808626               -0.02381658                0.32714927               -0.24339962
              18.84293547                8.15153512               83.05236189                0.00010000               -0.35658608               -0.14225992                0.39096674               -0.56951655                0.89692478               -1.07105453
              19.83657824                7.62536053               82.63600245                0.00010000               -0.35473585               -0.88920637                0.33259952               -1.36031786                1.47975066               -1.80666968
              20.83584075                7.10178288               82.22263643                0.00010000                0.19418869               -1.48704286                0.28761169               -1.38919610                1.76511592               -2.30541441
              21.84046201                6.57585601               81.81274843                0.00010000                1.01857556               -2.16150367                0.21357688               -1.71337635                2.27675856               -2.62898678
              22.85621226                6.03789337               81.41208630                0.00010000                1.86119764               -3.07975439               -0.10861181               -2.54005768                2.69643007               -2.48663013
              23.87768596                5.48098927               81.02045295                0.00010000                2.14604401               -2.37952335               -0.58131111               -4.44470378                3.95204173               -3.64558600
              24.89913314                4.91982174               80.64651994                0.00010000                1.74919551               -0.21926736               -1.44093488               -5.03243922                4.07104881               -6.19351615
              25.91266987                4.38105198               80.26071775                0.00010000                1.01105472                0.87199557               -1.87832313               -4.62851777                2.55268143              -11.03952436
              26.91935423                3.87613088               79.85860250                0.00010000                0.66843592                2.74139572               -1.80838627               -2.80718733                1.95604161              -11.24040817
              17.35923967               10.18327086               83.76688930                0.00010000                0.02104569                0.05767488               -0.23280517               -0.00148250                0.01059356                0.51760938
              18.35945012                9.66685138               83.33318897                0.00010000               -0.01836452               -0.05013525                0.12641787               -0.04080596                0.22632921               -0.38848940
              19.35887238                9.14978788               82.90365766                0.00010000               -0.43914364               -0.20150733                0.41378031               -0.77932412                1.02433836               -1.35929941
              20.35066725                8.61855241               82.48597774                0.00010000               -0.49716142               -0.55959821                0.03462925               -1.57003485                1.65292640               -1.92536896
              21.34892915                8.08919956               82.07135786                0.00010000                0.20739952               -0.99356485               -0.34785429               -1.77134569                1.79321046               -2.46929819
              22.35481524                7.55675073               81.66005159                0.00010000                0.90024468               -1.40349702               -0.78746682               -2.40486029                1.84974871               -2.95497392
              23.36693404                7.01670162               81.25238026                0.00010000                1.34307497               -1.39001405               -1.30780467               -3.55435750                1.96998375               -3.60833500
              24.38167674                6.46938436               80.84935328                0.00010000                1.33567827               -0.50880924               -1.90625876               -4.35102205                2.03238003               -4.47027293
              25.39364761                5.92501680               80.44805669                0.00010000                1.00573756                0.80608499               -2.47029843               -3.99918235                1.85298809               -6.17482976
              26.40179149                5.39642356               80.04290382                0.00010000                0.69993311                1.54240193               -2.75256737               -2.36090746                1.15724414               -7.60227616
              27.40764627                4.88947575               79.62577758                0.00010000                0.58547774                1.24142417               -2.62003196               -1.15358003                0.72882597               -8.77371388
              17.87618255               11.18393106               83.62727018                0.00010000                0.01942678                0.07213735               -0.22869241               -0.00384678                0.00406921                0.49565828
              18.87637682               10.66620704               83.18948904                0.00010000               -0.02672964               -0.07059883                0.13946909               -0.05432837                0.06749181               -0.32234575
              19.87564795               10.14750497               82.75286800                0.00010000               -0.53054743               -0.22920504                0.48129583               -0.84697790                1.04328129               -1.33395018
              20.86576587                9.61416857               82.33462806                0.00010000               -0.67162241               -0.32277218               -0.18575426               -1.72255829                1.84338318               -1.91136062
              21.86221551                9.08191158               81.91788796                0.00010000               -0.04515643               -0.45445234               -0.82122081               -1.99687069                1.72296361               -2.42013704
              22.86486274                8.54778607               81.50269459                0.00010000                0.51379861               -0.47944342               -1.48221088               -2.60770678                1.54656812               -2.94278417
              23.87249148                8.01009309               81.08875617                0.00010000                0.87438070               -0.19173682               -2.16952672               -3.27471357                1.33087914               -3.52112962
              24.88235035                7.47081309               80.67546489                0.00010000                0.98094103                0.48577746               -2.83219841               -3.49965114                1.12164080               -4.25775465
              25.89211030                6.93594344               80.26153090                0.00010000                0.93212107                1.22177301               -3.35548165               -2.85995624                0.87726858               -5.13828334
              26.90099277                6.41190001               79.84449329                0.00010000                0.90339760                1.54382204               -3.60489930               -1.52526308                0.51551815               -6.03815955
              27.91017825                5.90095937               79.42150888                0.00010000                0.91854780                1.21108405               -3.48644857               -0.57080826                0.38278765               -6.68112745
              18.39461078               12.18471360               83.48796037                0.00010000                0.01788640                0.08279323               -0.23555873               -0.00167811               -0.00022554                0.52849957
              19.39478965               11.66543940               83.04605262                0.00010000               -0.03197489               -0.07686695                0.14626321               -0.05085812                0.02216007               -0.29914646
              20.39397129               11.14520378               82.60452310                0.00010000               -0.64900886               -0.22636956                0.51588276               -0.75024946                1.06909616               -1.16093252
              21.38180947               10.61209696               82.18354160                0.00010000               -0.92985273               -0.08041559               -0.34003619               -1.58035524                1.94107616               -1.74280313
              22.37537423               10.08011051               81.76441780                0.00010000               -0.36649366                0.05476205               -1.15958341               -1.87425782                1.73362020               -2.17671181
              23.37447960                9.54716187               81.34576027                0.00010000                0.15192582                0.24133804               -1.98483855               -2.32867543                1.38637556               -2.59205189
              24.37841275                9.01286689               80.92671733                0.00010000                0.56768858                0.57277768               -2.80334378               -2.68624191                1.00937819               -3.04222870
              25.38583337                8.47909991               80.50674824                0.00010000                0.84744041                1.03474226               -3.54841826               -2.63981745                0.68397093               -3.55149774
              26.39536156                7.94945226               80.08532789                0.00010000                1.02184638                1.44646060               -4.11428653               -2.04802555                0.43789332               -4.11909874
              27.40627030                7.42730000               79.66164480                0.00010000                1.13749188                1.58061397               -4.38031749               -1.05573454                0.23003191               -4.69103305
              28.41811139                6.91369743               79.23459179                0.00010000                1.18410968                1.34467629               -4.24608456               -0.38573727                0.20750411               -5.19235872
              18.91469739               13.18558693               83.34888231                0.00010000                0.01720846                0.08889127               -0.24807064                0.00084121                0.00077744                0.54792977
              19.91486948               12.66466970               82.90282802                0.00010000               -0.03559933               -0.07325198                0.15123376               -0.03840114                0.02442058               -0.28450563
              20.91398540               12.14297758               82.45720878                0.00010000               -0.78087211               -0.21717010                0.53824892               -0.52172054                1.16821960               -1.09604410
              21.89925203               11.61256026               82.03402650                0.00010000               -1.21599787                0.17100033               -0.44892932               -1.17017994                2.10888791               -1.47422871
              22.88966545               11.08300682               81.61302974                0.00010000               -0.68595911                0.48867204               -1.40131038               -1.47653313                1.84190346               -1.77926661
              23.88553285               10.55261283               81.19185142                0.00010000               -0.14184274                0.76442925               -2.35203011               -1.85349749                1.38376290               -2.06317135
              24.88682859               10.02154864               80.76935763                0.00010000                0.37178919                1.05846271               -3.28025662               -2.05576537                0.90034136               -2.36609552
              25.89296863                9.49150793               80.34512672                0.00010000                0.80605558                1.37321013               -4.11275784               -1.92823714                0.50686167               -2.70402469
              26.90294970                8.96487265               79.91912681                0.00010000                1.13321373                1.61622189               -4.73781990               -1.44185186                0.25438301               -3.07760833
              27.91563291                8.44351229               79.49135211                0.00010000                1.33594699                1.67039749               -5.02906047               -0.73155789                0.11504896               -3.46953771
              28.92966864                7.92785289               79.06143709                0.00010000                1.40357340                1.47342601               -4.87303849               -0.25251574                0.13713040               -3.85988684
              19.43646207               14.18649143               83.20987567                0.00010000                0.01689042                0.09005678               -0.26272687                0.00356516                0.01099656                0.54673263
              20.43663097               13.66397436               82.75971278                0.00010000               -0.04078763               -0.06568596                0.15858371               -0.02598127                0.04507384               -0.29031325
              21.43564632               13.14086038               82.31022153                0.00010000               -0.91271734               -0.20427600                0.56057189               -0.16877378                1.38798846               -0.93253028
              22.41837663               12.61551697               81.88693623                0.00010000               -1.49276612                0.43755592               -0.52629803               -0.54038562                2.43011878               -1.13109228
              23.40579100               12.08988395               81.46506615                0.00010000               -0.97543993                0.86822395               -1.57382203               -0.96463309                2.04886430               -1.27220606
              24.39886783               11.56245045               81.04251828                0.00010000               -0.36943301                1.12890475               -2.61947940               -1.31679988                1.48921970               -1.42574367
              25.39840234               11.03403614               80.61801880                0.00010000                0.25383961                1.36741754               -3.63776802               -1.44714343                0.92011376               -1.60173638
              26.40394462               10.50656412               80.19127744                0.00010000                0.80589124                1.58951649               -4.54934107               -1.30814847                0.47016687               -1.80268547
              27.41452016                9.98177669               79.76256320                0.00010000                1.23571362                1.74452372               -5.23291805               -0.93774828                0.19759648               -2.03331101
              28.42865889                9.46070795               79.33224867                0.00010000                1.49298588                1.76323258               -5.54718213               -0.45230727                0.07541489               -2.29443809
              29.44437988                8.94316595               78.90029544                0.00010000                1.57209841                1.58423711               -5.36254568               -0.13214071                0.10853032               -2.58330476
              19.95980283               15.18738806               83.07072703                0.00010000                0.01780704                0.09092832               -0.27999294                0.00418806                0.01806129                0.45650167
              20.95998090               14.66335598               82.61639305                0.00010000               -0.03677540               -0.06163257                0.17278830               -0.01623784                0.22556997               -0.28905547
              21.95906732               14.13889206               82.16622079                0.00010000               -1.02800752               -0.19627518                0.56038140                0.31580422                1.77457591               -0.72593017
              22.93942075               13.62131137               81.74297459                0.00010000               -1.78140091                0.83154061               -0.58426697                0.03732349                2.80196269               -0.65447281
              23.92343930               13.10037130               81.32149972                0.00010000               -1.21880440                1.12331247               -1.69975830               -0.44943998                2.31131745               -0.66564859
              24.91504466               12.57519092               80.89861658                0.00010000               -0.48336230                1.34684923               -2.81244719               -0.73771392                1.64155635               -0.72743697
              25.91377206               12.04889699               80.47328041                0.00010000                0.20102260                1.55313895               -3.89915188               -0.79415817                0.99887750               -0.80332737
              26.91906511               11.52329826               80.04534917                0.00010000                0.81394242                1.73380777               -4.87674562               -0.69331253                0.50185456               -0.89262922
              27.93005091               10.99976312               79.61528169                0.00010000                1.30661975                1.84895252               -5.61526514               -0.47042744                0.20503201               -1.00220422
              28.94519751               10.47877695               79.18360905                0.00010000                1.60294600                1.85266151               -5.95571095               -0.20731317                0.07177219               -1.13935819
              29.96210983                9.95953764               78.75032292                0.00010000                1.69123175                1.69678665               -5.74042663               -0.02592888                0.09895420               -1.31705822
              20.48461000               16.18831000               82.92990204                0.00010000                0.01922194                0.09219312               -0.29312627               -0.07611118                0.21869835                0.37231846
              21.48480222               15.66274171               82.47331764                0.00010000               -0.03014981               -0.06142685                0.17847955               -0.08662373                0.54904480               -0.27839562
              22.48400701               15.13693488               82.02337777                0.00010000               -1.35791843               -0.19571840                0.56109830                0.96427208                2.38251138               -0.66553738
              23.45764385               14.63214778               81.60371231                0.00010000               -2.05421806                1.08364068               -0.65192403                0.59307667                3.22213926               -0.24211050
              24.44292265               14.11235020               81.18300520                0.00010000               -1.10279971                1.19788969               -1.80154051               -0.18968307                2.52095498               -0.26948032
              25.43558786               13.58938743               80.76055847                0.00010000               -0.42554069                1.41965105               -2.95183129               -0.30824409                1.78110772               -0.30159482
              26.43441183               13.06509892               80.33528876                0.00010000                0.18121911                1.62019273               -4.08182345               -0.34338072                1.08006843               -0.33905278
              27.43921224               12.54124027               79.90718951                0.00010000                0.76105494                1.79420072               -5.10898121               -0.30244599                0.55482497               -0.37810594
              28.44963293               12.01875574               79.47690458                0.00010000                1.27629375                1.89926215               -5.90040264               -0.21575218                0.26249195               -0.42735616
              29.46473812               11.49776118               79.04512645                0.00010000                1.63534935                1.89842333               -6.28970510               -0.12864224                0.13558097               -0.49484523
              30.48233992               10.97710168               78.61155432                0.00010000                1.76018006                1.75640462               -6.07845740               -0.04294041                0.16179848               -0.61109255
              15.71570978                6.32538498               85.31582222                0.00010000                0.02477294                0.07581382               -0.27319787                0.06565040               -0.43999048                0.47851958
              16.71595751                5.80824812               84.89758569                0.00010000               -0.03536236               -0.01851745                0.05798111                0.07237923               -0.57112986                0.06543861
              17.71500254                5.29077734               84.47654443                0.00010000               -0.14523796               -0.09840533                0.36794894                0.06787451               -0.62257882               -0.02482487
              18.71305275                4.77242949               84.05723377                0.00010000               -0.25971944               -0.20634971                0.69007663                0.00685277               -0.56446695               -0.22845049
              19.70980815                4.25245106               83.63735940                0.00010000               -0.36511031               -0.32781336                1.01559089               -0.00374604               -0.43611791               -0.21622749
              20.70575055                3.73085953               83.22065865                0.00010000               -0.44639451               -0.48304359                1.41797278               -0.10475170                0.14669537               -0.47173102
              21.70088026                3.20626439               82.81240297                0.00010000               -0.12818852               -0.63849163                1.71402949               -0.83265863                3.42122817               -1.08129422
              22.70318678                2.66781132               82.46071365                0.00010000                1.08899102               -0.64568653                0.16481933               -2.78036961                7.31978406               -2.75358916
              23.72266008                2.10379981               82.11665340                0.00010000                3.68884777               -1.52477973               -1.22474306               -2.72432799                7.80690971                0.51995926
              24.77696373                1.50694030               81.79621185                1.00000000                2.97699662                0.61118282               -2.12205582               -2.68280688                4.37076575               -0.06794985
              25.78220001                0.96726605               81.38889935                1.00000000                0.52362777                0.34708145               -1.34621197                0.09389615               -0.00662705               -0.06737232
              16.23350315                7.32614311               85.17644260                0.00010000                0.04819787                0.06417631               -0.28247722                0.01651211               -0.02771422                0.64691114
              17.23398512                6.80806294               84.75818091                0.00010000                0.00437246               -0.02587110                0.05130485                0.02485795                0.01067359                0.09111245
              18.23359059                6.28979328               84.34041987                0.00010000               -0.08503514               -0.10647379                0.36092996                0.00329667                0.09264106               -0.17845951
              19.23228442                5.77036599               83.92348181                1.00000000               -0.15174633               -0.23810338                0.68608263               -0.02796058                0.25507776               -0.14540438
              20.23055567                5.24917292               83.50855534                1.00000000               -0.22440293               -0.36268416                1.03923072               -0.05108027                0.46280371               -0.14438866
              21.22779636                4.72602909               83.09471107                1.00000000               -0.32389462               -0.52332509                1.49844671               -0.13295063                0.85223892               -0.31971641
              22.22407778                4.19987947               82.68590965                0.00010000               -0.05904952               -0.73347245                2.10026042               -0.68482649                2.88141148               -0.71089425
              23.22661537                3.66135445               82.30955442                0.00010000                2.58872650               -0.93260761                0.79298869               -2.44858284                7.30860201               -1.45006573
              24.27585231                3.08855201               81.99624136                0.00010000                4.58935857               -2.35862700               -0.29060454               -3.06070267               10.15349853               -1.57806415
              25.31840254                2.51305213               81.65785699                1.00000000                2.34804615                0.57326366               -1.86899504               -1.61469003                3.45728788               -0.07270526
              26.32281323                1.97073686               81.25039234                1.00000000                0.44106844                0.30665324               -1.06531563               -0.03659387                0.00392917               -0.09123063
              16.75220037                8.32666850               85.04024741                0.00010000                0.06041343                0.04781121               -0.28651296                0.00102552                0.09920284                0.75801808
              17.75280450                7.80773070               84.61911607                0.00010000                0.02825258               -0.03072436                0.05125435               -0.00728111                0.26541578                0.04331119
              18.75276542                7.28864786               84.20100532                0.00010000                0.01547006               -0.10591051                0.36972567               -0.12817895                0.85995283               -0.60074422
              19.75311390                6.76766742               83.79129068                1.00000000                0.01790119               -0.69330965                0.67542831               -0.56290362                1.33665247               -1.06310695
              20.75312344                6.24519737               83.38132922                1.00000000               -0.03644601               -1.03950546                1.02756289               -0.72092639                1.47712182               -1.50787839
              21.75238498                5.72039303               82.97230152                1.00000000               -0.06325383               -1.41392915                1.49548989               -0.72097636                1.98667284               -1.92374060
              22.75185837                5.19159494               82.56916316                0.00010000                0.65788011               -1.99181936                2.05731396               -0.85168524                4.04921277               -2.36526217
              23.76554258                4.64915917               82.19575300                0.00010000                2.89449902               -2.69167313                1.52043244               -3.10893124                5.45511633               -2.59956565
              24.80974835                4.05662727               81.83623246                0.00010000                4.84712481               -2.00021734                1.35340368               -4.43135726                9.72629712               -4.75199740
              25.86248508                3.51840558               81.51948192                1.00000000                2.81751637                0.15389511               -1.61943008               -3.55286471                4.56044723               -6.98746676
              26.86609867                2.97339911               81.11190514                1.00000000                0.36135929                1.92514690               -0.78655925               -3.67959148                0.04180223               -6.75416145
              17.27139927                9.32709934               84.90301827                0.00010000                0.04608734                0.04721682               -0.27715724               -0.01299396                0.18014728                0.63717148
              18.27186014                8.80744846               84.47865358                0.00010000               -0.01544907               -0.02660224                0.06606147               -0.03565809                0.28995035               -0.21083187
              19.27109029                8.28767507               84.05627646                0.00010000               -0.36916528               -0.12982597                0.38512610               -0.63978688                0.66488169               -1.03809353
              20.26447684                7.75649980               83.63938099                0.00010000               -0.38393757               -0.87985270                0.33040727               -1.54704261                1.06347408               -2.11319755
              21.26341154                7.22838281               83.22561152                0.00010000                0.12512150               -1.41306955                0.28129610               -1.70092150                1.34100427               -2.98200734
              22.26697927                6.69775051               82.81506667                0.00010000                0.74331970               -1.91352243                0.19124122               -1.99600520                1.76258670               -3.77829807
              23.27827793                6.16004309               82.41162037                0.00010000                1.62125778               -2.49084492               -0.11373963               -2.60565871                2.18739086               -4.39230904
              24.29940442                5.60752099               82.01636890                0.00010000                1.98504101               -2.63580496               -0.50780794               -3.75680589                2.94131943               -5.93033982
              25.31797875                5.04854766               81.63212948                0.00010000                1.55844918               -0.06781507               -1.64570243               -4.39720771                2.63608551               -7.56668398
              26.33057341                4.51613003               81.24201490                0.00010000                1.06277895                0.46935881               -1.90464796               -3.95764752                2.12992351              -11.61424602
              27.33923433                4.00923980               80.84030077                0.00010000                0.86609236                2.29635327               -1.89851795               -2.46009664                1.60841044              -12.57560641
              17.79124225               10.32761284               84.76438290                0.00010000                0.02733515                0.06147649               -0.26170638               -0.00434356                0.01201078                0.52424853
              18.79151560                9.80719865               84.33439118                0.00010000               -0.01619581               -0.04295305                0.11271362               -0.05195927                0.18847457               -0.35472054
              19.79091834                9.28605134               83.90782811                0.00010000               -0.50251470               -0.19187793                0.41300710               -0.82785620                0.62045384               -1.29581335
              20.78146531                8.75007037               83.48647291                0.00010000               -0.65320165               -0.50455328                0.06035936               -1.69403367                0.89184904               -2.14882151
              21.77785430                8.21693598               83.06808165                0.00010000               -0.03303528               -0.85379861               -0.31710646               -1.90550092                0.96636107               -2.98090820
              22.78080460                7.68212258               82.65232821                0.00010000                0.60602034               -1.11085029               -0.78570121               -2.47890641                0.94099631               -3.80169593
              23.78997471                7.14177804               82.23941486                0.00010000                1.05486434               -1.12268420               -1.34950539               -3.35082056                0.93871786               -4.74875895
              24.80190189                6.59644307               81.83008479                0.00010000                1.16102198               -0.41295403               -2.03733528               -4.06055829                0.89966883               -5.78681188
              25.81319515                6.05527097               81.42262395                0.00010000                1.03690517                0.84492228               -2.65856086               -3.62863555                0.94556816               -7.26878740
              26.82263999                5.52779275               81.01447892                0.00010000                0.87410303                1.26764321               -3.00905696               -2.11677181                0.66913775               -8.68318573
              27.83067721                5.01932618               80.59886893                0.00010000                0.80372156                0.99083233               -2.86297649               -1.03931484                0.60598145               -9.86625625
              18.31214077               11.32832887               84.62485661                0.00010000                0.02416801                0.07753962               -0.24828100               -0.00691905                0.00312580                0.49452015
              19.31238245               10.80658939               84.19084784                0.00010000               -0.02396641               -0.06867022                0.12981550               -0.06072585                0.05055788               -0.30528050
              20.31166145               10.28383751               83.75771078                0.00010000               -0.63354653               -0.22540737                0.47769125               -0.85480771                0.51874864               -1.26500387
              21.29971152                9.74640873               83.33301130                0.00010000               -0.92060681               -0.24560154               -0.13490163               -1.73991500                0.80230571               -2.05631964
              22.29324931                9.21130684               82.90998414                0.00010000               -0.35762228               -0.29804560               -0.75648658               -1.97240804                0.62592926               -2.77708284
              23.29255908                8.67553350               82.48806913                0.00010000                0.18458603               -0.26528664               -1.45343638               -2.49458649                0.35894991               -3.51305908
              24.29694103                8.13758940               82.06694250                0.00010000                0.60706286                0.02060158               -2.22798130               -3.04768179                0.08982576               -4.28441940
              25.30470033                7.59926191               81.64655383                0.00010000                0.85576625                0.61013309               -3.00699399               -3.17027971               -0.04317352               -5.14512788
              26.31405635                7.06544611               81.22695818                0.00010000                0.97412126                1.19618372               -3.65509702               -2.56197800               -0.04470504               -6.07753142
              27.32418276                6.54148290               80.80709729                0.00010000                1.06624154                1.43993491               -3.99534398               -1.36627946                0.01446040               -7.03631117
              28.33538119                6.02905645               80.38525657                0.00010000                1.11984257                1.11020138               -3.89990198               -0.50480916                0.15868224               -7.70804172
              18.83458282               12.32916363               84.48552096                0.00010000                0.02096221                0.08720760               -0.24745355               -0.00398520               -0.00119828                0.51699918
              19.83479244               11.80582525               84.04749618                0.00010000               -0.02899879               -0.07666709                0.13909113               -0.05376133                0.01337558               -0.28461363
              20.83400284               11.28154319               83.60971318                0.00010000               -0.77973782               -0.22544648                0.51009079               -0.71300183                0.45653123               -1.11088407
              21.81919768               10.74515834               83.18045825                0.00010000               -1.23607344               -0.00230040               -0.26866004               -1.50141936                0.70404968               -1.82649501
              22.80928137               10.21097507               82.75324193                0.00010000               -0.72836855                0.19316596               -1.06436345               -1.74407596                0.43527164               -2.40907986
              23.80463031                9.67681685               82.32617635                0.00010000               -0.19943531                0.41647775               -1.93288472               -2.14457302                0.00713095               -2.98022341
              24.80529267                9.14219008               81.89854518                0.00010000                0.30046397                0.74206600               -2.85717585               -2.44377084               -0.38796677               -3.58066003
              25.81063959                8.60864573               81.47056155                0.00010000                0.72209677                1.15217000               -3.75156885               -2.37726174               -0.60316613               -4.21786283
              26.81973460                8.07919464               81.04288024                0.00010000                1.05322386                1.50305716               -4.47676072               -1.82919769               -0.56667857               -4.88823676
              27.83170407                7.55659145               80.61610648                0.00010000                1.28496646                1.60356377               -4.86940760               -0.93715128               -0.32811345               -5.51842196
              28.84543393                7.04153020               80.19031632                0.00010000                1.37298628                1.37793509               -4.77976683               -0.33080308               -0.03364375               -5.99482227
              19.35873784               13.33007302               84.34635265                0.00010000                0.01898246                0.09160704               -0.25382170               -0.00070283               -0.00031274                0.53025215
              20.35892766               12.80505605               83.90433388                0.00010000               -0.03347609               -0.07292764                0.14588637               -0.03794549                0.01607566               -0.26689003
              21.35806832               12.27932859               83.46261363                0.00010000               -0.93382015               -0.21559841                0.53150312               -0.44438672                0.48728822               -1.04629712
              22.34025126               11.74636273               83.02992876                0.00010000               -1.56795167                0.24370780               -0.35905848               -1.01957231                0.72855123               -1.51219332
              23.32670928               11.21517016               82.59954584                0.00010000               -1.08993240                0.61555336               -1.27798535               -1.29489805                0.39161952               -1.91968379
              24.31845261               10.68386306               82.16869577                0.00010000               -0.52362772                0.91839601               -2.27390679               -1.65140212               -0.14888097               -2.31846288
              25.31623673               10.15243072               81.73646911                0.00010000                0.08489615                1.21168982               -3.32136421               -1.84113953               -0.64483882               -2.73963567
              26.32015053                9.62230531               81.30326507                0.00010000                0.66449754                1.50706987               -4.32486353               -1.72376193               -0.91145056               -3.18778582
              27.32952668                9.09550725               80.87032858                0.00010000                1.14768179                1.72829076               -5.13518597               -1.28205975               -0.85760358               -3.64498805
              28.34310417                8.57355417               80.43911491                0.00010000                1.46804690                1.77769502               -5.57629230               -0.64439157               -0.50674207               -4.06974307
              29.35888762                8.05661515               80.01061684                0.00010000                1.57834469                1.60535338               -5.47984227               -0.21270069               -0.13840275               -4.40783096
              19.88460270               14.33099577               84.20722697                0.00010000                0.01752694                0.09104141               -0.26363873                0.00282398                0.00978575                0.52455771
              20.88477796               13.80436669               83.76130252                0.00010000               -0.03971306               -0.06487867                0.15465554               -0.02323295                0.03355832               -0.26462894
              21.88380843               13.27723123               83.31584088                0.00010000               -1.09066511               -0.20176219                0.55300384               -0.05579523                0.64880338               -0.88599332
              22.86296466               12.75003249               82.88214380                0.00010000               -1.89626768                0.51889801               -0.41731347               -0.34034719                0.93917792               -1.13497613
              23.84588308               12.22328614               82.44997748                0.00010000               -1.43114776                1.00064249               -1.42054612               -0.77855387                0.48084838               -1.34396038
              24.83434171               11.69518477               82.01681460                0.00010000               -0.79277277                1.27631661               -2.51028301               -1.14328582               -0.17100132               -1.57599283
              25.83002762               11.16642387               81.58165224                0.00010000               -0.06269410                1.51768127               -3.65575851               -1.28325063               -0.75798908               -1.83531169
              26.83308783               10.63878713               81.14509438                0.00010000                0.64084602                1.73785761               -4.75301470               -1.16474198               -1.07719817               -2.11382678
              27.84284455               10.11376046               80.70879102                0.00010000                1.23102588                1.89261484               -5.63935847               -0.83371167               -1.02161083               -2.39941953
              28.85770834                9.59214535               80.27475165                0.00010000                1.61067124                1.91979150               -6.11873464               -0.39959029               -0.60958627               -2.66574543
              29.87505797                9.07363727               79.84447505                0.00010000                1.73496275                1.77111216               -6.00093737               -0.10962466               -0.19902202               -2.87719518
              20.41205247               15.33189385               84.06792628                0.00010000                0.01750749                0.09033752               -0.27698753                0.00430985                0.02228572                0.43316908
              21.41222755               14.80375848               83.61813868                0.00010000               -0.03829318               -0.06077918                0.17063267               -0.01203949                0.19717203               -0.26016606
              22.41128661               14.27529334               83.17184846                0.00010000               -1.24190722               -0.19164950                0.55454780                0.47099117                0.97936698               -0.68248000
              23.38738940               13.75674069               82.73769292                0.00010000               -2.26503381                0.96859368               -0.45325000                0.22243588                1.23319411               -0.64365271
              24.36598593               13.23518301               82.30529396                0.00010000               -1.74701219                1.26834900               -1.51133655               -0.31934042                0.65414720               -0.69105585
              25.35244916               12.70938939               81.87113793                0.00010000               -0.95082902                1.49253542               -2.66496412               -0.63756107               -0.12000803               -0.79432659
              26.34696935               12.18278435               81.43443653                0.00010000               -0.14650248                1.70117866               -3.88370447               -0.70393239               -0.79421292               -0.91397653
              27.34951911               11.65706246               80.99598606                0.00010000                0.62624337                1.88860801               -5.05801791               -0.61869821               -1.16669710               -1.04367421
              28.35949422               11.13335955               80.55772619                0.00010000                1.28582186                2.01459918               -6.01344857               -0.42217850               -1.12373281               -1.17949827
              29.37523555               10.61195000               80.12202224                0.00010000                1.71085309                2.03280336               -6.53065128               -0.18750653               -0.68019770               -1.31082462
              30.39371128               10.09203739               79.69072476                0.00010000                1.84757347                1.89902460               -6.38175645               -0.01818962               -0.24452012               -1.41034819
              20.94095963               16.33280252               83.92698778                0.00010000                0.01780520                0.09086739               -0.28697995               -0.07442574                0.21164238                0.34907515
              21.94113768               15.80315111               83.47514129                0.00010000               -0.03567896               -0.06073699                0.17922986               -0.07920108                0.49676781               -0.24924432
              22.94024605               15.27339824               83.02901263                0.00010000               -1.68069850               -0.18951053                0.55471826                1.20860683                1.52763018               -0.61522625
              23.90752371               14.76940437               82.59787556                0.00010000               -2.66992408                1.26636810               -0.49085183                0.77617469                1.59224871               -0.23058949
              24.88684757               14.24865312               82.16594605                0.00010000               -1.67672821                1.34701071               -1.57159196               -0.13228136                0.81076967               -0.27597312
              25.87398915               13.72503547               81.73186083                0.00010000               -0.92858314                1.56460827               -2.75962846               -0.25628504               -0.05066675               -0.32484520
              26.86827591               13.20044745               81.29477066                0.00010000               -0.19252427                1.76630958               -4.02671177               -0.29315422               -0.80481221               -0.37600701
              27.87013866               12.67655929               80.85560808                0.00010000                0.56187650                1.94968242               -5.26215351               -0.25779528               -1.22572784               -0.42405038
              28.87951344               12.15405244               80.41653632                0.00010000                1.25708545                2.06928904               -6.28620689               -0.18597207               -1.19065818               -0.47307001
              29.89528037               11.63280142               79.98016777                0.00010000                1.75029839                2.08514153               -6.86927662               -0.11725160               -0.72165170               -0.52329878
              30.91451940               11.11161776               79.54852746                0.00010000                1.92390327                1.95803732               -6.72866456               -0.03755350               -0.26483088               -0.56271665
              16.12776430                6.46960009               86.31288984                0.00010000                0.03119032                0.08139553               -0.29841776                0.06799863               -0.46272949                0.47944964
              17.12807620                5.94834738               85.89800860                0.00010000               -0.03092009               -0.01114736                0.03256106                0.07506294               -0.61132279                0.06700477
              18.12714590                5.42668017               85.48009101                0.00010000               -0.14272478               -0.08671058                0.33961581                0.06893787               -0.66633455               -0.02742562
              19.12522171                4.90390941               85.06405557                0.00010000               -0.25485441               -0.19829734                0.66391795               -0.00134416               -0.59276584               -0.23120945
              20.12204881                4.37909899               84.64749747                0.00010000               -0.35316271               -0.32990312                0.98695487               -0.00396017               -0.39719804               -0.18959363
              21.11815845                3.85205691               84.23499893                0.00010000               -0.43176508               -0.49826600                1.40743467               -0.05726504                0.21439608               -0.37247827
              22.11341351                3.32159182               83.82978110                0.00010000                0.26336719               -0.72982304                1.77894027               -0.13234704                2.61601383               -0.63349145
              23.12342580                2.78626516               83.46388812                0.00010000                0.56350834               -1.33642827                0.54601229               -2.30033440                5.18534735               -2.32598668
              24.12468368                2.22237533               83.10892005                0.00010000                2.85799329               -2.19026301               -0.16647454                2.17256872                8.26377440               -0.54843132
              25.18058566                1.64324975               82.77538261                1.00000000                3.04000838                0.60311095               -2.00399696               -1.79586517                3.30567417               -0.10685511
              26.18548384                1.10377124               82.37611984                1.00000000                0.48981797                0.32943835               -1.25128928                0.13501122               -0.00979260               -0.04147601
              16.64969700                7.47041405               86.17342452                0.00010000                0.05897944                0.06760798               -0.30754230                0.01906216               -0.05064985                0.64329469
              17.65028680                6.94823590               85.75854231                0.00010000                0.01786308               -0.01996133                0.02549188                0.02786120               -0.03289814                0.09349204
              18.65005426                6.42581306               85.34387639                0.00010000               -0.06439711               -0.09592819                0.32617471               -0.00087137                0.04151873               -0.17051968
              19.64899885                5.90192643               84.93019305                1.00000000               -0.10594016               -0.23670920                0.64133536               -0.03521436                0.22981736               -0.14610410
              20.64793546                5.37579996               84.51876984                1.00000000               -0.13297308               -0.36861615                0.96978710               -0.05804279                0.52706265               -0.12477399
              21.64633939                4.84707425               84.10963950                1.00000000               -0.14747734               -0.54532532                1.41614726               -0.12860293                1.12124645               -0.24907663
              22.64498591                4.31429359               83.70743172                1.00000000                0.18456541               -0.81555346                2.00698909               -0.35928241                2.83161376               -0.44906789
              23.65003070                3.77290088               83.32671249                0.00010000                3.64655778               -1.40480617                1.79545461               -2.13572420                6.69057319               -1.34696291
              24.71791707                3.20047269               82.99211928                0.00010000                3.59491774               -1.19506261               -0.63855516                0.84262134                7.32241896               -0.30332367
              25.72192905                2.64928086               82.63882309                1.00000000                0.41976981                0.59133256               -1.90794283               -0.38927375                2.31656454               -0.13529814
              26.72631246                2.10706562               82.24002095                1.00000000                0.43834094                0.29424658               -1.01967050                0.00115570                0.02862666               -0.03758024
              17.17250183                8.47095225               86.03720194                0.00010000                0.07325835                0.04857275               -0.31071993                0.00001764                0.07335028                0.76080343
              18.17323441                7.94794815               85.61949008                0.00010000                0.04680559               -0.02589549                0.02643194               -0.01133350                0.22148721                0.05661657
              19.17343794                7.42476160               85.20456347                0.00010000                0.06480531               -0.09313044                0.33552060               -0.16607462                0.79055637               -0.57427822
              20.17453052                6.89917522               84.79780387                0.00010000                0.11511004               -0.70060418                0.60819619               -0.67605590                1.27612920               -1.21009601
              21.17574014                6.37172667               84.39122249                1.00000000                0.12811257               -1.02048285                0.91073559               -0.94925667                1.50090577               -1.83209591
              22.17709277                5.84115040               83.98673990                1.00000000                0.23305444               -1.34054448                1.30806095               -1.15402116                2.16677905               -2.49462058
              23.18040123                5.30528075               83.58938221                1.00000000                0.87197174               -1.72490489                1.76478469               -1.46547160                3.84387094               -3.32801524
              24.19453221                4.75816903               83.21082756                0.00010000                4.23774447               -2.24250912                1.33657890               -2.04170656                6.39422849               -4.60129185
              25.26515612                4.19847407               82.86046706                0.00010000                3.58375275               -0.91880628                0.87297141               -4.74004263                6.79428038               -5.35333604
              26.26620726                3.65507640               82.50236350                1.00000000                0.23906531                0.22445971               -1.75986416               -3.18249499                2.04943567               -7.29305411
              27.26993743                3.10965617               82.10406503                1.00000000                0.37301660                1.52946731               -0.77623020               -3.11011065                0.03611877               -7.39861610
              17.69570555                9.47138550               85.90009556                0.00010000                0.05452187                0.04826170               -0.29740535               -0.01867540                0.15316417                0.65015439
              18.69625077                8.94771799               85.47920537                0.00010000               -0.00999282               -0.01927216                0.04526112               -0.04475275                0.24617341               -0.17416534
              19.69550570                8.42395045               85.06006441                0.00010000               -0.38690528               -0.11621520                0.36495748               -0.70209321                0.42222454               -0.99983024
              20.68851267                7.88791435               84.64261059                0.00010000               -0.42652745               -0.86147784                0.31413448               -1.74199842                0.60852021               -2.36094580
              21.68697515                7.35539030               84.22826235                0.00010000                0.05961117               -1.32589492                0.24187465               -2.04950339                0.81893284               -3.55629709
              22.68970489                6.82026336               83.81657326                0.00010000                0.58413481               -1.67180232                0.07904671               -2.51928183                1.07910845               -4.77606900
              23.69865784                6.27979549               83.40981151                0.00010000                1.31491765               -1.94382172               -0.30677601               -3.23310365                1.42938843               -6.13871755
              24.71600324                5.72805069               83.01029680                0.00010000                1.37755029               -1.73529184               -0.87141367               -3.78850491                1.41302765               -7.77017348
              25.72620885                5.18209657               82.61360589                0.00010000                1.55469067               -0.68308642               -1.69502532               -5.56359622                1.51097136               -9.91253020
              26.74709706                4.65377005               82.22262479                0.00010000                1.43709285                0.13005280               -2.07994681               -3.58597966                1.49081550              -12.59719562
              27.75495071                4.13765497               81.82063214                0.00010000                0.78536507                1.87693238               -2.12662146               -2.55908576                1.03915838              -14.09981993
              18.21946334               10.47191748               85.76165517                0.00010000                0.03110702                0.06489559               -0.27575991               -0.00762546                0.01191530                0.54043162
              19.21977441                9.94756271               85.33544324                0.00010000               -0.01318080               -0.03607847                0.09642598               -0.05985762                0.14849306               -0.31981328
              20.21919972                9.42243730               84.91191780                0.00010000               -0.57618548               -0.18153116                0.39596994               -0.86316312                0.22705810               -1.24043459
              21.20825070                8.88194567               84.48718493                0.00010000               -0.83993267               -0.44287569                0.09299417               -1.81012846                0.12859077               -2.31435825
              22.20240107                8.34520877               84.06501574                0.00010000               -0.29743736               -0.70903318               -0.28197149               -2.07651030                0.07360350               -3.39329139
              23.20230195                7.80771435               83.64433756                0.00010000                0.27753766               -0.82933032               -0.80734794               -2.67129897               -0.10279204               -4.52509207
              24.20795182                7.26640431               83.22539015                0.00010000                0.70795383               -0.72605511               -1.48322724               -3.35528520               -0.29790068               -5.74119152
              25.21646103                6.72346320               82.80860658                0.00010000                1.01065083               -0.03084619               -2.28201737               -3.80620059               -0.33425742               -7.02918444
              26.22816484                6.18481234               82.39488547                0.00010000                1.12341204                0.60199765               -3.00545460               -3.06609265               -0.11892541               -8.34416796
              27.23892927                5.65767746               81.98272269                0.00010000                1.14105197                0.78880907               -3.44691953               -2.08654955                0.09525025              -10.03315050
              28.25098588                5.14719482               81.56851805                0.00010000                1.20566088                0.88480846               -3.36352203               -0.94413272                0.37069444              -11.31672448
              18.74426260               11.47268341               85.62230456                0.00010000                0.02712062                0.08200332               -0.25576631               -0.01004683                0.00160619                0.50256494
              19.74453381               10.94699642               85.19208535                0.00010000               -0.02015617               -0.06508054                0.11542458               -0.06365237                0.03123536               -0.28954725
              20.74385948               10.42031983               84.76242183                0.00010000               -0.74975906               -0.21770225                0.45660958               -0.84997323                0.02435174               -1.20846940
              21.72953862                9.87905684               84.33193003                0.00010000               -1.20916107               -0.16480340               -0.06316650               -1.74995864               -0.20410868               -2.15505245
              22.71967625                9.34120964               83.90275823                0.00010000               -0.72276275               -0.14207790               -0.66104737               -1.97097937               -0.50913650               -3.05993036
              23.71508337                8.80367675               83.47362586                0.00010000               -0.19364797               -0.03917966               -1.41881219               -2.44591169               -0.94892144               -4.00122580
              24.71580330                8.26527439               83.04419655                0.00010000                0.31939155                0.26613855               -2.32830043               -2.89632948               -1.32002014               -4.99576396
              25.72147120                7.72743377               82.61532501                0.00010000                0.74347224                0.72841095               -3.28763487               -2.90819521               -1.41483507               -6.03473835
              26.73067274                7.19413652               82.18842896                0.00010000                1.07561957                1.17523903               -4.13530254               -2.37846575               -1.14483194               -7.14550717
              27.74298359                6.66954623               81.76458641                0.00010000                1.31802930                1.36182408               -4.65327661               -1.27213556               -0.60308423               -8.23203542
              28.75703333                6.15535114               81.34351084                0.00010000                1.40497345                1.06229481               -4.63599354               -0.51786219               -0.10303382               -8.99329799
              19.27063638               12.47355755               85.48301130                0.00010000                0.02285656                0.09012729               -0.24938732               -0.00634137               -0.00248956                0.51292985
              20.27086494               11.94626110               85.04883444                0.00010000               -0.02482667               -0.07354339                0.12580276               -0.05390449                0.00207209               -0.27163557
              21.27013984               11.41808325               84.61472492                0.00010000               -0.92516158               -0.21979451                0.48498302               -0.66673443               -0.10915607               -1.06846332
              22.25236171               10.87864960               84.17816840                0.00010000               -1.58891392                0.07870015               -0.16580336               -1.41819074               -0.46746804               -1.87836815
              23.23836157               10.34236721               83.74313053                0.00010000               -1.15213702                0.33339784               -0.92279067               -1.63321326               -0.88301603               -2.59110667
              24.22931897                9.80693076               83.30710258                0.00010000               -0.60466774                0.59642852               -1.85753510               -2.00457692               -1.48359052               -3.32276163
              25.22626821                9.27172708               82.86957381                0.00010000                0.00580079                0.91872383               -2.94442830               -2.26700614               -1.97504941               -4.09846976
              26.22943499                8.73803142               82.43171686                0.00010000                0.61074236                1.28928089               -4.07174810               -2.20005051               -2.11808292               -4.91399193
              27.23848306                8.20831713               81.99579267                0.00010000                1.14184767                1.59627905               -5.05565015               -1.69212146               -1.78951701               -5.73993425
              28.25227194                7.68491394               81.56425665                0.00010000                1.52678820                1.69630119               -5.67273883               -0.88250985               -1.02391677               -6.48767670
              29.26901882                7.16844071               81.13899645                0.00010000                1.67468818                1.50932064               -5.70122661               -0.30415227               -0.34047294               -6.98380587
              19.79872868               13.47448596               85.34380587                0.00010000                0.02013313                0.09257029               -0.25133602               -0.00252466               -0.00164115                0.51816907
              20.79893001               12.94552556               84.90574575                0.00010000               -0.02961977               -0.06920588                0.13323847               -0.03693618                0.00675069               -0.25083439
              21.79813629               12.41592394               84.46783884                0.00010000               -1.10195817               -0.20887868                0.50343351               -0.36267262               -0.13230762               -1.00136548
              22.77689085               11.88063084               84.02684534                0.00010000               -1.97027292                0.32018455               -0.22941658               -0.86922348               -0.56145943               -1.52963957
              23.75873083               11.34787760               83.58747004                0.00010000               -1.56294444                0.74447016               -1.09582840               -1.13249603               -1.06283788               -2.02852425
              24.74563196               10.81560532               83.14637328                0.00010000               -0.96841562                1.07788386               -2.16131851               -1.48873326               -1.79128347               -2.54680424
              25.73936251               10.28364886               82.70293035                0.00010000               -0.23759055                1.38177023               -3.39248215               -1.68456854               -2.38886196               -3.10559602
              26.74088015                9.75321939               82.25862945                0.00010000                0.52926382                1.67675874               -4.66258643               -1.58799333               -2.57898197               -3.69354920
              27.74994779                9.22606210               81.81642309                0.00010000                1.21648279                1.90367847               -5.77088842               -1.18997578               -2.20752387               -4.27113285
              28.76520981                8.70347226               81.37982627                0.00010000                1.69744667                1.97858881               -6.47175786               -0.60066757               -1.28061728               -4.76152427
              29.78389672                8.18553755               80.95184024                0.00010000                1.86869195                1.85367083               -6.51573993               -0.19677950               -0.48414744               -5.06937844
              20.32850669               14.47540896               85.20460289                0.00010000                0.01815504                0.09023409               -0.25765164                0.00155490                0.00817077                0.50649033
              21.32868824               13.94487698               84.76280589                0.00010000               -0.03627898               -0.06058336                0.14217962               -0.02155647                0.02225882               -0.24062162
              22.32778111               13.41390568               84.32128161                0.00010000               -1.28323287               -0.19266149                0.52348767                0.05702249               -0.01475770               -0.84353660
              23.30302358               12.88505329               83.87858996                0.00010000               -2.35219728                0.60378626               -0.26094771               -0.14503909               -0.43727084               -1.12649383
              24.28073716               12.35725662               83.43665523                0.00010000               -1.96252705                1.13520093               -1.19614202               -0.61092202               -1.07616061               -1.39685828
              25.26377304               11.82848844               82.99231262                0.00010000               -1.28871954                1.43264213               -2.35447108               -1.00120761               -1.93642874               -1.71057784
              26.25496277               11.29936249               82.54490363                0.00010000               -0.42555804                1.69250919               -3.69620460               -1.16223466               -2.64126979               -2.06356250
              27.25526188               10.77156659               82.09621714                0.00010000                0.47339499                1.93458448               -5.08285372               -1.07052180               -2.88680735               -2.43597768
              28.26443067               10.24639069               81.64977604                0.00010000                1.27606304                2.11828772               -6.29412828               -0.77442992               -2.49429761               -2.79520232
              29.28078314                9.72448571               81.20987398                0.00010000                1.82609854                2.18360382               -7.05677151               -0.37456912               -1.45683969               -3.08247063
              30.30095264                9.20551413               80.78027669                0.00010000                2.01695024                2.08703540               -7.09228363               -0.10127523               -0.58368161               -3.21959138
              20.85982373               15.47629064               85.06518728                0.00010000                0.01784242                0.08797690               -0.26783025                0.00378189                0.02583643                0.41276672
              21.86000216               14.94431389               84.61980571                0.00010000               -0.03616548               -0.05626859                0.15806159               -0.00977193                0.17058558               -0.23286051
              22.85910043               14.41207071               84.17731175                0.00010000               -1.46815144               -0.18018325                0.52560690                0.62184563                0.27518586               -0.64419767
              23.83063913               13.89270656               83.73390959                0.00010000               -2.80115934                1.10587146               -0.26572911                0.40213662               -0.19522413               -0.62552223
              24.80307724               13.37058162               83.29127299                0.00010000               -2.35685971                1.41349714               -1.23650189               -0.20163993               -0.97431781               -0.70827341
              25.78350194               12.84425816               82.84531730                0.00010000               -1.50187859                1.64781457               -2.45401562               -0.55528473               -1.98177483               -0.85375953
              26.77303967               12.31749905               82.39560632                0.00010000               -0.55302141                1.87740131               -3.87616748               -0.63707626               -2.79915341               -1.02070957
              27.77244151               11.79191108               81.94418881                0.00010000                0.42502025                2.09743127               -5.35614833               -0.57005229               -3.11331604               -1.19679373
              28.78154007               11.26842786               81.49501272                0.00010000                1.30767391                2.26416939               -6.65743851               -0.39686679               -2.72521876               -1.36608213
              29.79859499               10.74714433               81.05299602                0.00010000                1.91371558                2.32592125               -7.47570499               -0.18093984               -1.60798440               -1.49619244
              30.81981438               10.22727826               80.62268780                0.00010000                2.12193972                2.23639060               -7.48214380               -0.01804366               -0.67380492               -1.50604903
              21.39253583               16.47716849               84.92416244                0.00010000                0.01769030                0.08778542               -0.27583099               -0.07047938                0.20556515                0.32844165
              22.39271273               15.94375161               84.47690224                0.00010000               -0.03552410               -0.05622823                0.16724780               -0.07226667                0.44726956               -0.22203887
              23.39182535               15.41030201               84.03447213                0.00010000               -2.00786631               -0.17686934                0.52488518                1.44344771                0.78420245               -0.57244845
              24.35255541               14.90717072               83.59389528                0.00010000               -3.33362904                1.44641542               -0.25874545                0.95285478                0.14241599               -0.22534649
              25.32515277               14.38552656               83.15157336                0.00010000               -2.34027448                1.49449431               -1.23362260               -0.07874674               -0.85228601               -0.28906228
              26.30574992               13.86144473               82.70536590                0.00010000               -1.52922163                1.71865657               -2.47948631               -0.20600424               -1.98178948               -0.35343553
              27.29456833               13.33691052               82.25475452                0.00010000               -0.64089462                1.94114681               -3.95596490               -0.24360890               -2.91662689               -0.41656074
              28.29293202               12.81351522               81.80194644                0.00010000                0.33458734                2.16041405               -5.51236314               -0.21277006               -3.31147934               -0.47175504
              29.30126008               12.29167408               81.35118044                0.00010000                1.26909593                2.32462248               -6.90345876               -0.15355313               -2.95129481               -0.51805329
              30.31831394               11.77100414               80.90774092                0.00010000                1.95319190                2.38598045               -7.81063030               -0.09971133               -1.78643038               -0.54652829
              31.34032392               11.25024194               80.47698103                0.00010000                2.20099758                2.29636839               -7.83194502               -0.02526597               -0.80516847               -0.48657390
              16.53621768                6.61390461               87.30985386                0.00010000                0.03122065                0.07923034               -0.29235600                0.06530721               -0.48669349                0.47862921
              17.53652989                6.08852079               86.89823691                0.00010000               -0.02944059               -0.00694852                0.02039255                0.07221273               -0.65417438                0.06746217
              18.53562887                5.56265806               86.48333675                0.00010000               -0.13694580               -0.07476337                0.30981980                0.06461388               -0.71156384               -0.03448898
              19.53379097                5.03553035               86.07051213                0.00010000               -0.23540214               -0.18347329                0.61851477               -0.00754571               -0.62642814               -0.24222186
              20.53092083                4.50611445               85.65709850                0.00010000               -0.30180672               -0.31620210                0.90871045                0.00288787               -0.36615810               -0.17646520
              21.52775484                3.97412882               85.24880734                0.00010000               -0.33047399               -0.48222369                1.29040994               -0.01059798                0.34562080               -0.29274547
              22.52431135                3.43829334               84.84798178                0.00010000               -0.00000297               -0.69963302                1.70423180                0.00827167                2.12633910               -0.36429325
              23.52775478                2.89564284               84.47163389                0.00010000                2.60648626               -0.81670791                0.93482511               -0.79458216                4.06628857               -1.22349721
              24.57644107                2.32643271               84.11332391                0.00010000                2.40613239                0.45058168               -0.05540196               -2.51112810                6.12343194               -1.19261037
              25.57587743                1.77792224               83.75613191                1.00000000                0.20443137                0.54430317               -1.81628626               -0.29444665                1.73373184               -0.21625646
              26.58052970                1.23863430               83.36387356                1.00000000                0.46522738                0.34057673               -1.24898762                0.11723905               -0.05076577                0.02821822
              17.06225457                7.61469691               87.17029175                0.00010000                0.06207169                0.06544606               -0.30364606                0.01910979               -0.07785059                0.63799264
              18.06287529                7.08845130               86.75869074                0.00010000                0.02578281               -0.01604145                0.01025526                0.02781670               -0.08683406                0.09500594
              19.06277023                6.56191043               86.34694336                0.00010000               -0.04439850               -0.08418903                0.28627343               -0.00609017               -0.03005430               -0.16496343
              20.06198732                6.03369562               85.93630852                0.00010000               -0.05598804               -0.22411964                0.57072556               -0.03857482                0.16218909               -0.15643464
              21.06165047                5.50295243               85.52795108                1.00000000               -0.02139525               -0.35257526                0.84210782               -0.05521674                0.50370938               -0.11376344
              22.06155942                4.96930659               85.12303402                1.00000000                0.09932952               -0.52809844                1.20335964               -0.09247124                1.19201856               -0.19270507
              23.06363706                4.43129701               84.72604943                1.00000000                0.70899272               -0.78192459                1.58379067               -0.07470235                2.64555817               -0.27106640
              24.07573927                3.88747576               84.34546351                1.00000000                2.32765145               -1.10469052                1.39782347               -0.28854724                4.61321578               -0.72077993
              25.11019009                3.33093853               83.98347026                1.00000000                2.05464485                0.08206128               -0.66660385               -1.32267737                2.78502366               -0.01983159
              26.11683217                2.78336527               83.61969813                1.00000000                0.53999735                0.54102761               -1.76742734               -0.24500330                1.45893820               -0.24885817
              27.12099004                2.24204007               83.22999893                1.00000000                0.41578684                0.30906492               -1.04242206                0.01189409                0.14292779                0.05729578
              17.58909109                8.61521353               87.03403301                0.00010000                0.07816149                0.04761374               -0.30947534               -0.00193933                0.04192865                0.76492176
              18.58987271                8.08819996               86.61964470                0.00010000                0.05858308               -0.02196614                0.00889295               -0.01498893                0.16449820                0.07154183
              19.59026276                7.56097428               86.20771573                0.00010000                0.10523823               -0.07931436                0.29174299               -0.18963379                0.68295585               -0.54021900
              20.59197747                7.03104796               85.80345460                0.00010000                0.19713831               -0.68978983                0.51110438               -0.77246772                1.12503746               -1.31496721
              21.59420552                6.49906294               85.39954393                1.00000000                0.27916815               -0.97444034                0.73534136               -1.16520208                1.34816900               -2.07464792
              22.59756084                5.96356686               84.99846274                1.00000000                0.52213052               -1.23375581                1.00237354               -1.54776195                1.97154541               -2.93818202
              23.60464813                5.42265484               84.60445885                1.00000000                1.23907378               -1.50181021                1.20351537               -2.02563637                3.10738168               -3.99667254
              24.62234231                4.87354902               84.22248458                1.00000000                2.47249375               -1.65686283                0.82303585               -2.32247926                4.21595216               -5.22427829
              25.65409801                4.32807394               83.85369189                0.00010000                1.87667556               -0.75299408               -0.56469315               -2.95630652                1.88756690               -6.26737313
              26.65987582                3.78874280               83.48428463                1.00000000                0.46599962                0.02308315               -1.61293243               -2.33635208                1.07680102               -7.75288122
              27.66341800                3.24481560               83.09638054                1.00000000                0.35421763                1.03751564               -0.83985259               -2.24208230                0.14252792               -8.14702293
              18.11624293                9.61564919               86.89707016                0.00010000                0.05718367                0.04994719               -0.29645690               -0.02305408                0.12232211                0.66885272
              19.11681476                9.08801198               86.47955881                0.00010000               -0.00566837               -0.01387756                0.02733559               -0.04874599                0.19792593               -0.13422108
              20.11612956                8.56032414               86.06357561                0.00010000               -0.41827311               -0.10445244                0.33001165               -0.73285541                0.18616052               -0.95634412
              21.10844930                8.01989982               85.64566368                0.00010000               -0.51510152               -0.82920921                0.31341998               -1.89493985                0.13501722               -2.51182604
              22.10582753                7.48346362               85.23044901                0.00010000               -0.07185119               -1.22443341                0.22162713               -2.36500633                0.18227582               -3.96325964
              23.10701228                6.94463147               84.81664760                0.00010000                0.36573172               -1.44993592               -0.03084392               -3.06946526                0.15965334               -5.54085029
              24.11314216                6.40126080               84.40548485                0.00010000                0.84291577               -1.50428358               -0.51471353               -3.75967118                0.17446669               -7.34302421
              25.12387059                5.85433850               83.99894063                0.00010000                1.13640126               -1.13589301               -1.22822942               -4.10015222                0.12942497               -9.12813279
              26.13587019                5.31587865               83.59822897                0.00010000                1.47464366               -0.72546992               -1.82618917               -4.39545179                0.58424348              -11.45250434
              27.15336347                4.78382694               83.20041597                0.00010000                1.40662988               -0.17873367               -2.49642815               -3.10258361                0.24749357              -14.16177945
              28.16400279                4.26279038               82.79776834                0.00010000                1.06393197                1.26486944               -2.60757206               -1.94953719                0.36728317              -15.95945178
              18.64390442               10.61621247               86.75886771                0.00010000                0.03184141                0.06874256               -0.27301262               -0.01058707                0.01032759                0.56487368
              19.64422284               10.08792241               86.33631970                0.00010000               -0.00933067               -0.03023655                0.07800595               -0.06260579                0.10825873               -0.28334388
              20.64371781                9.55888523               85.91574751                0.00010000               -0.66418222               -0.17315634                0.36165139               -0.86421964               -0.12643829               -1.18779128
              21.63093919                9.01446377               85.48833279                0.00010000               -1.07720331               -0.37878014                0.16718790               -1.87336519               -0.59070130               -2.39599507
              22.62217374                8.47457428               85.06244222                0.00010000               -0.62824206               -0.57350923               -0.18496283               -2.21762086               -0.86690663               -3.66949510
              23.61837435                7.93456814               84.63618125                0.00010000               -0.12130316               -0.59437496               -0.77700984               -2.84375268               -1.31057308               -5.05988997
              24.61974768                7.39256917               84.20975032                0.00010000                0.36735357               -0.38851689               -1.60800988               -3.40188295               -1.70093766               -6.54813625
              25.62572142                6.85083116               83.78444444                0.00010000                0.84764265                0.05591814               -2.56768456               -3.53520022               -1.72664938               -8.15391929
              26.63670053                6.31356454               83.36251486                0.00010000                1.25954983                0.28750576               -3.49348535               -2.98174558               -1.34020412               -9.92458498
              27.65091242                5.78516812               82.94554053                0.00010000                1.48999202                0.57406452               -4.15133789               -1.98879135               -0.60364486              -11.78863435
              28.66650037                5.27011299               82.53159849                0.00010000                1.55879542                0.79608512               -4.23593474               -0.93207100               -0.03087777              -13.23304736
              19.17261131               11.61702404               86.61974129                0.00010000                0.02785766                0.08542188               -0.25039200               -0.01256241               -0.00039413                0.51879447
              20.17288989               11.08740725               86.19315634                0.00010000               -0.01537551               -0.05951384                0.09715370               -0.06327981                0.01269014               -0.27298504
              21.17230380               10.55686101               85.76684297                0.00010000               -0.87984698               -0.20641595                0.41823469               -0.81575410               -0.40274199               -1.15719015
              22.15529295               10.01232422               85.33174797                0.00010000               -1.54665285               -0.08940529                0.06597469               -1.71820291               -1.11482970               -2.19108410
              23.14137075                9.47199344               84.89676319                0.00010000               -1.15753118               -0.00665749               -0.48004397               -1.95335560               -1.65451256               -3.24433531
              24.13214233                8.93274397               84.45969289                0.00010000               -0.62646353                0.15230259               -1.31619642               -2.41810496               -2.37165052               -4.39383666
              25.12884148                8.39349046               84.02037649                0.00010000                0.00144476                0.44588551               -2.41542659               -2.79286963               -2.92433980               -5.65533779
              26.13217122                7.85545686               83.58080113                0.00010000                0.65284216                0.81151422               -3.65073689               -2.77620273               -3.02030924               -6.99460461
              27.14189832                7.32162876               83.14425213                0.00010000                1.24339847                1.14186420               -4.81511408               -2.27223465               -2.48256129               -8.39289486
              28.15703919                6.79530823               82.71403176                0.00010000                1.67866590                1.32149683               -5.63731765               -1.29035744               -1.39032594               -9.74055037
              29.17547164                6.27871208               82.29253670                0.00010000                1.84324454                1.17058511               -5.81225895               -0.52739034               -0.43746208              -10.65359982
              19.70288675               12.61792091               86.48053321                0.00010000                0.02335173                0.09103865               -0.24127446               -0.00818055               -0.00395871                0.51603737
              20.70312027               12.08673213               86.05001224                0.00010000               -0.02004940               -0.06696679                0.10793044               -0.05120920               -0.00822815               -0.25801425
              21.70248576               11.55475691               85.61941284                0.00010000               -1.08387793               -0.20582149                0.44477713               -0.60188448               -0.58591994               -1.03362246
              22.68144271               11.01267567               85.17714218                0.00010000               -1.98994427                0.15120789                0.00525445               -1.31089281               -1.50445613               -1.88579530
              23.66268688               10.47444113               84.73478612                0.00010000               -1.64637413                0.45407718               -0.68108854               -1.52538230               -2.18565728               -2.71120674
              24.64851523                9.93761419               84.28902564                0.00010000               -1.07547395                0.74864801               -1.70319778               -1.89649685               -3.08764602               -3.61620455
              25.64117740                9.40148688               83.83965661                0.00010000               -0.32280778                1.07492581               -3.02377229               -2.15954475               -3.78388327               -4.61375589
              26.64205907                8.86706145               83.38912659                0.00010000                0.51135386                1.42385896               -4.49454132               -2.10890668               -3.92053230               -5.68042887
              27.65140447                8.33640182               82.94176723                0.00010000                1.29814408                1.72362342               -5.87532244               -1.65911606               -3.29665382               -6.75148137
              28.66802195                7.81159806               82.50265170                0.00010000                1.88701932                1.86990637               -6.86036850               -0.89208256               -1.90572523               -7.68663102
              29.68914486                7.29352469               82.07629179                0.00010000                2.11229090                1.76176286               -7.12083972               -0.32208302               -0.73639538               -8.26457591
              20.23482526               13.61884481               86.34132593                0.00010000                0.02044460                0.09116295               -0.24078342               -0.00402145               -0.00326389                0.51207376
              21.23502971               13.08606791               85.90699865                0.00010000               -0.02513398               -0.06189128                0.11544704               -0.03380366               -0.00290290               -0.23470498
              22.23432258               12.55274458               85.47268230                0.00010000               -1.28194134               -0.19346595                0.46000993               -0.27380461               -0.64442220               -0.96293225
              23.20939088               12.01534837               85.02534043                0.00010000               -2.41990013                0.38813504               -0.02251905               -0.71333394               -1.68273872               -1.51868544
              24.18592458               11.48107498               84.57762927                0.00010000               -2.11121227                0.85524452               -0.80084744               -0.98405541               -2.48342875               -2.09998159
              25.16716663               10.94771693               84.12546940                0.00010000               -1.48606288                1.22075034               -1.96023690               -1.36182499               -3.54581992               -2.75039578
              26.15620332               10.41498898               83.66861946                0.00010000               -0.60442424                1.54948825               -3.45416488               -1.58312922               -4.37071751               -3.47914986
              27.15507815                9.88393404               83.21001334                0.00010000                0.39880341                1.87233819               -5.11498296               -1.52337734               -4.55972004               -4.25427089
              28.16417939                9.35610123               82.75491081                0.00010000                1.34982632                2.14324789               -6.67372710               -1.16652011               -3.86725606               -5.00506857
              29.18207468                8.83270636               82.30967975                0.00010000                2.04986642                2.28640633               -7.79108356               -0.60524767               -2.25748355               -5.61256593
              30.20517672                8.31394734               81.88030205                0.00010000                2.31020415                2.24366014               -8.10302374               -0.20419924               -0.92550029               -5.92846464
              20.76836011               14.61974417               86.20207394                0.00010000                0.01843095                0.08724121               -0.24498054                0.00036843                0.00594472                0.49355393
              21.76854442               14.08549431               85.76414611                0.00010000               -0.03154517               -0.05314969                0.12360930               -0.01857438                0.01060608               -0.21759010
              22.76772921               13.55088759               85.32631063                0.00010000               -1.48493963               -0.17628583                0.47629694                0.16539635               -0.55240441               -0.80496914
              23.73884563               13.02043837               84.87692484                0.00010000               -2.85459998                0.67882761               -0.01798344                0.03956111               -1.61211498               -1.10206940
              24.71063721               12.49154602               84.42605464                0.00010000               -2.57404516                1.25122136               -0.84499787               -0.46209406               -2.57939611               -1.42951883
              25.68736473               11.96202920               83.96972518                0.00010000               -1.86697535                1.57719936               -2.09630125               -0.88778331               -3.80804424               -1.83341265
              26.67329770               11.43247665               83.50772815                0.00010000               -0.84427269                1.87651421               -3.71849127               -1.08047666               -4.77008250               -2.29844142
              27.67047927               10.90450821               83.04343731                0.00010000                0.30020273                2.17316276               -5.52718572               -1.02208134               -5.02672800               -2.79128036
              28.67930176               10.37926678               82.58290846                0.00010000                1.37958087                2.42661352               -7.22664969               -0.75893883               -4.29565166               -3.25488252
              29.69807089                9.85732618               82.13361622                0.00010000                2.16385760                2.57264311               -8.44027046               -0.37713894               -2.51897642               -3.58987521
              30.72257891                9.33839789               81.70262938                0.00010000                2.45080192                2.56323697               -8.76637862               -0.10908349               -1.07114626               -3.66529988
              21.30333236               15.62058964               86.06256967                0.00010000                0.01824407                0.08384336               -0.25313956                0.00308949                0.02832730                0.39658810
              22.30351480               15.08500492               85.62129991                0.00010000               -0.03229541               -0.04885221                0.13777168               -0.00709071                0.14524130               -0.20740813
              23.30268645               14.54921887               85.18236060                0.00010000               -1.69955597               -0.16295503                0.47798423                0.75639285               -0.28160312               -0.61027008
              24.26952368               14.02892493               84.73237834                0.00010000               -3.37972894                1.22438444                0.02003374                0.56528586               -1.38529618               -0.59855001
              25.23509187               13.50609941               84.28056392                0.00010000               -3.05216700                1.53625592               -0.81525372               -0.09849965               -2.52330269               -0.71871313
              26.20848034               12.97926092               83.82205762                0.00010000               -2.14885494                1.79201802               -2.11886915               -0.48863392               -3.94110621               -0.90952407
              27.19211477               12.45251926               83.35691318                0.00010000               -1.03169736                2.06715863               -3.83072087               -0.58992476               -5.05684533               -1.13068142
              28.18784639               11.92739730               82.88886309                0.00010000                0.20339351                2.35503635               -5.75460518               -0.54409398               -5.40936747               -1.36374452
              29.19618264               11.40463350               82.42457742                0.00010000                1.37771984                2.60445761               -7.57264733               -0.39233892               -4.67912052               -1.57902784
              30.21540079               10.88415922               81.97250814                0.00010000                2.23344974                2.75274373               -8.86751631               -0.18705682               -2.76722266               -1.71780174
              31.24085163               10.36521208               81.54108188                0.00010000                2.54508483                2.74509667               -9.17205539               -0.02686874               -1.21624938               -1.62855156
              21.83959133               16.62142104               85.92147116                0.00010000                0.01820463                0.08314021               -0.26056668               -0.06447978                0.20083885                0.31152584
              22.83977338               16.08451726               85.47848625                0.00010000               -0.03271353               -0.04876583                0.14565024               -0.06376901                0.40204926               -0.19746360
              23.83893706               15.54762849               85.03951033                0.00010000               -2.32512869               -0.15903734                0.47582261                1.64550111                0.21820056               -0.53564814
              24.79327080               15.04492606               84.59270065                0.00010000               -4.03029183                1.60011293                0.09295957                1.10684499               -1.00842677               -0.23275504
              25.75833122               14.52227114               84.14127360                0.00010000               -3.10493059                1.61717270               -0.71820638               -0.02888932               -2.40569543               -0.31601924
              26.73117219               13.99786956               83.68227110                0.00010000               -2.24841969                1.86086365               -2.03993038               -0.15338012               -4.00568775               -0.39482190
              27.71336283               13.47381982               83.21565136                0.00010000               -1.18445175                2.13005559               -3.81267516               -0.18822462               -5.29844739               -0.46819903
              28.70748316               12.95160894               82.74536082                0.00010000                0.06651139                2.42116432               -5.83212694               -0.15951753               -5.78023692               -0.52889513
              29.71469306               12.43135593               82.27846715                0.00010000                1.31340100                2.67224320               -7.76704834               -0.11035207               -5.10797418               -0.57018818
              30.73375118               11.91238106               81.82395516                0.00010000                2.26213780                2.82218420               -9.18059594               -0.06776624               -3.12257418               -0.57200341
              31.75993581               11.39329982               81.39188856                0.00010000                2.61846371                2.80877469               -9.50999107                0.00029457               -1.49339005               -0.38546483
              16.94126434                6.75829689               88.30704272                0.00010000                0.02454908                0.06978591               -0.25464038                0.05697257               -0.50628570                0.47458824
              17.94150983                6.22878895               87.89841645                0.00010000               -0.03124705               -0.00607232                0.02285963                0.06288037               -0.69072053                0.06692496
              18.94063940                5.69877715               87.48628740                0.00010000               -0.12892189               -0.06423435                0.28251490                0.05376175               -0.74886838               -0.04416194
              19.93893139                5.16747219               87.07642587                0.00010000               -0.21044830               -0.16169172                0.55832686               -0.01527944               -0.66530159               -0.26040653
              20.93643043                4.63386452               86.66567168                0.00010000               -0.23719024               -0.27852579                0.79207080               -0.00080580               -0.38599780               -0.17759046
              21.93418759                4.09774864               86.26080713                0.00010000               -0.16583468               -0.41838919                1.07460685                0.00468858                0.37161641               -0.25073514
              22.93311374                3.55817064               85.86386574                0.00010000                0.26109249               -0.57754619                1.33849911                0.05475121                1.70721797               -0.32585716
              23.93940944                3.01413598               85.48258462                0.00010000                1.47702799               -0.65013881                0.81103173               -0.45053581                2.84680754               -0.75377861
              24.96265430                2.45823042               85.10781201                0.00010000                1.26506028                0.14776572               -0.41615827               -1.44432874                1.42272185                0.19537299
              25.96471064                1.91179217               84.73905688                1.00000000                0.31654575                0.43588025               -1.57142621               -0.32042668                0.93695892               -0.23984206
              26.96898522                1.37208488               84.35114008                1.00000000                0.42745706                0.36196838               -1.30417030               -0.01230648               -0.05841853                0.02768449
              17.47134201                7.75899475               88.16735160                0.00010000                0.05564943                0.05876930               -0.26983153                0.01598108               -0.10504530                0.62998050
              18.47189850                7.22872822               87.75874741                0.00010000                0.02466941               -0.01390124                0.00777431                0.02359429               -0.14299013                0.09574967
              19.47183540                6.69813481               87.34960186                0.00010000               -0.03317944               -0.07260900                0.24816871               -0.01125974               -0.11365466               -0.16098900
              20.47123492                6.16585527               86.94160756                0.00010000               -0.02756256               -0.19757309                0.48588405               -0.03919362                0.05362487               -0.17462032
              21.47128415                5.63107926               86.53561200                0.00010000                0.04232484               -0.30643675                0.68703896               -0.05127828                0.36850721               -0.10989802
              22.47208141                5.09356475               86.13370669                1.00000000                0.20917184               -0.44877343                0.92348816               -0.06314577                0.96850180               -0.15581611
              23.47546758                4.55239518               85.73910753                1.00000000                0.63963895               -0.61293834                1.05458017               -0.02584394                1.84556741               -0.21267847
              24.48487419                4.00763459               85.35466896                1.00000000                1.19576670               -0.69648139                0.67696159               -0.12391649                2.38935339               -0.48861610
              25.49938292                3.45970808               84.97878721                1.00000000                0.98524785                0.00687340               -0.37962959               -0.65152577                1.33808056               -0.03762059
              26.50457915                2.91615097               84.60347454                1.00000000                0.45932589                0.37543878               -1.32772243               -0.18297627                0.75341296               -0.25322963
              27.50856944                2.37570457               84.21917251                1.00000000                0.39902875                0.34307080               -1.16093282               -0.06409251                0.27604939                0.04495403
              18.00211701                8.75947228               88.03101243                0.00010000                0.07246439                0.04665542               -0.28155253               -0.00450065                0.00906710                0.76834636
              19.00284166                8.22851092               87.61966793                0.00010000                0.05850735               -0.01848227                0.00116965               -0.01709842                0.10175383                0.08685781
              20.00328716                7.69732497               87.21039833                0.00010000                0.11807050               -0.06715111                0.24562930               -0.18507792                0.54737416               -0.50113505
              21.00520307                7.16352072               86.80802595                0.00010000                0.22041122               -0.65278153                0.40573182               -0.82422441                0.89718631               -1.35027074
              22.00769539                6.62773579               86.40592931                0.00010000                0.32028423               -0.89262186                0.55475983               -1.31974809                1.03963552               -2.19882599
              23.01160875                6.08877317               86.00678737                1.00000000                0.54158177               -1.09184571                0.69625090               -1.80216024                1.44672266               -3.22153581
              24.01852702                5.54591188               85.61345252                1.00000000                0.90047293               -1.23758203                0.70937012               -2.20901266                1.93709904               -4.42542463
              25.02961821                5.00020635               85.22728827                1.00000000                1.12901920               -1.20532064                0.36974162               -2.32852798                2.02214932               -5.60751236
              26.04110741                4.45836789               84.84917319                0.00010000                0.77182114               -0.77422827               -0.37073772               -2.19349713                0.91098947               -7.04467085
              27.04505463                3.91930094               84.47010485                1.00000000                0.37443844               -0.34362015               -1.08365380               -1.57465900                0.48210851               -8.51538816
              28.04859617                3.37894630               84.08726797                1.00000000                0.35415399                0.37717086               -1.00713700               -1.08435529                0.26485427               -9.27275415
              18.53317471                9.75992786               87.89416642                0.00010000                0.05291341                0.05357779               -0.27352768               -0.02448327                0.09057646                0.69020798
              19.53370384                9.22835858               87.47975209                0.00010000               -0.00253334               -0.01063117                0.01406569               -0.04589763                0.14923825               -0.09322094
              20.53312404                8.69679179               87.06666464                0.00010000               -0.46821125               -0.09554294                0.28219772               -0.70941217               -0.00645790               -0.90926106
              21.52433962                8.15279964               86.64887899                0.00010000               -0.67436521               -0.77896251                0.36505728               -1.95130320               -0.28533694               -2.52390995
              22.51963674                7.61322683               86.23269489                0.00010000               -0.32387502               -1.11155478                0.28329948               -2.57763554               -0.49062902               -4.15546281
              23.51786211                7.07172784               85.81595638                0.00010000                0.01087095               -1.26509524               -0.03836048               -3.42048242               -0.85719376               -6.05310001
              24.51985415                6.52764354               85.39951724                0.00010000                0.39927520               -1.26809667               -0.61590130               -4.05284006               -1.14269223               -8.23540247
              25.52584762                5.98352818               84.98573221                0.00010000                0.82821147               -1.08410217               -1.40849377               -4.19373712               -1.16478758              -10.59749643
              26.53641838                5.44422352               84.57708211                0.00010000                1.33299718               -0.90352026               -2.31911915               -3.75461755               -0.82532750              -13.47458383
              27.55250756                4.90927857               84.17269622                0.00010000                1.55866189               -0.55059831               -3.10931589               -2.41287131               -0.64295460              -16.12295026
              28.56759162                4.38324798               83.76848070                0.00010000                1.50840589                0.44096055               -3.37799435               -1.12024715               -0.09927096              -18.33358268
              19.06476591               10.76054383               87.75619492                0.00010000                0.02938687                0.07329681               -0.25345223               -0.01205783                0.00750329                0.59406088
              20.06505978               10.22829830               87.33700336                0.00010000               -0.00540244               -0.02571977                0.05883910               -0.05738179                0.07054610               -0.24510507
              21.06465786                9.69541411               86.91915083                0.00010000               -0.76589053               -0.16405442                0.31378098               -0.81339292               -0.38941261               -1.13642010
              22.04974197                9.14794147               86.49052869                0.00010000               -1.37216917               -0.31869363                0.32281817               -1.84636135               -1.17295761               -2.37098344
              23.03721448                8.60550469               86.06131648                0.00010000               -1.04797895               -0.46238958                0.03695088               -2.27329295               -1.77893179               -3.79215684
              24.02878239                8.06347127               85.62879736                0.00010000               -0.57722988               -0.43861073               -0.62447405               -2.93899031               -2.59742388               -5.44692119
              25.02566988                7.52054994               85.19322995                0.00010000                0.01905547               -0.26911027               -1.64187035               -3.42964306               -3.23179018               -7.33105217
              26.02916350                6.97852431               84.75725289                0.00010000                0.72973934               -0.03343243               -2.87971229               -3.44553507               -3.31519095               -9.44500065
              27.04026467                6.44029749               84.32501576                0.00010000                1.43046220                0.14013677               -4.14271490               -2.94314115               -2.74382430              -11.74700533
              28.05777274                5.90828898               83.89969593                0.00010000                1.89938674                0.41727438               -5.18287050               -1.90735185               -1.53914046              -13.97439033
              29.07825240                5.38776551               83.48379935                0.00010000                2.04796594                0.71689277               -5.56388630               -0.86821831               -0.47014638              -15.57216808
              19.59742462               11.76139379               87.61729672                0.00010000                0.02613064                0.08749107               -0.23273326               -0.01329864               -0.00273046                0.54037022
              20.59768592               11.22784418               87.19402842                0.00010000               -0.01058050               -0.05198997                0.07686605               -0.05610584               -0.00429314               -0.25286151
              21.59721301               10.69351070               86.77078652                0.00010000               -1.01820553               -0.19213175                0.36650113               -0.73923888               -0.70606243               -1.10593548
              22.57732181               10.14642576               86.33324952                0.00010000               -1.92859632               -0.03001225                0.29500957               -1.61871612               -1.82747974               -2.14941915
              23.55864108                9.60397903               85.89315735                0.00010000               -1.66423797                0.08861558               -0.15224248               -1.89598316               -2.74308681               -3.32354964
              24.54403705                9.06295562               85.44730193                0.00010000               -1.12164128                0.26794440               -1.07938339               -2.39022633               -3.87906154               -4.71389720
              25.53620825                8.52226134               84.99588802                0.00010000               -0.34238384                0.53295266               -2.44156337               -2.76381838               -4.74156975               -6.32374859
              26.53718938                7.98285953               84.54231027                0.00010000                0.57913183                0.83431619               -4.07756939               -2.77424330               -4.91533284               -8.10241930
              27.54779089                7.44702625               84.09212668                0.00010000                1.48515634                1.11656667               -5.72417617               -2.32376357               -4.13715429               -9.95856107
              28.56689250                6.91762405               83.65184005                0.00010000                2.17416503                1.36221712               -7.02186083               -1.37901382               -2.39550751              -11.64614794
              29.59127419                6.39758584               83.22726566                0.00010000                2.43816887                1.38091734               -7.54624752               -0.56590523               -0.90218245              -12.77349520
              20.13159916               12.76229365               87.47818581                0.00010000                0.02215978                0.08964554               -0.22388486               -0.00884783               -0.00556732                0.52462874
              21.13182076               12.22725850               87.05099305                0.00010000               -0.01538289               -0.05733030                0.08772419               -0.04462553               -0.01653857               -0.24083831
              22.13129150               11.69157148               86.62362046                0.00010000               -1.24607235               -0.18715989                0.39164599               -0.51121094               -0.91388584               -0.99694201
              23.10689931               11.14734123               86.17827349                0.00010000               -2.42632724                0.20243502                0.28944008               -1.16635932               -2.29915142               -1.83945290
              24.08276496               10.60727700               85.72950876                0.00010000               -2.21018758                0.53152048               -0.27593310               -1.41094352               -3.40951088               -2.76395343
              25.06269556               10.06883016               85.27303862                0.00010000               -1.61376762                0.84711251               -1.40683019               -1.81898453               -4.78761731               -3.86969699
              26.05048960                9.53120900               84.80909836                0.00010000               -0.68909200                1.18664942               -3.04844933               -2.12117790               -5.83862111               -5.15706807
              27.04891372                8.99521063               84.34182603                0.00010000                0.42676327                1.54818606               -5.00655460               -2.11875778               -6.06881757               -6.57000467
              28.05902487                8.46262882               83.87828622                0.00010000                1.53595797                1.88966300               -6.96697307               -1.72659726               -5.16108826               -7.98891693
              29.07963288                7.93553332               83.42704928                0.00010000                2.39929298                2.13161812               -8.51738122               -0.97342829               -3.03417578               -9.21396913
              30.10701073                7.41538386               82.99657966                0.00010000                2.73778516                2.15224186               -9.18277858               -0.37154910               -1.24706553               -9.95048081
              20.66731797               13.76318671               87.33899021                0.00010000                0.01976187                0.08713186               -0.22299004               -0.00480896               -0.00497337                0.51142733
              21.66751559               13.22669758               86.90805469                0.00010000               -0.02059546               -0.05172954                0.09517621               -0.02881441               -0.01023685               -0.21654733
              22.66690606               12.68976750               86.47703904                0.00010000               -1.46132418               -0.17217412                0.40646379               -0.17801609               -0.98586108               -0.92698523
              23.63828910               12.15047447               86.02639495                0.00010000               -2.89863894                0.43163825                0.30820182               -0.55100477               -2.52260489               -1.47353947
              24.60893328               11.61460944               85.57145309                0.00010000               -2.72818693                0.92272916               -0.32783949               -0.84963201               -3.80378587               -2.13164685
              25.58372537               11.07989787               85.10716855                0.00010000               -2.07645291                1.32009060               -1.60586136               -1.26860149               -5.39388762               -2.93645415
              26.56740422               10.54599433               84.63384705                0.00010000               -1.01654830                1.69454749               -3.45939914               -1.53576153               -6.61546652               -3.88105895
              27.56339440               10.01382325               84.15632979                0.00010000                0.27660177                2.08403012               -5.66872837               -1.52707584               -6.91243013               -4.90811586
              28.57293626                9.48481951               83.68294855                0.00010000                1.56372510                2.44988089               -7.87939099               -1.21264893               -5.91058776               -5.90737855
              29.59466890                8.96025642               83.22400459                0.00010000                2.56029398                2.71632529               -9.63096109               -0.65695102               -3.49236112               -6.70474809
              30.62414214                8.44063068               82.78977977                0.00010000                2.94732363                2.80222206              -10.40432309               -0.23794019               -1.49092013               -7.09489641
              21.20448124               14.76403629               87.19970328                0.00010000                0.01824368                0.08192383               -0.22653430               -0.00064678                0.00337059                0.48605885
              22.20466367               14.22622391               86.76527808                0.00010000               -0.02634724               -0.04359921                0.10213672               -0.01539109                0.00058871               -0.19490349
              23.20395429               13.68812800               86.33080755                0.00010000               -1.68132005               -0.15509479                0.41986193                0.26169826               -0.89626442               -0.77114643
              24.17103727               13.15597399               85.87823029                0.00010000               -3.38026910                0.72426481                0.35970751                0.20221821               -2.46352261               -1.05972613
              25.13634891               12.62573158               85.41975527                0.00010000               -3.25493131                1.31894764               -0.29914374               -0.33716994               -3.95572372               -1.44382327
              26.10593864               12.09523197               84.95038659                0.00010000               -2.52499573                1.68119418               -1.66807359               -0.80132215               -5.76254271               -1.95266901
              27.08584899               11.56509995               84.47053381                0.00010000               -1.31958148                2.04839415               -3.67287592               -1.03238383               -7.16649362               -2.55653608
              28.07954702               11.03689123               83.98567343                0.00010000                0.12448648                2.44447104               -6.07140183               -1.01389975               -7.55423721               -3.20752017
              29.08833872               10.51162644               83.50524304                0.00010000                1.55678381                2.82345501               -8.47402298               -0.78275252               -6.49824598               -3.82006665
              30.11068269                9.98985982               83.04106857                0.00010000                2.65823422                3.10964690              -10.37225760               -0.40604864               -3.85081626               -4.24670076
              31.14150341                9.47142830               82.60494912                0.00010000                3.08207166                3.24086838              -11.19943963               -0.13316439               -1.68835558               -4.29143821
              21.74292980               15.76482518               87.06012449                0.00010000                0.01862624                0.07798722               -0.23389133                0.00210090                0.02983233                0.38513136
              22.74311606               15.22582559               86.62256114                0.00010000               -0.02699287               -0.03971205                0.11325461               -0.00543514                0.12371109               -0.18399762
              23.74238994               14.68666561               86.18687143                0.00010000               -1.91930899               -0.14192058                0.41970406                0.85774182               -0.61544049               -0.58182511
              24.70472988               14.16495976               85.73431026                0.00010000               -3.97290174                1.29485018                0.45545595                0.69545613               -2.20220347               -0.56252410
              25.66293191               13.64098840               85.27496792                0.00010000               -3.81996609                1.60276207               -0.17454557               -0.01592570               -3.90832897               -0.72676765
              26.62833056               13.11352176               84.80293991                0.00010000               -2.89173121                1.89446729               -1.58586844               -0.43532174               -5.96795612               -0.96874501
              27.60509728               12.58696221               84.31899190                0.00010000               -1.58703218                2.24851089               -3.69159134               -0.55742056               -7.58663900               -1.25436260
              28.59658991               12.06271267               83.82909671                0.00010000               -0.03923326                2.65253133               -6.23336949               -0.53545566               -8.11241889               -1.55988891
              29.60431262               11.54128861               83.34355977                0.00010000                1.50780773                3.04322149               -8.79243303               -0.40478937               -7.05993989               -1.84045978
              30.62674607               11.02244936               82.87564569                0.00010000                2.70146454                3.34050962              -10.80829340               -0.20411084               -4.21403783               -2.00575747
              31.65834191               10.50544804               82.43924669                0.00010000                3.15958375                3.47454964              -11.63121345               -0.04583548               -1.89975884               -1.81485412
              22.28252243               16.76559604               86.91895111                0.00010000                0.01921147                0.07708536               -0.24202386               -0.05737344                0.19745379                0.29875724
              23.28271455               16.22542967               86.47981524                0.00010000               -0.02737364               -0.03959252                0.11821513               -0.05547396                0.36390615               -0.17602931
              24.28197496               15.68528958               86.04398859                0.00010000               -2.60454716               -0.13760203                0.41539701                1.78056826               -0.08005588               -0.50709608
              25.23062360               15.18187100               85.59575447                0.00010000               -4.72532790                1.69112351                0.62364031                1.21423428               -1.69541280               -0.26238369
              26.18746840               14.65778683               85.13720923                0.00010000               -3.96826025                1.67984295                0.05856683                0.01616541               -3.74909733               -0.36852781
              27.15125840               14.13312131               84.66456729                0.00010000               -3.09793667                1.95995595               -1.35533671               -0.09304907               -6.08624180               -0.46054027
              28.12550967               13.61007017               84.17850102                0.00010000               -1.83734488                2.31079571               -3.52902413               -0.11773417               -7.97076585               -0.54206316
              29.11451150               13.08994186               83.68530390                0.00010000               -0.25017074                2.72291890               -6.18979031               -0.08680641               -8.69525032               -0.60657023
              30.12050625               12.57249087               83.19583947                0.00010000                1.39647712                3.12022563               -8.89932079               -0.04422854               -7.74340151               -0.64080160
              31.14244104               12.05667002               82.72412900                0.00010000                2.70415354                3.42206623              -11.07127604               -0.00908158               -4.79398997               -0.61141564
              32.17458932               11.54091929               82.28678120                0.00010000                3.21482805                3.54712464              -11.93387874                0.04966880               -2.36404043               -0.26749927
              17.34334452                6.90277862               89.30476105                0.00010000                0.01262787                0.05481976               -0.19101165                0.04362654               -0.51502331                0.46603101
              18.34347079                6.36919736               88.89869410                0.00010000               -0.03512156               -0.00825463                0.03813926                0.04780809               -0.70997096                0.06608675
              19.34264208                5.83514591               88.48898704                0.00010000               -0.11850648               -0.05661931                0.25957839                0.03756459               -0.76593576               -0.05232899
              20.34110066                5.29995883               88.08167867                0.00010000               -0.19112372               -0.13557119                0.48914769               -0.02829315               -0.69823752               -0.27910135
              21.33881961                4.76268201               87.67293991                0.00010000               -0.20537776               -0.21851759                0.66571140               -0.02200501               -0.45022281               -0.17625988
              22.33699311                4.22331499               87.27029948                0.00010000               -0.10706957               -0.31049739                0.83528821               -0.02538913                0.22554359               -0.21739283
              23.33667822                3.68129261               86.87475176                0.00010000                0.18757755               -0.38359579                0.89352203               -0.05502869                1.02797673               -0.29533964
              24.34074466                3.13639858               86.48785453                0.00010000                0.58725135               -0.33987982                0.41988801               -0.33494162                1.40888978               -0.45254306
              25.34842325                2.58838978               86.10500074                0.00010000                0.52719346                0.04351548               -0.23793228               -0.63313714                0.66902487                0.06480533
              26.35128853                2.04429009               85.72470338                1.00000000                0.33858410                0.29626247               -1.22319431               -0.24067269                0.44227749               -0.02757225
              27.35519493                1.50312314               85.33779016                1.00000000                0.39063977                0.36881171               -1.31452431               -0.12467899                0.05360467               -0.12255428
              17.87736204                7.90332681               89.16489512                0.00010000                0.04031875                0.04935088               -0.21083011                0.00964519               -0.12629798                0.61831645
              18.87776523                7.36911481               88.75884623                0.00010000                0.01374757               -0.01324564                0.01745090                0.01519961               -0.18893621                0.09623976
              19.87763699                6.83457972               88.35190674                0.00010000               -0.03577726               -0.06285574                0.21758806               -0.01507766               -0.19011736               -0.15681945
              20.87704968                6.29860312               87.94602620                0.00010000               -0.03577560               -0.15938640                0.40288476               -0.03966633               -0.06506051               -0.19282544
              21.87692148                5.76049684               87.54169186                0.00010000                0.01921180               -0.23392420                0.54132372               -0.04879494                0.18174986               -0.10248875
              22.87743392                5.22021002               87.14150378                0.00010000                0.13323300               -0.32142718                0.66969990               -0.05306046                0.61626675               -0.12247190
              23.87958614                4.67745665               86.74714104                1.00000000                0.32063718               -0.37779846                0.64561219               -0.04996222                1.05248486               -0.15407453
              24.88384666                4.13299978               86.35900274                0.00010000                0.42799900               -0.30315238                0.32467734               -0.11558780                1.17534478               -0.20847217
              25.88814612                3.58882493               85.97587766                0.00010000                0.38342303                0.02479199               -0.26813766               -0.23345490                0.78731916               -0.01281902
              26.89151512                3.04725271               85.59314369                1.00000000                0.34844830                0.24616312               -0.89613338               -0.09394975                0.46039799               -0.09238901
              27.89511509                2.50681126               85.20678027                1.00000000                0.35999632                0.34645918               -1.19830275               -0.08444985                0.21379184               -0.11083741
              18.41196143                8.90376563               89.02840196                0.00010000                0.05604565                0.04720198               -0.23062742               -0.00726449               -0.01913550                0.76842950
              19.41252188                8.36893244               88.61966810                0.00010000                0.04453971               -0.01513374                0.00365142               -0.01703780                0.04532509                0.10058955
              20.41285222                7.83388880               88.21262831                0.00010000                0.09341686               -0.05966492                0.20479469               -0.14624184                0.41128748               -0.46245794
              21.41439022                7.29677111               87.81156924                0.00010000                0.16922966               -0.58421186                0.31500617               -0.81113191                0.65275601               -1.28746370
              22.41623681                6.75800353               87.41063913                0.00010000                0.22909316               -0.77648182                0.41345710               -1.39342873                0.70273667               -2.18076950
              23.41897208                6.21688645               87.01238775                0.00010000                0.33262009               -0.93252702                0.47998838               -1.93273738                0.90741080               -3.36167841
              24.42288921                5.67373664               86.61864626                0.00010000                0.40462723               -1.03406659                0.42711828               -2.28122842                1.06992181               -4.80411252
              25.42706463                5.13033553               86.22987941                0.00010000                0.33060006               -1.02879115                0.20657094               -2.28438587                1.02877292               -6.39176582
              26.42950122                4.58888562               85.84627714                0.00010000                0.21792923               -0.91402652               -0.26143854               -1.84343395                0.71441234               -8.18840791
              27.43142321                4.04921335               85.46261156                0.00010000                0.24438130               -0.77379268               -0.66410717               -1.06213185                0.43640545               -9.80756797
              28.43438884                3.51005232               85.07623780                1.00000000                0.29656303               -0.36119545               -1.05554794               -0.14943643                0.23698387              -10.87583568
              18.94688313                9.90427085               88.89159961                0.00010000                0.04181795                0.05988815               -0.23162765               -0.02206249                0.06176497                0.70967330
              19.94730131                9.36881214               88.47984012                0.00010000               -0.00048183               -0.00942369                0.00668238               -0.03642322                0.10503148               -0.05455874
              20.94687349                8.83338642               88.06921957                0.00010000               -0.52944987               -0.09269242                0.22591453               -0.61706205               -0.10328419               -0.86013083
              21.93671231                8.28691888               87.65296482                0.00010000               -0.89679661               -0.70487646                0.50147026               -1.87475232               -0.54182954               -2.35354069
              22.92893756                7.74496720               87.23611500                0.00010000               -0.68331278               -0.98674223                0.47313414               -2.66348925               -1.07796904               -4.09892190
              23.92304606                7.20155948               86.81588040                0.00010000               -0.42125347               -1.13011438                0.09697211               -3.63257784               -1.81094912               -6.34972952
              24.92051249                6.65677532               86.39316683                0.00010000               -0.00180427               -1.20796465               -0.61067124               -4.26841912               -2.36334849               -9.12967577
              25.92300997                6.11242396               85.97077075                0.00010000                0.59435654               -1.24912219               -1.60064917               -4.28318773               -2.48431984              -12.33550501
              26.93239962                5.57054440               85.55184659                0.00010000                1.30479051               -1.26528776               -2.77234889               -3.53836543               -2.11975750              -15.84349924
              27.94910578                5.03177686               85.13822965                0.00010000                1.90243942               -1.13384325               -3.84363762               -2.05171246               -1.38419357              -18.96370586
              28.97044841                4.49958735               84.73020845                0.00010000                2.13426298               -0.50838306               -4.41235977               -0.49386347               -0.35085475              -21.38986339
              19.48243761               10.90496340               88.75379866                0.00010000                0.02402405                0.07848488               -0.21966007               -0.01143447                0.00406905                0.62276449
              20.48267785               10.36874397               88.33749648                0.00010000               -0.00166905               -0.02259021                0.04109975               -0.04577673                0.03896240               -0.20524585
              21.48240423                9.83203495               87.92202313                0.00010000               -0.86817295               -0.15568736                0.25812657               -0.69912142               -0.49475461               -1.08061768
              22.46531439                9.28267358               87.49478916                0.00010000               -1.70388984               -0.26639256                0.59822430               -1.70530227               -1.49046048               -2.21372210
              23.44832643                8.73826868               87.06318123                0.00010000               -1.54009946               -0.38185187                0.43539027               -2.24351876               -2.56116441               -3.74297719
              24.43451240                8.19428416               86.62369177                0.00010000               -1.08350388               -0.36673545               -0.30279531               -2.99534813               -3.88039056               -5.72864365
              25.42665636                7.64957735               86.17691291                0.00010000               -0.34403047               -0.28141213               -1.57081414               -3.52209144               -4.89576247               -8.16753674
              26.42763179                7.10535309               85.72685019                0.00010000                0.63623253               -0.17943135               -3.21930807               -3.56907774               -5.16311621              -10.98384341
              27.43938101                6.56357986               85.27966056                0.00010000                1.68571122               -0.06786613               -5.01140973               -3.07953865               -4.44338246              -13.96977796
              28.46134602                6.02653648               84.84188312                0.00010000                2.47547945                0.16275311               -6.56287649               -1.94054633               -2.62937925              -16.70079218
              29.48889059                5.49988466               84.42032076                0.00010000                2.75445770                0.54372626               -7.38176050               -0.85876441               -0.96908442              -18.57019810
              20.01909329               11.90584055               88.61508662                0.00010000                0.02209302                0.08783008               -0.20494370               -0.01185594               -0.00504594                0.56329721
              21.01931422               11.36836033               88.19469366                0.00010000               -0.00659173               -0.04274364                0.05714742               -0.04454399               -0.01642031               -0.22702916
              22.01896146               10.83027267               87.77417299                0.00010000               -1.14708464               -0.17346989                0.30801752               -0.61229609               -0.81148425               -1.05150556
              22.99637253               10.28159103               87.33764816                0.00010000               -2.32524294                0.00337984                0.66855598               -1.43427612               -2.20530627               -2.00940843
              23.97245660                9.73733016               86.89371834                0.00010000               -2.22710515                0.12988168                0.38405904               -1.79805844               -3.68026281               -3.28365179
              24.95183043                9.19422477               86.43810522                0.00010000               -1.67274301                0.30347357               -0.64952928               -2.37611032               -5.42838480               -4.96707123
              25.93900174                8.65114708               85.97154523                0.00010000               -0.71022615                0.54045700               -2.36553180               -2.82141161               -6.77531987               -7.04242670
              26.93762590                8.10883533               85.49924975                0.00010000                0.53118562                0.81443744               -4.55731140               -2.90484678               -7.15257743               -9.40951964
              27.94962545                7.56918708               85.02976861                0.00010000                1.81820756                1.11108751               -6.88523707               -2.51124753               -6.16864645              -11.87162422
              28.97399006                7.03503192               84.57359454                0.00010000                2.84756583                1.43088257               -8.88101340               -1.55131127               -3.67735764              -14.07152214
              30.00657677                6.51046187               84.14161175                0.00010000                3.25867127                1.60581541               -9.95267057               -0.64439519               -1.49529643              -15.51906845
              20.55716093               12.90672000               88.47605552                0.00010000                0.01939191                0.08576691               -0.19897049               -0.00791377               -0.00714028                0.53627373
              21.55735485               12.36788910               88.05176672                0.00010000               -0.01166623               -0.04541953                0.06789767               -0.03462699               -0.02216214               -0.21809833
              22.55692761               11.82856555               87.62724576                0.00010000               -1.38917351               -0.16274424                0.33226711               -0.39221429               -1.01388201               -0.95597239
              23.52957138               11.28274117               87.18293098                0.00010000               -2.85980396                0.21648741                0.73645618               -0.97735130               -2.70394745               -1.72405791
              24.49973153               10.74086632               86.72926745                0.00010000               -2.81990502                0.54326870                0.36176013               -1.28844343               -4.45946980               -2.73669409
              25.47317328               10.20035363               86.26088904                0.00010000               -2.20569813                0.87075529               -0.90022908               -1.77076667               -6.53770574               -4.08460832
              26.45561756                9.66038649               85.77868762                0.00010000               -1.08392100                1.23926388               -2.96753864               -2.14903982               -8.14299591               -5.74647803
              27.45149486                9.12164184               85.28899549                0.00010000                0.36709504                1.65444985               -5.59022213               -2.22413689               -8.60591282               -7.62400048
              28.46295946                8.58580161               84.80242777                0.00010000                1.87750707                2.09048804               -8.36387231               -1.89101599               -7.44894574               -9.53241594
              29.48904500                8.05515414               84.33230408                0.00010000                3.10916612                2.47800902              -10.74080531               -1.11972314               -4.46057869              -11.18709456
              30.52514279                7.53200097               83.89263622                0.00010000                3.60977871                2.66090380              -12.06088309               -0.45375653               -1.90410440              -12.21600394
              21.09659682               13.90755589               88.33686613                0.00010000                0.01793124                0.08055322               -0.19925275               -0.00454463               -0.00664719                0.51480376
              22.09677613               13.36745194               87.90890217                0.00010000               -0.01658612               -0.03996535                0.07505284               -0.02205107               -0.01526589               -0.19483926
              23.09626510               12.82701779               87.48081157                0.00010000               -1.61256973               -0.14666368                0.34621942               -0.08035291               -1.07315189               -0.88811161
              24.06452474               12.28592078               87.03150447                0.00010000               -3.35949133                0.42936821                0.81642929               -0.38830852               -2.92361678               -1.38634625
              25.02907527               11.74819554               86.57107248                0.00010000               -3.38149076                0.91442025                0.39678248               -0.73229986               -4.92058503               -2.11874901
              25.99689492               11.21163988               86.09335217                0.00010000               -2.71712640                1.34254062               -1.02500064               -1.20505607               -7.28236682               -3.10878519
              26.97473274               10.67593236               85.59943148                0.00010000               -1.45834384                1.79072911               -3.35326974               -1.53260593               -9.11637480               -4.32923030
              27.96772804               10.14192433               85.09663878                0.00010000                0.17800449                2.29745289               -6.30547915               -1.58725417               -9.67106650               -5.69251437
              28.97829283                9.61099684               84.59732299                0.00010000                1.88340957                2.82263058               -9.42599073               -1.31749964               -8.39606480               -7.04229712
              30.00539624                9.08459210               84.11706053                0.00010000                3.27575690                3.27984677              -12.10659938               -0.75067030               -5.03632620               -8.14230483
              31.04380797                8.56367995               83.67221558                0.00010000                3.84117337                3.55506187              -13.62736809               -0.29581975               -2.20530065               -8.71853841
              21.63727793               14.90833106               88.19754325                0.00010000                0.01739950                0.07442745               -0.20343619               -0.00118291                0.00095766                0.48323353
              22.63745193               14.36708979               87.76618885                0.00010000               -0.02131138               -0.03320697                0.08062564               -0.01164199               -0.00655278               -0.17184062
              23.63685171               13.82563228               87.33470787                0.00010000               -1.84122349               -0.13082302                0.35861092                0.33010832               -0.95756513               -0.73827446
              24.60062746               13.29132854               86.88411899                0.00010000               -3.87426360                0.71147434                0.92786410                0.31904152               -2.82350176               -0.99843893
              25.55936643               12.75915472               86.42007177                0.00010000               -3.96460617                1.29572776                0.51813653               -0.24518622               -5.09104651               -1.44303170
              26.52133534               12.22720445               85.93636371                0.00010000               -3.23427198                1.70327221               -0.99316831               -0.73756710               -7.73615982               -2.07787342
              27.49468100               11.69620107               85.43427063                0.00010000               -1.83250214                2.17662197               -3.50154679               -1.00605510               -9.81461471               -2.85565447
              28.48468529               11.16759089               84.92200927                0.00010000               -0.03696484                2.73223622               -6.69618761               -1.03223768              -10.49575384               -3.71534813
              29.49394170               10.64225422               84.41342800                0.00010000                1.83315966                3.31155164              -10.07791836               -0.83488982               -9.15588407               -4.54074800
              30.52134849               10.12075107               83.92617107                0.00010000                3.35544994                3.81957701              -12.97875713               -0.45575684               -5.50015818               -5.12852880
              31.56105070                9.60310221               83.47864058                0.00010000                3.97022107                4.17014820              -14.62025339               -0.17256137               -2.45989576               -5.20589576
              22.17905570               15.90904444               88.05789185                0.00010000                0.01863725                0.07059435               -0.21114860                0.00104616                0.03059118                0.37801424
              23.17924208               15.36678780               87.62356501                0.00010000               -0.02135947               -0.03006630                0.08785018               -0.00405091                0.10616218               -0.16259016
              24.17862852               14.82440133               87.19075468                0.00010000               -2.09294782               -0.11900083                0.35640634                0.89537401               -0.62971182               -0.55645190
              25.13738312               14.30015027               86.74148746                0.00010000               -4.51664394                1.27307143                1.09907520                0.76116037               -2.46087774               -0.51835432
              26.08829564               13.77411009               86.27707301                0.00010000               -4.61429457                1.56316134                0.76719622                0.03625360               -4.99999406               -0.73985792
              27.04509723               13.24570532               85.79034025                0.00010000               -3.70352215                1.90997727               -0.77279534               -0.39125314               -7.98770268               -1.04110506
              28.01422519               12.71946480               85.28308135                0.00010000               -2.20335449                2.38796235               -3.39545787               -0.53031779              -10.36575689               -1.40446140
              29.00103014               12.19656905               84.76419570                0.00010000               -0.28951680                2.97361329               -6.76862958               -0.53412597              -11.24539591               -1.80340349
              30.00843486               11.67722787               84.24872876                0.00010000                1.72014885                3.58631386              -10.35617948               -0.42635902               -9.92035191               -2.17744065
              31.03543312               11.16098364               83.75634227                0.00010000                3.36098064                4.12175338              -13.42576514               -0.22818997               -5.99620059               -2.39971729
              32.07565447               10.64708291               83.30845761                0.00010000                4.02213539                4.48892993              -15.09609400               -0.07507807               -2.74867168               -2.11841496
              22.72181213               16.90974295               87.91663068                0.00010000                0.02018908                0.06985112               -0.22076861               -0.04980582                0.19515546                0.28983743
              23.72201402               16.36648846               87.48085055                0.00010000               -0.02077056               -0.02993370                0.08866296               -0.04733997                0.33318004               -0.15769720
              24.72139672               15.82325226               87.04781827                0.00010000               -2.79360598               -0.11490674                0.34880027                1.79189558                0.00153849               -0.48247376
              25.66614190               15.31678997               86.60517345                0.00010000               -5.34301327                1.66396979                1.40100171                1.23416266               -1.69466436               -0.32986033
              26.61453645               14.79041795               86.14244493                0.00010000               -4.89931672                1.63078575                1.18983551                0.05478310               -4.73286734               -0.46342280
              27.56815557               14.26540399               85.65516437                0.00010000               -4.06627727                1.96986714               -0.33118851               -0.01704763               -8.14100863               -0.56673848
              28.53321091               13.74396032               85.14507088                0.00010000               -2.59579349                2.44955221               -3.02969299               -0.01847008              -10.91101296               -0.65320623
              29.51623970               13.22706316               84.62156501                0.00010000               -0.61054904                3.04941077               -6.55007025                0.02196496              -12.08412655               -0.71967041
              30.52099993               12.71398050               84.10048073                0.00010000                1.53449750                3.67526279              -10.32879032                0.06265608              -10.91727861               -0.74564783
              31.54692965               12.20318614               83.60252964                0.00010000                3.31753324                4.22024977              -13.60035215                0.09466841               -6.85517110               -0.68210565
              32.58735059               11.69288081               83.15321099                0.00010000                4.04209449                4.57978933              -15.33185345                0.13907899               -3.44742620               -0.14865324
              17.74309778                7.04734937               90.30322249                0.00010000               -0.00133619                0.03707998               -0.11271537                0.02731025               -0.50863586                0.45245526
              18.74308442                6.50980642               89.89917923                0.00010000               -0.03808332               -0.01274012                0.06099497                0.02946497               -0.70478973                0.06538128
              19.74233612                5.97189119               89.49147897                0.00010000               -0.10353243               -0.05340370                0.23966854                0.02112927               -0.75543902               -0.05430738
              20.74101377                5.43319509               89.08620882                0.00010000               -0.17654772               -0.10868987                0.41401180               -0.03930722               -0.70680106               -0.29090178
              21.73880516                4.89283543               88.67898591                0.00010000               -0.20635801               -0.15051516                0.54868781               -0.04650543               -0.50463585               -0.17147871
              22.73688661                4.35099218               88.27751289                0.00010000               -0.13434684               -0.19651420                0.63374640               -0.06041029                0.05906469               -0.17232015
              23.73611823                3.80748530               87.88173618                0.00010000                0.02258190               -0.20661062                0.57723604               -0.12016514                0.54461592               -0.22247404
              24.73733825                3.26278869               87.49098238                0.00010000                0.15338574               -0.13484246                0.25331707               -0.25501003                0.71165473               -0.22808174
              25.73918594                2.71777269               87.10305336                0.00010000                0.17142637                0.04026180               -0.17982500               -0.24118666                0.44347010               -0.03767301
              26.74076678                2.17436012               86.71459300                1.00000000                0.23489089                0.20348974               -0.83711669               -0.09418329                0.25637057                0.02176378
              27.74388376                1.63165357               86.32484960                1.00000000                0.31169804                0.33866034               -1.17851299               -0.10181999                0.10319709               -0.17649371
              18.28091384                8.04772017               90.16313500                0.00010000                0.01943278                0.03935039               -0.13678922                0.00109702               -0.13709566                0.60254489
              19.28110817                7.50967902               89.75909643                0.00010000               -0.00303797               -0.01388003                0.03557051                0.00371792               -0.21365279                0.09653056
              20.28085308                6.97135715               89.35395362                0.00010000               -0.04797921               -0.05641013                0.19426310               -0.01475903               -0.23823287               -0.14950881
              21.28014858                6.43210819               88.94966525                0.00010000               -0.07057579               -0.11811284                0.33619444               -0.03966352               -0.15309685               -0.20559118
              22.27944156                5.89133028               88.54643847                0.00010000               -0.05955042               -0.15690846                0.43338436               -0.04773563                0.03764476               -0.09482912
              23.27895757                5.34902704               88.14710069                0.00010000               -0.02116207               -0.19145931                0.48541930               -0.05239279                0.35139446               -0.08823741
              24.27901832                4.80541920               87.75201977                0.00010000                0.03434426               -0.18407321                0.41286396               -0.06356008                0.61123503               -0.09565458
              25.27964446                4.26144026               87.36116251                0.00010000                0.09850189               -0.10928321                0.17984189               -0.10096761                0.73590173               -0.07484545
              26.28098836                3.71817531               86.97342445                0.00010000                0.16200223                0.04290583               -0.20709353               -0.07838400                0.67530134               -0.02753299
              27.28288450                3.17639502               86.58555187                1.00000000                0.22918729                0.18517505               -0.66857173               -0.00399126                0.42184796               -0.03262508
              28.28557211                2.63504018               86.19520645                1.00000000                0.26876018                0.31739125               -1.05348313               -0.02550346                0.21549978               -0.19703920
              18.81920203                9.04813638               90.02639988                0.00010000                0.03197758                0.05022242               -0.16519291               -0.00999883               -0.03788198                0.76265224
              19.81952181                8.50952882               89.61974096                0.00010000                0.02048709               -0.01199995                0.01398913               -0.01485263                0.00723099                0.11084131
              20.81961177                7.97076298               89.21449423                0.00010000                0.03627864               -0.05813975                0.17139309               -0.08077080                0.30640092               -0.43142503
              21.82024738                7.43083283               88.81432608                0.00010000                0.06599152               -0.47996414                0.25708870               -0.73033575                0.46836754               -1.09623377
              22.82093160                6.88969726               88.41419846                0.00010000                0.07512298               -0.63119981                0.32855392               -1.39748098                0.46816156               -1.99192825
              23.82174984                6.34716299               88.01638714                0.00010000                0.07510992               -0.77989034                0.35474197               -2.01298438                0.57766865               -3.37239680
              24.82243380                5.80380384               87.62199489                0.00010000                0.04064762               -0.93179111                0.29625393               -2.39407328                0.69071424               -5.19346666
              25.82256279                5.26060302               87.23141969                0.00010000                0.01148539               -1.07964833                0.13125515               -2.36680184                0.77608119               -7.34583082
              26.82266351                4.71863080               86.84394442                0.00010000                0.06296464               -1.21026001               -0.20320029               -1.84817114                0.80211060               -9.63604651
              27.82382208                4.17806362               86.45682271                0.00010000                0.17099307               -1.28310645               -0.53670979               -0.85260397                0.57504575              -11.65519073
              28.82608337                3.63800140               86.06615702                1.00000000                0.22612867               -1.18362140               -0.92634043                0.54601836                0.33658614              -13.05147844
              19.35792898               10.04872462               89.88953387                0.00010000                0.02555303                0.06878637               -0.17738300               -0.01607863                0.03930683                0.72256743
              20.35818451                9.50943902               89.47988573                0.00010000                0.00023371               -0.00944885                0.00514268               -0.02187579                0.06911272               -0.02139011
              21.35793365                8.97019435               89.07118293                0.00010000               -0.57884590               -0.09573256                0.16791241               -0.45358989               -0.04482216               -0.81247199
              22.34660759                8.42250891               88.65890840                0.00010000               -1.13859375               -0.59245676                0.74337549               -1.64803998               -0.51590598               -1.94114754
              23.33516178                7.87870628               88.24215757                0.00010000               -1.10081437               -0.83277268                0.81480821               -2.64613512               -1.48215809               -3.72787259
              24.32459131                7.33342923               87.81789582                0.00010000               -0.87324771               -1.02447118                0.38330574               -3.81149217               -2.64565530               -6.41309676
              25.31769683                6.78678337               87.38730381                0.00010000               -0.35549253               -1.24915153               -0.51771163               -4.57097646               -3.54056524               -9.99351318
              26.31748146                6.23984730               86.95371922                0.00010000                0.44337568               -1.51172885               -1.81304022               -4.61112683               -3.86684426              -14.25433823
              27.32656434                5.69397011               86.52163513                0.00010000                1.44901872               -1.78254483               -3.33768904               -3.77069126               -3.45102405              -18.75696218
              28.34646183                5.15073289               86.09582347                0.00010000                2.50262879               -1.95776902               -4.77529192               -2.09497424               -2.19377989              -22.75644167
              29.37661692                4.61136775               85.68023351                0.00010000                3.01550857               -1.65215764               -5.73616096               -0.14091115               -0.63733338              -25.65023102
              19.89745166               11.04951211               89.75180172                0.00010000                0.01629006                0.08391311               -0.17648042               -0.00819415                0.00077292                0.64553426
              20.89761456               10.50933985               89.33782536                0.00010000                0.00092173               -0.02028318                0.02703826               -0.02885716                0.01553301               -0.16453587
              21.89747009                9.96884833               88.92431336                0.00010000               -0.94199513               -0.14681971                0.20110040               -0.51304918               -0.36465555               -1.01501332
              22.87877465                9.41898369               88.50249318                0.00010000               -2.01907585               -0.22065681                1.02922681               -1.43718900               -1.39517812               -1.87929509
              23.85708857                8.87304180               88.07002428                0.00010000               -2.06658772               -0.32432517                1.05541140               -2.14465725               -3.11204082               -3.46683843
              24.83744290                8.32667357               87.62274146                0.00010000               -1.62461841               -0.35061528                0.22702590               -3.05849167               -5.11608650               -5.85584002
              25.82459621                7.77882081               87.16181367                0.00010000               -0.71446892               -0.35726425               -1.37972121               -3.72223085               -6.69925734               -9.00752242
              26.82315352                7.23036845               86.69286672                0.00010000                0.58839430               -0.36617310               -3.57979349               -3.87039548               -7.28658141              -12.73156385
              27.83636409                6.68297991               86.22478757                0.00010000                2.06857164               -0.35717757               -6.06016230               -3.39756891               -6.46177477              -16.65329965
              28.86452495                6.13890824               85.76843840                0.00010000                3.28156658               -0.24801167               -8.33570551               -2.14906419               -3.93830018              -20.22053179
              29.90199542                5.60495825               85.33616414                0.00010000                3.74704688                0.17606304               -9.76253770               -0.95915321               -1.55928803              -22.61167285
              20.43810963               12.05040288               89.61319784                0.00010000                0.01615182                0.08637558               -0.17034886               -0.00783804               -0.00706466                0.58328013
              21.43827114               11.50903336               89.19517137                0.00010000               -0.00404020               -0.03259131                0.04053774               -0.02861039               -0.02346039               -0.19487523
              22.43802882               10.96725796               88.77694687                0.00010000               -1.23004011               -0.15174402                0.24790859               -0.42790412               -0.62840850               -0.98810469
              23.41367034               10.41809577               88.34662064                0.00010000               -2.67250309                0.00100334                1.23351172               -1.15070884               -2.07432933               -1.73441962
              24.38457876                9.87221978               87.90083853                0.00010000               -2.80139363                0.10735884                1.19145110               -1.65749583               -4.34730365               -3.07733188
              25.35764247                9.32641693               87.43431135                0.00010000               -2.25107139                0.26087344                0.03342139               -2.37516564               -6.94939140               -5.11234453
              26.33955733                8.77963809               86.94857738                0.00010000               -1.08640121                0.47861883               -2.13918660               -2.94830325               -9.00285323               -7.78411409
              27.33591444                8.23252383               86.45116404                0.00010000                0.52579177                0.74865730               -5.06529881               -3.14548716               -9.75548310              -10.91903295
              28.35007317                7.68682655               85.95442194                0.00010000                2.27938813                1.07231051               -8.31907218               -2.81889488               -8.62233302              -14.21331757
              29.38150221                7.14577265               85.47421979                0.00010000                3.76303354                1.47085978              -11.28858020               -1.81248218               -5.26323878              -17.18980491
              30.42533384                6.61488901               85.02821225                0.00010000                4.38316309                1.77508498              -13.18297528               -0.77491810               -2.23204273              -19.21914083
              20.98003395               13.05123962               89.47420640                0.00010000                0.01533266                0.07960787               -0.16887655               -0.00499446               -0.00836646                0.54831594
              21.98018727               12.50868802               89.05235100                0.00010000               -0.00921740               -0.03273482                0.05079799               -0.02162430               -0.02437271               -0.18979080
              22.97984960               11.96581345               88.63026580                0.00010000               -1.46943052               -0.13574015                0.27240244               -0.24361758               -0.78663084               -0.90948288
              23.95079866               11.41900376               88.19300261                0.00010000               -3.21160486                0.17318791                1.39986153               -0.73694748               -2.52597373               -1.51396121
              24.91561750               10.87518898               87.73674396                0.00010000               -3.41386943                0.46051883                1.30427103               -1.15088052               -5.19697579               -2.59876187
              25.88252127               10.33189104               87.25503404                0.00010000               -2.80471347                0.79152890               -0.11057319               -1.73596202               -8.24575337               -4.23733034
              26.85952323                9.78839318               86.74974759                0.00010000               -1.47329806                1.20943109               -2.72235868               -2.21583269              -10.64904936               -6.37572095
              27.85305531                9.24534159               86.23002159                0.00010000                0.36070713                1.72176770               -6.21724698               -2.38999766              -11.52686069               -8.86583863
              28.86673737                8.70442612               85.71100878                0.00010000                2.35787710                2.30733950              -10.09026181               -2.12480599              -10.18947191              -11.45234155
              29.90021285                8.16832544               85.21223317                0.00010000                4.07634875                2.88853358              -13.63764593               -1.32092966               -6.21985645              -13.76323494
              30.94826435                7.64045995               84.75536200                0.00010000                4.80514943                3.26832669              -15.96766681               -0.56693975               -2.72313263              -15.32380290
              21.52311294               14.05199504               89.33500515                0.00010000                0.01518859                0.07178118               -0.17140345               -0.00287521               -0.00800731                0.52049471
              22.52326483               13.50837866               88.90955575                0.00010000               -0.01361064               -0.02818789                0.05746329               -0.01355765               -0.01817917               -0.16993372
              23.52284073               12.96454316               88.48396343                0.00010000               -1.68544814               -0.11970256                0.28675062                0.01020547               -0.79975505               -0.84720995
              24.48955586               12.42155953               88.04272354                0.00010000               -3.70834276                0.35092314                1.55833112               -0.23541643               -2.67654910               -1.24462596
              25.44867387               11.88143015               87.57938874                0.00010000               -3.99184189                0.78407171                1.44966172               -0.63231282               -5.67880503               -2.04945016
              26.40971903               11.34224750               87.08666853                0.00010000               -3.34418739                1.23976945               -0.14065310               -1.15540669               -9.09931376               -3.26259471
              27.38179012               10.80382671               86.56678165                0.00010000               -1.88187340                1.79719026               -3.07389271               -1.54502049              -11.80353543               -4.83238594
              28.37208156               10.26695919               86.03022021                0.00010000                0.14015400                2.48428749               -6.99786149               -1.67170516              -12.81099458               -6.63991804
              29.38459320                9.73297334               85.49442874                0.00010000                2.34841145                3.24897962              -11.34802847               -1.45469970              -11.33939980               -8.48265136
              30.41904979                9.20354333               84.98187261                0.00010000                4.25664093                3.98410377              -15.34758967               -0.87318572               -6.91844371              -10.05624690
              31.46972602                8.68025554               84.51723241                0.00010000                5.06762366                4.53042025              -18.03003339               -0.37367240               -3.08535189              -11.00830103
              22.06720920               15.05267524               89.19563456                0.00010000                0.01588032                0.06514983               -0.17703937               -0.00098029               -0.00083746                0.48364230
              23.06736800               14.50812426               88.76689059                0.00010000               -0.01681790               -0.02332869                0.06126997               -0.00720989               -0.01094311               -0.14872852
              24.06687284               13.96341940               88.33797977                0.00010000               -1.90823325               -0.10584969                0.29679714                0.34652454               -0.62355602               -0.70491182
              25.02920334               13.42602222               87.89678757                0.00010000               -4.22947872                0.59893449                1.74413648                0.35445713               -2.46817717               -0.91846261
              25.98228327               12.89087042               87.43011800                0.00010000               -4.60933786                1.11939578                1.68467373               -0.19652177               -5.81448559               -1.43115754
              26.93701658               12.35668643               86.93052323                0.00010000               -3.91860658                1.58257437                0.00668231               -0.68421422               -9.59937832               -2.21838688
              27.90391114               11.82433699               86.40050287                0.00010000               -2.32710030                2.21230118               -3.14217651               -0.97612618              -12.62698152               -3.21307265
              28.89047458               11.29502734               85.85174968                0.00010000               -0.14259470                3.00648336               -7.37582677               -1.04891242              -13.81117546               -4.34676354
              29.90105924               10.76940571               85.30368467                0.00010000                2.24961824                3.88568594              -12.07886055               -0.89270120              -12.27364670               -5.47399018
              30.93546694               10.24800751               84.78149343                0.00010000                4.31536111                4.72765542              -16.40407648               -0.51469717               -7.49126985               -6.33069276
              31.98736646                9.73106835               84.31254405                0.00010000                5.18995243                5.41268978              -19.31398705               -0.22332785               -3.39974671               -6.55406830
              22.61219530               16.05329804               89.05590152                0.00010000                0.01811706                0.06199329               -0.18599794                0.00023534                0.03102700                0.37435309
              23.61237647               15.50791209               88.62431814                0.00010000               -0.01610229               -0.02098123                0.06416762               -0.00246596                0.09345558               -0.14370434
              24.61187326               14.96242616               88.19399956                0.00010000               -2.15912398               -0.09532385                0.29368331                0.82180560               -0.20205091               -0.53458541
              25.56919399               14.43353822               87.75629176                0.00010000               -4.88970108                1.09397854                2.00972526                0.71461089               -1.91862164               -0.46992116
              26.51407923               13.90381807               87.29031184                0.00010000               -5.33129123                1.34520544                2.09060582                0.04488220               -5.60737383               -0.76914650
              27.46256817               13.37389899               86.78748401                0.00010000               -4.50762737                1.77259366                0.40162971               -0.34748169               -9.85544860               -1.13902498
              28.42392669               12.84807273               86.25108274                0.00010000               -2.82667898                2.43449972               -2.87719893               -0.49162549              -13.29512654               -1.59561616
              29.40603459               12.32708886               85.69372412                0.00010000               -0.50838373                3.28912439               -7.33279906               -0.52205644              -14.76014022               -2.11493612
              30.41375901               11.81068706               85.13643618                0.00010000                2.05293077                4.23341288              -12.30471517               -0.44278063              -13.26070252               -2.62233869
              31.44709320               11.29809643               84.60713039                0.00010000                4.26893876                5.13228232              -16.86868274               -0.25186499               -8.13582278               -2.95010044
              32.49913779               10.78850934               84.13732481                0.00010000                5.20445837                5.86855637              -19.86352389               -0.11312701               -3.77596475               -2.61276528
              23.15798581               17.05391511               88.91453573                0.00010000                0.02047521                0.06170718               -0.19741851               -0.04199680                0.19330409                0.28433670
              24.15819056               16.50770464               88.48158850                0.00010000               -0.01514905               -0.02074521                0.06042633               -0.03870057                0.30963223               -0.14315867
              25.15768283               15.96151292               88.05096459                0.00010000               -2.80434534               -0.09132397                0.28418189                1.59081498                0.60915704               -0.46572396
              26.10210365               15.44790180               87.62377450                0.00010000               -5.74313439                1.43635780                2.49276677                1.10404602               -0.71398248               -0.45664732
              27.04282014               14.91777452               87.16100594                0.00010000               -5.81456853                1.39564561                2.76728426                0.08591572               -5.14282181               -0.62446356
              27.98581228               14.39213830               86.65794352                0.00010000               -5.09656881                1.82393099                1.12468814                0.08703438              -10.01623872               -0.73500912
              28.94088876               13.87302698               86.11790716                0.00010000               -3.41965819                2.49542491               -2.23938636                0.12978401              -14.01954756               -0.82136128
              29.91741912               13.36080983               85.55430249                0.00010000               -0.98463554                3.37209743               -6.87567011                0.19080224              -15.90184222               -0.88777392
              30.92119605               12.85407397               84.98926367                0.00010000                1.75941231                4.33869051              -12.08677777                0.23587032              -14.63477917               -0.90604966
              31.95260736               12.35065316               84.45212195                0.00010000                4.15410311                5.25567230              -16.90747450                0.26969158               -9.33302453               -0.80892908
              33.00427811               11.84843948               83.98014414                0.00010000                5.16707495                5.99301383              -19.99362352                0.29266475               -4.76060601               -0.05577250
              18.14125831                7.19200270               91.30250675                0.00010000               -0.01397944                0.01976158               -0.03330064                0.01068315               -0.48775586                0.43425219
              19.14111851                6.65067058               90.89991400                0.00010000               -0.03772964               -0.01868933                0.08516992                0.01089158               -0.67545011                0.06482009
              20.14050372                6.10911047               90.49378042                0.00010000               -0.08304040               -0.05361791                0.21965405                0.00784692               -0.72139646               -0.05173059
              21.13945771                5.56722793               90.08995890                0.00010000               -0.15404479               -0.08538901                0.33704818               -0.03363851               -0.68702661               -0.28164467
              22.13742282                5.02434732               89.68391367                0.00010000               -0.20167866               -0.09596094                0.44138535               -0.04513498               -0.51124560               -0.14815631
              23.13542413                4.48069300               89.28297441                0.00010000               -0.16608843               -0.11219726                0.47130390               -0.05793154               -0.03830200               -0.13435232
              24.13410105                3.93627595               88.88629648                0.00010000               -0.08817808               -0.09910888                0.37731784               -0.09601839                0.30277095               -0.14198497
              25.13366057                3.39147668               88.49292087                0.00010000               -0.02095115               -0.04111272                0.15163634               -0.11914577                0.44962124               -0.12134242
              26.13368203                2.84689414               88.10140424                0.00010000                0.04795672                0.04890745               -0.16344713               -0.07537855                0.33464076               -0.06592278
              27.13461971                2.30280761               87.70796105                0.00010000                0.15318189                0.15628864               -0.55820920               -0.04569201                0.17744628               -0.00310589
              28.13674567                1.75887955               87.31421990                1.00000000                0.21259603                0.26835011               -0.91928503               -0.05578059                0.08087043               -0.15404056
              18.68269726                8.19220032               91.16215934                0.00010000               -0.00237105                0.03085516               -0.06026931               -0.00849708               -0.13597048                0.58269540
              19.68267355                7.65048369               90.75955764                0.00010000               -0.01968733               -0.01553082                0.05661058               -0.00861944               -0.21449313                0.09607861
              20.68230351                7.10857429               90.35579200                0.00010000               -0.05853258               -0.05397414                0.17443869               -0.01091211               -0.24544956               -0.14045678
              21.68150290                6.56637404               89.95275009                0.00010000               -0.10322868               -0.08123230                0.28071447               -0.02954727               -0.18026022               -0.20144247
              22.68023894                6.02338771               89.55035955                0.00010000               -0.13111959               -0.09507294                0.35784963               -0.03434290               -0.02371346               -0.08246025
              23.67888050                5.47957102               89.15121217                0.00010000               -0.12449574               -0.10248073                0.37101518               -0.03989806                0.24693783               -0.06514626
              24.67774902                4.93528486               88.75539831                0.00010000               -0.08602436               -0.08463375                0.29736208               -0.04677840                0.48643721               -0.05586805
              25.67716002                4.39106556               88.36259958                0.00010000               -0.02431213               -0.03072441                0.11876317               -0.04627497                0.64834049               -0.04097884
              26.67726278                3.84738321               87.97173579                0.00010000                0.05050312                0.05299350               -0.15861396               -0.01183408                0.60036417               -0.04992015
              27.67817008                3.30437050               87.57977225                0.00010000                0.14265688                0.15151631               -0.50600531                0.01358327                0.37182932               -0.02935416
              28.68011592                2.76156305               87.18571061                1.00000000                0.19458388                0.25580749               -0.83605316                0.00456997                0.20299766               -0.20150655
              19.22452162                9.19261981               91.02509810                0.00010000                0.00505344                0.05600216               -0.09605764               -0.01256973               -0.04529394                0.74955959
              20.22457216                8.65035997               90.61994788                0.00010000               -0.00632489               -0.00918757                0.02803389               -0.01139341               -0.00859297                0.11603098
              21.22439512                8.10803098               90.21605618                0.00010000               -0.02594075               -0.06282218                0.14313833               -0.00529051                0.25671233               -0.41209367
              22.22405334                7.56560329               89.81671101                0.00010000               -0.04280718               -0.32226028                0.22152780               -0.58342361                0.38778891               -0.73829004
              23.22353898                7.02244586               89.41721020                0.00010000               -0.06621582               -0.44018944                0.27960296               -1.34459336                0.36858228               -1.58608948
              24.22272902                6.47864338               89.01948259                0.00010000               -0.09340153               -0.63138982                0.28922873               -2.08781908                0.47819752               -3.20203898
              25.22167095                5.93458327               88.62457134                0.00010000               -0.10461546               -0.90992890                0.23585851               -2.58262115                0.64399133               -5.52993080
              26.22063672                5.39086220               88.23250452                0.00010000               -0.07652705               -1.25876999                0.09225829               -2.62237552                0.79915988               -8.37600381
              27.22014041                4.84795401               87.84221313                0.00010000                0.00374084               -1.64105999               -0.15819947               -2.05060736                0.84730426              -11.41384126
              28.22071153                4.30583794               87.45187736                0.00010000                0.11557718               -1.96690801               -0.45498758               -0.77482896                0.61144186              -14.10003415
              29.22245195                3.76399570               87.05771099                0.00010000                0.17404201               -2.24937274               -0.75967839                1.25406432                0.37244062              -15.94276815
              19.76696554               10.19332036               90.88805195                0.00010000                0.00689620                0.07951513               -0.11920149               -0.00783337                0.02449760                0.72566605
              20.76703450                9.65029994               90.47994297                0.00010000               -0.00055772               -0.00961768                0.00809419               -0.00489013                0.04321583                0.00431093
              21.76695438                9.10731784               90.07257782                0.00010000               -0.58074758               -0.10301216                0.11491950               -0.21614640                0.22736963               -0.76909681
              22.75541955                8.55992884               89.66783233                0.00010000               -1.33237049               -0.41139257                1.10773517               -1.25436795               -0.09738589               -1.20144569
              23.74030697                8.01458392               89.25241116                0.00010000               -1.52164188               -0.60974487                1.32727595               -2.53436276               -1.63668447               -2.92277658
              24.72498671                7.46694323               88.82354651                0.00010000               -1.32145947               -0.89457707                0.83383858               -3.99126880               -3.36288401               -6.10707530
              25.71387779                6.91708628               88.38281259                0.00010000               -0.68224719               -1.32149680               -0.31259801               -5.00890385               -4.74621101              -10.68900949
              26.71134177                6.36589016               87.93450995                0.00010000                0.36985546               -1.87926038               -1.99804951               -5.21173568               -5.39858340              -16.29605576
              27.72127489                5.81456201               87.48509281                0.00010000                1.76450199               -2.51134732               -4.01007709               -4.32121966               -4.98242613              -22.26991721
              28.74663181                5.26503234               87.04272381                0.00010000                3.38033895               -3.10542017               -5.98255871               -2.37472550               -3.23337086              -27.68159296
              29.78888167                4.71657560               86.61548523                0.00010000                4.22498656               -3.21616226               -7.42863129                0.14439577               -1.04158622              -31.59651537
              20.31040580               11.19421011               90.75026905                0.00010000                0.00710727                0.08905544               -0.12980341               -0.00227918               -0.00171746                0.65859171
              21.31047687               10.65016761               90.33803724                0.00010000                0.00187510               -0.01813801                0.01810252               -0.00889409                0.00089530               -0.12488715
              22.31044330               10.10597074               89.92604514                0.00010000               -0.93884817               -0.13798531                0.14937158               -0.24012723                0.08870280               -0.94146920
              23.29169991                9.55737543               89.51537369                0.00010000               -2.23029831               -0.17678162                1.65182227               -1.00725209               -0.71694024               -1.29003895
              24.26583733                9.01025096               89.08428946                0.00010000               -2.56493086               -0.27600367                1.94403711               -1.95553739               -3.31534712               -2.85237930
              25.24040129                8.46075184               88.62823229                0.00010000               -2.16456959               -0.36289644                1.01457374               -3.09902962               -6.23555416               -5.70579051
              26.22254594                7.90815333               88.14931849                0.00010000               -1.07375117               -0.47777007               -1.01479365               -3.96303307               -8.60614262               -9.73471765
              27.21892627                7.35327699               87.65525432                0.00010000                0.60139476               -0.62951762               -3.91236852               -4.25481766               -9.69050319              -14.63034513
              28.23457384                6.79772706               87.15845731                0.00010000                2.61385854               -0.79312477               -7.29308465               -3.83496508               -8.85118400              -19.87141089
              29.27120344                6.24372953               86.67516901                0.00010000                4.38397529               -0.87956436              -10.56141475               -2.48757251               -5.53551489              -24.75325573
              30.32225334                5.69967246               86.22507001                0.00010000                5.10499058               -0.48471982              -12.85924302               -1.15224228               -2.28744569              -28.17975235
              20.85500494               12.19510147               90.61167964                0.00010000                0.00910432                0.08344509               -0.13272154               -0.00149889               -0.00832858                0.59725272
              21.85509599               11.64993718               90.19550441                0.00010000               -0.00304612               -0.02293552                0.02869574               -0.01061028               -0.02544216               -0.15859209
              22.85494402               11.10455814               89.77913117                0.00010000               -1.20508493               -0.13057038                0.19262353               -0.17219480               -0.04945746               -0.91994880
              23.83099429               10.55639320               89.36231839                0.00010000               -2.85620998               -0.05081927                2.03690545               -0.73102279               -1.21941155               -1.26527929
              24.79781982               10.00906385               88.91754736                0.00010000               -3.29452702                0.00449548                2.33209111               -1.43923273               -4.57867229               -2.62226562
              25.76510375                9.45968530               88.43877365                0.00010000               -2.78639229                0.12490001                1.03519548               -2.33398366               -8.31065881               -5.06448469
              26.74209197                8.90753088               87.92876150                0.00010000               -1.42160304                0.32572323               -1.69959218               -3.06412039              -11.32583506               -8.47932851
              27.73667169                8.35329981               87.39794377                0.00010000                0.60155372                0.59959539               -5.55374853               -3.40305833              -12.66464082              -12.61095901
              28.75412305                7.79869952               86.86338717                0.00010000                2.91316387                0.95104599              -10.01707471               -3.17370740              -11.48896587              -17.05718419
              29.79493496                7.24744105               86.34782294                0.00010000                4.99139654                1.42535415              -14.32760392               -2.13635515               -7.17241291              -21.22196022
              30.85395098                6.70688120               85.87795225                0.00010000                5.90160165                1.84161511              -17.44375566               -0.94752769               -3.12358121              -24.30428738
              21.40070440               13.19587901               90.47267799                0.00010000                0.01035954                0.07180792               -0.13613345               -0.00048397               -0.00901299                0.55830399
              22.40080800               12.64970890               90.05278268                0.00010000               -0.00805108               -0.02117499                0.03782053               -0.00806979               -0.02377514               -0.15787209
              23.40054338               12.10335933               89.63269381                0.00010000               -1.41171268               -0.10992579                0.21624138               -0.05958359               -0.11084633               -0.85776941
              24.37257374               11.55635905               89.21092821                0.00010000               -3.33913979                0.04250488                2.33176175               -0.42221508               -1.51743422               -1.17226108
              25.33376058               11.01034087               88.75535288                0.00010000               -3.86595788                0.23843260                2.61940609               -0.96874258               -5.42061241               -2.30085721
              26.29525459               10.46324984               88.25867758                0.00010000               -3.30557786                0.56067480                1.03262205               -1.66305445               -9.73620057               -4.28163127
              27.26764903                9.91466780               87.72424045                0.00010000               -1.77790637                1.04992411               -2.24735448               -2.24812815              -13.20875988               -7.01566281
              28.25969646                9.36526890               87.16465056                0.00010000                0.46547095                1.70490363               -6.84293481               -2.53652160              -14.72900727              -10.30428484
              29.27695845                8.81674798               86.60062254                0.00010000                3.02990961                2.49841982              -12.15596841               -2.36514460              -13.33634107              -13.82859943
              30.32029465                8.27223662               86.05955116                0.00010000                5.37320185                3.33829283              -17.31878488               -1.54772476               -8.30644271              -17.13331784
              31.38442248                7.73650476               85.57328288                0.00010000                6.41278325                3.97253344              -21.16780312               -0.70166793               -3.70471976              -19.62611911
              21.94733547               14.19653763               90.33343806                0.00010000                0.01187915                0.06142654               -0.14139214               -0.00015893               -0.00845375                0.52651189
              22.94745427               13.64951368               89.91005144                0.00010000               -0.01166355               -0.01780387                0.04371103               -0.00490729               -0.01780862               -0.14347340
              23.94710220               13.10235962               89.48654658                0.00010000               -1.59429093               -0.09307097                0.23221308                0.08349220               -0.03558721               -0.80506134
              24.91556845               12.55724330               89.06267109                0.00010000               -3.77740135                0.15160062                2.58619876               -0.09875911               -1.51319374               -1.03324074
              25.87155418               12.01383250               88.60006571                0.00010000               -4.40263588                0.46337984                2.89782108               -0.53820105               -5.85129717               -1.90619803
              26.82751573               11.47089879               88.09053911                0.00010000               -3.82219109                0.93856972                1.11585123               -1.07974127              -10.63686464               -3.38500516
              27.79511036               10.92852936               87.53795363                0.00010000               -2.18273300                1.64853648               -2.55895406               -1.51175140              -14.49206405               -5.39036973
              28.78386107               10.38739788               86.95668155                0.00010000                0.23710416                2.59414088               -7.70723611               -1.71389615              -16.19270233               -7.77673100
              29.79985244                9.84866791               86.37036242                0.00010000                3.01813108                3.70094945              -13.66635919               -1.57122020              -14.66653948              -10.30354320
              30.84422369                9.31420691               85.81010874                0.00010000                5.57644484                4.83214081              -19.48873237               -0.99834917               -9.12037626              -12.60210189
              31.91138134                8.78633187               85.31161492                0.00010000                6.71576433                5.77118399              -23.92180402               -0.46090199               -4.12589996              -14.23199280
              22.49474912               15.19710754               90.19400247                0.00010000                0.01387363                0.05463478               -0.14893595               -0.00009535               -0.00157992                0.48562480
              23.49488786               14.64935283               89.76741425                0.00010000               -0.01327593               -0.01489392                0.04547744               -0.00253718               -0.01282508               -0.12702314
              24.49448360               14.10149791               89.34064381                0.00010000               -1.78810860               -0.08174131                0.23986771                0.27749523                0.24292590               -0.67393690
              25.45912569               13.55939106               88.91900172                0.00010000               -4.25712664                0.32608080                2.85826853                0.26202547               -1.11145413               -0.82245664
              26.40934107               13.01960847               88.45376524                0.00010000               -5.00813930                0.70033604                3.26368965               -0.19840425               -5.87877817               -1.41516197
              27.35896290               12.48202123               87.93649735                0.00010000               -4.42130774                1.23028662                1.39559660               -0.61341579              -11.11923111               -2.38470753
              28.32091491               11.94763853               87.37142710                0.00010000               -2.68414599                2.08094120               -2.53738943               -0.89486620              -15.39180271               -3.64531738
              29.30527998               11.41715171               86.77449273                0.00010000               -0.10949502                3.21598180               -8.07757495               -1.01293662              -17.33603664               -5.13340983
              30.31872501               10.89076697               86.17185078                0.00010000                2.86918657                4.52670957              -14.50668664               -0.91550936              -15.75853049               -6.68164718
              31.36266371               10.36887943               85.59808954                0.00010000                5.61147489                5.85730998              -20.79858860               -0.56170933               -9.79626225               -7.96455866
              32.43095451                9.85192844               85.09236084                0.00010000                6.82908014                7.04478267              -25.61874211               -0.27684896               -4.49870337               -8.51797585
              23.04284300               16.19763032               90.05417189                0.00010000                0.01701533                0.05268553               -0.15960574               -0.00027468                0.03150610                0.37266978
              24.04301315               15.64921580               89.62484836                0.00010000               -0.01145608               -0.01341295                0.04380379               -0.00077879                0.08537039               -0.12798413
              25.04261387               15.10072480               89.19662834                0.00010000               -2.01573728               -0.07451005                0.23494780                0.57296876                0.81395655               -0.51421054
              26.00269840               14.56376492               88.78168196                0.00010000               -4.88289780                0.66502416                3.23574151                0.49048195               -0.26910054               -0.42598609
              26.94495592               14.02783922               88.31888513                0.00010000               -5.77405246                0.84660045                3.85681889               -0.00452306               -5.46002836               -0.83155774
              27.88721735               13.49550453               87.79837284                0.00010000               -5.14366834                1.38817716                1.99904070               -0.28621803              -11.31873935               -1.27890383
              28.84208255               12.97014818               87.22553737                0.00010000               -3.33717297                2.31228662               -2.08199425               -0.41204696              -16.14625392               -1.84465082
              29.82047389               12.45171751               86.61753972                0.00010000               -0.61340088                3.54996082               -7.89568632               -0.46898545              -18.47837985               -2.51691201
              30.82981453               11.93920211               86.00263446                0.00010000                2.56770715                4.97187850              -14.67112970               -0.43022704              -16.97815162               -3.21114938
              31.87182804               11.43135311               85.41896862                0.00010000                5.49659042                6.40724986              -21.29359428               -0.26248012              -10.59996436               -3.71619854
              32.93974634               10.92722752               84.91118714                0.00010000                6.79183044                7.70991303              -26.28457971               -0.15557810               -4.96961540               -3.39044794
              23.59157267               17.19816125               89.91268231                0.00010000                0.02051360                0.05309270               -0.17279048               -0.03470060                0.19180708                0.28097991
              24.59177781               16.64908457               89.48205908                0.00010000               -0.00894058               -0.01312335                0.03579728               -0.03121087                0.29467199               -0.13219584
              25.59139386               16.10000771               89.05350191                0.00010000               -2.49784539               -0.07170830                0.22471843                1.05834758                1.91343709               -0.45050956
              26.54182090               15.57269154               88.65502879                0.00010000               -5.69414315                0.89266271                3.95515176                0.73888799                1.60774843               -0.67543905
              27.47751100               15.03654048               88.19779062                0.00010000               -6.54456634                0.87012580                4.86001123                0.11016975               -4.68345672               -0.88360986
              28.41092957               14.50978478               87.67765813                0.00010000               -6.05250054                1.42802512                3.08044547                0.23841123              -11.45128309               -0.99371669
              29.35646099               13.99388426               87.10028315                0.00010000               -4.20416137                2.37360777               -1.09792581                0.35615131              -17.06682385               -1.07181546
              30.32684635               13.48815093               86.48405161                0.00010000               -1.29880526                3.64334168               -7.13103316                0.45325927              -19.97101538               -1.13601787
              31.33048488               12.99020454               85.85874517                0.00010000                2.12711714                5.10024352              -14.20028546                0.51070979              -18.79448336               -1.14997540
              32.36938869               12.49702443               85.26438015                0.00010000                5.28046146                6.56713239              -21.14256455                0.55217311              -12.19634355               -1.02528193
              33.43609411               12.00612670               84.75333852                0.00010000                6.67054217                7.88991749              -26.26532331                0.54500397               -6.29284375               -0.02852989
              18.53852816                7.33672923               92.30255647                0.00010000               -0.02264111                0.00534931                0.03578995               -0.00440274               -0.45643115                0.41332933
              19.53830175                6.79181554               91.90088263                0.00010000               -0.03324389               -0.02488306                0.10498500               -0.00640240               -0.62903514                0.06297609
              20.53786329                6.24683341               91.49587205                0.00010000               -0.05808828               -0.05611536                0.19888885               -0.00295128               -0.66994706               -0.04605704
              21.53713999                5.70197982               91.09294978                0.00010000               -0.11492701               -0.06525870                0.26134498               -0.00905901               -0.64192838               -0.25797710
              22.53556475                5.15698054               90.68781362                0.00010000               -0.17011123               -0.05960070                0.34465947               -0.01346333               -0.48490734               -0.11956921
              23.53373776                4.61182961               90.28693897                0.00010000               -0.16687805               -0.06136846                0.34075664               -0.01495026               -0.07965496               -0.08991867
              24.53222718                4.06644194               89.88928254                0.00010000               -0.12574237               -0.04149549                0.24665334               -0.02801274                0.20124224               -0.08490397
              25.53122291                3.52100442               89.49401510                0.00010000               -0.06943040                0.00326238                0.07867446               -0.02745274                0.34585986               -0.07932585
              26.53083858                2.97579113               89.09978442                0.00010000                0.01385672                0.05768832               -0.16153229               -0.01800118                0.27555757               -0.06765827
              27.53150005                2.43067560               88.70342881                0.00010000                0.10724475                0.12160225               -0.39816792               -0.02536654                0.11644114               -0.02084611
              28.53298347                1.88559135               88.30646390                0.00010000                0.14834221                0.19276091               -0.65172857               -0.03123789                0.03036267               -0.13340198
              19.08339783                8.33678273               92.16192961                0.00010000               -0.02121845                0.02528649                0.00777626               -0.01817995               -0.12530735                0.55974338
              20.08318564                7.79156671               91.76022864                0.00010000               -0.03230953               -0.01757182                0.07541592               -0.02101784               -0.19584864                0.09343537
              21.08275164                7.24627225               91.35744239                0.00010000               -0.06049072               -0.05490556                0.15496516               -0.00599414               -0.22172914               -0.13290374
              22.08197583                6.70132723               90.95527954                0.00010000               -0.11232107               -0.04975139                0.22460288               -0.00892869               -0.15944507               -0.18475551
              23.08050522                6.15638454               90.55359546                0.00010000               -0.15591323               -0.05283448                0.28742002               -0.00721923               -0.01299956               -0.06990702
              24.07885756                5.61121593               90.15452099                0.00010000               -0.15727804               -0.05208691                0.28765900               -0.00713310                0.23150393               -0.04566249
              25.07735965                5.06602698               89.75796701                0.00010000               -0.12918870               -0.03254959                0.21568848               -0.00571824                0.44523605               -0.03631017
              26.07627379                4.52103704               89.36353777                0.00010000               -0.07683407                0.00840809                0.06884048                0.00111553                0.58077302               -0.03700002
              27.07582297                3.97636802               88.97025217                0.00010000                0.00362434                0.06029149               -0.14748927                0.01263768                0.53167711               -0.06056628
              28.07634628                3.43189162               88.57543177                0.00010000                0.09661868                0.12178890               -0.38627058                0.01019765                0.32097266               -0.03776285
              29.07775535                2.88751896               88.17848539                0.00010000                0.14090700                0.18900308               -0.61899052                0.00680593                0.16701286               -0.17866896
              19.62859659                9.33723496               92.02447873                0.00010000               -0.02047232                0.06421319               -0.03284454               -0.01513302               -0.04333127                0.72920017
              20.62839187                8.79146411               91.62030164                0.00010000               -0.03068537               -0.00654179                0.04166172               -0.00811755               -0.00534213                0.11555083
              21.62798289                8.24573530               91.21735699                0.00010000               -0.07713707               -0.07243978                0.11799455                0.06803680                0.25312458               -0.40578709
              22.62684913                7.70098479               90.81875663                0.00010000               -0.12256112               -0.07549592                0.18544358               -0.34803708                0.38433114               -0.14832522
              23.62553166                7.15592385               90.41979051                0.00010000               -0.14482365               -0.16065233                0.23089017               -1.19941099                0.36987178               -0.87162259
              24.62395266                6.61078787               90.02217172                0.00010000               -0.16199792               -0.43389474                0.23808384               -2.10291388                0.49071663               -2.76125429
              25.62229171                6.06579094               89.62671206                0.00010000               -0.15242322               -0.88854736                0.18436462               -2.75828911                0.66248368               -5.71431721
              26.62090419                5.52117258               89.23326486                0.00010000               -0.10274791               -1.49303339                0.05683447               -2.89191020                0.79501481               -9.46220204
              27.62023675                4.97699696               88.84078043                0.00010000               -0.01755650               -2.20202186               -0.13810885               -2.25911081                0.80776174              -13.54827000
              28.62055306                4.43311138               88.44772296                0.00010000                0.08140887               -2.90411210               -0.37660771               -0.62849203                0.57671472              -17.24000873
              29.62186492                3.88937141               88.05096345                0.00010000                0.13118631               -3.77202666               -0.59293981                2.25135272                0.35423850              -19.80026588
              20.17463688               10.33806699               91.88714984                0.00010000               -0.01139202                0.09106417               -0.06473879                0.00110521                0.01653398                0.71798104
              21.17452296                9.79143588               91.48004762                0.00010000               -0.00225951               -0.00917214                0.01348250                0.01104866                0.02626289                0.02242096
              22.17459169                9.24482346               91.07348132                0.00010000               -0.48482165               -0.11348484                0.07099016                0.11531233                0.77385806               -0.73138196
              23.16482653                8.69981731               90.68106310                0.00010000               -1.39388898               -0.11439670                1.61350343               -0.61547849                0.83069671                0.00040506
              24.14671391                8.15317149               90.26870309                0.00010000               -1.89471659               -0.25329174                2.03387217               -2.24439542               -1.47399544               -1.49491173
              25.12693220                7.60253803               89.83457259                0.00010000               -1.74523725               -0.67286262                1.47982009               -4.05826603               -3.92599475               -5.23837042
              26.11180917                7.04825603               89.38105185                0.00010000               -0.98513137               -1.38066966                0.05775511               -5.41010239               -5.95539681              -11.05070292
              27.10722957                6.49117637               88.91375823                0.00010000                0.34463952               -2.34224277               -2.09276494               -5.83140099               -7.09124029              -18.40958770
              28.11870196                5.93232758               88.44143359                0.00010000                2.20862105               -3.48698136               -4.74105703               -4.90890062               -6.82251714              -26.45806593
              29.15140199                5.37380938               87.97617230                0.00010000                4.57801922               -4.71836903               -7.46833666               -2.68001273               -4.61173333              -33.98028038
              30.21026234                4.81207842               87.53166088                0.00010000                5.88603519               -5.52376113               -9.61878720                0.55588327               -1.61270150              -39.76561756
              20.72188093               11.33905625               91.74920565                0.00010000               -0.00245482                0.09360079               -0.08503312                0.00527354               -0.00293104                0.66071658
              21.72185638               10.79128066               91.33818741                0.00010000                0.00133865               -0.01598978                0.01427027                0.00985844               -0.00555765               -0.08843054
              22.72190770               10.24346560               90.92730079                0.00010000               -0.78324257               -0.13065700                0.10646837                0.15250962                0.96384153               -0.86276655
              23.70619153                9.69869685               90.53552962                0.00010000               -2.19923319               -0.12908246                2.49967737               -0.32840958                0.74996184               -0.34153253
              24.67792303                9.15085802               90.10890503                0.00010000               -2.92443673               -0.22302206                3.14340834               -1.57650445               -2.99945360               -1.75047270
              25.64770279                8.59733062               89.64303293                0.00010000               -2.62358592               -0.39280450                2.11221725               -2.96987524               -7.07772991               -5.11933967
              26.62545132                8.03817755               89.14151779                0.00010000               -1.37490819               -0.65632399               -0.40560178               -4.04707768              -10.46745189              -10.22282117
              27.62020463                7.47432772               88.61461935                0.00010000                0.69872050               -1.01339752               -4.14214332               -4.50769140              -12.27423218              -16.63388414
              28.63942573                6.90725733               88.07892587                0.00010000                3.34986672               -1.44049642               -8.67169665               -4.19354992              -11.59114874              -23.69388569
              29.68720196                6.33874400               87.55721010                0.00010000                5.85093904               -1.84290400              -13.29277865               -2.81371348               -7.45354357              -30.54859816
              30.75644451                5.77889619               87.07897928                0.00010000                6.92425452               -1.57440179              -16.86953880               -1.36771865               -3.17670513              -35.82540094
              21.27029352               12.33993901               91.61054341                0.00010000                0.00172607                0.07955186               -0.09558618                0.00587604               -0.00843019                0.60384641
              22.27031078               11.79111608               91.19574529                0.00010000               -0.00339128               -0.01485561                0.02180723                0.00554406               -0.02295608               -0.12146437
              23.27022569               11.24221032               90.78079934                0.00010000               -0.97224320               -0.11114765                0.14488222                0.18495097                1.05072388               -0.84953064
              24.25086591               10.69723566               90.38735875                0.00010000               -2.68378181               -0.17455055                3.11757582               -0.09499432                0.62816197               -0.52662951
              25.21655006               10.14871105               89.94748035                0.00010000               -3.53253780               -0.21022664                3.85194014               -1.05104337               -4.13114299               -1.81399099
              26.18021516                9.59468194               89.45501525                0.00010000               -3.13397733               -0.14188347                2.40894284               -2.11872995               -9.26191256               -4.71774944
              27.15387051                9.03512955               88.91458554                0.00010000               -1.61096010                0.03551229               -0.98003764               -2.99248902              -13.49483830               -9.04400305
              28.14799596                8.47090842               88.34008907                0.00010000                0.82720868                0.30951985               -5.95285561               -3.48617258              -15.67353090              -14.45615776
              29.17041468                7.90351765               87.75408044                0.00010000                3.77464557                0.68107693              -11.94954557               -3.41364484              -14.64797667              -20.47527970
              30.22348887                7.33695130               87.18766771                0.00010000                6.60944546                1.23146392              -18.07438295               -2.43527867               -9.36725239              -26.40444524
              31.30260359                6.78059039               86.67933714                0.00010000                7.91147243                1.76893549              -22.99654151               -1.12299197               -4.16008631              -31.28301393
              21.81964430               13.34064728               91.47148374                0.00010000                0.00516513                0.06308951               -0.10326091                0.00480638               -0.00876293                0.56465775
              22.81969595               12.79098355               91.05310741                0.00010000               -0.00785799               -0.01192282                0.02926748                0.00423551               -0.02080875               -0.12518703
              23.81948714               12.24124265               90.63459063                0.00010000               -1.09525205               -0.08591956                0.16742380                0.17529659                1.15545578               -0.80284595
              24.79779091               11.69520584               90.23963785                0.00010000               -3.00156251               -0.22072307                3.56939358                0.01588940                0.63041338               -0.65488828
              25.75945589               11.14665349               89.78913209                0.00010000               -3.94406102               -0.19086107                4.34801738               -0.67415220               -4.83929870               -1.78424490
              26.71890969               10.59449295               89.27568648                0.00010000               -3.50404161                0.10228420                2.57400070               -1.44435151              -10.69562134               -4.15994370
              27.68937506               10.03888780               88.70480050                0.00010000               -1.84083033                0.68515550               -1.48580331               -2.10194657              -15.49682607               -7.62424086
              28.68209308                9.48051812               88.09316289                0.00010000                0.78674478                1.53369837               -7.40763118               -2.50930834              -17.92531190              -11.93566095
              29.70510995                8.92087887               87.46788941                0.00010000                3.96652853                2.60782912              -14.54163150               -2.48621532              -16.69692966              -16.73337526
              30.76142365                8.36337328               86.86585747                0.00010000                7.07982731                3.80058019              -21.88444110               -1.73515384              -10.63783402              -21.50312874
              31.84670650                7.81427490               86.33200593                0.00010000                8.52828456                4.79736718              -27.97555247               -0.83023416               -4.81532401              -25.53691914
              22.36971711               14.34120080               91.33217731                0.00010000                0.00830177                0.05033141               -0.11102775                0.00316991               -0.00773692                0.53108408
              23.36980013               13.79087763               90.91042997                0.00010000               -0.01038892               -0.00983378                0.03383779                0.00326692               -0.01498097               -0.11743396
              24.36950933               13.24049193               90.48860769                0.00010000               -1.20136335               -0.06918709                0.18334243                0.13001610                1.37009478               -0.76157295
              25.34577286               12.69282120               90.09444752                0.00010000               -3.28647137               -0.23218126                3.93232123                0.02319104                0.89884891               -0.73807807
              26.30377991               12.14489383               89.63734516                0.00010000               -4.33395217               -0.14528636                4.77209846               -0.41686926               -5.11605923               -1.67181926
              27.25909382               11.59672763               89.10898556                0.00010000               -3.89867479                0.33327983                2.77684908               -0.90003770              -11.53787318               -3.46035499
              28.22580641               11.04883266               88.51560257                0.00010000               -2.16375521                1.24795500               -1.76404536               -1.32202957              -16.80309260               -5.99589536
              29.21581871               10.50158239               87.87607549                0.00010000                0.60144057                2.54914241               -8.38540767               -1.59606766              -19.47375541               -9.11945695
              30.23783522                9.95567423               87.22110155                0.00010000                3.97855274                4.13109309              -16.37448166               -1.57188046              -18.13772585              -12.57329863
              31.29538977                9.41296291               86.59209796                0.00010000                7.31802252                5.82415925              -24.64905504               -1.07642579              -11.53251909              -15.94105915
              32.38419567                8.87653773               86.03879632                0.00010000                8.88059022                7.34308590              -31.65384306               -0.53535278               -5.28111151              -18.69460232
              22.92035404               15.34165391               91.19265584                0.00010000                0.01161187                0.04353958               -0.12065053                0.00106480               -0.00081309                0.48744792
              23.92047016               14.79078688               90.76780014                0.00010000               -0.01050778               -0.00850235                0.03353725                0.00161419               -0.01145084               -0.10805499
              24.92014388               14.23985890               90.34277712                0.00010000               -1.33086658               -0.06040353                0.19017870                0.07923971                1.79736531               -0.64521669
              25.89385283               13.69056222               89.95395295                0.00010000               -3.64659035               -0.19148846                4.29468772               -0.01644041                1.59239173               -0.72046376
              26.84721208               13.14374776               89.49539179                0.00010000               -4.84413650               -0.08661471                5.27403816               -0.24978950               -4.93925878               -1.40931964
              27.79697010               12.60115855               88.95843516                0.00010000               -4.45661887                0.52162544                3.19264280               -0.47267716              -11.90723702               -2.59103779
              28.75807970               12.06384690               88.34975508                0.00010000               -2.68199684                1.67455026               -1.65518526               -0.68146315              -17.69383005               -4.16750131
              29.74333016               11.53150097               87.69019818                0.00010000                0.21060634                3.28046733               -8.76374753               -0.83974851              -20.69137233               -6.10166036
              30.76229183               11.00350074               87.01355094                0.00010000                3.78507387                5.19477270              -17.36413913               -0.83563210              -19.34110259               -8.21987855
              31.81903164               10.47985646               86.36552166                0.00010000                7.32789822                7.22594720              -26.29297464               -0.56063276              -12.28954486              -10.14247312
              32.90884979                9.96113661               85.80016921                0.00010000                8.98181538                9.15924884              -33.90621442               -0.31634647               -5.70331491              -11.29769075
              23.47147248               16.34207159               91.05270940                0.00010000                0.01549422                0.04299722               -0.13315408               -0.00068200                0.03221239                0.37161431
              24.47162742               15.79070758               90.62519422                0.00010000               -0.00768476               -0.00737959                0.02738524                0.00032553                0.08153732               -0.11614266
              25.47131878               15.23928386               90.19869851                0.00010000               -1.50361123               -0.05516493                0.18300085                0.05609125                2.58109957               -0.49736301
              26.44155520               14.68899143               89.82100660                0.00010000               -4.15654992               -0.14314299                4.79430810               -0.00026195                2.85176228               -0.40208641
              27.38818779               14.14316153               89.36744822                0.00010000               -5.60070299               -0.07282075                6.07477397               -0.12608568               -4.18940624               -0.95296091
              28.32954114               13.60716013               88.82746482                0.00010000               -5.31765303                0.62674190                4.02745962               -0.17569364              -11.96692875               -1.48243990
              29.28183473               13.08232367               88.20944286                0.00010000               -3.50856158                1.91261087               -0.98806673               -0.24446472              -18.48233443               -2.16985740
              30.25936991               12.56719174               87.53581039                0.00010000               -0.45338199                3.67823621               -8.42761506               -0.32736784              -22.00091696               -3.03051973
              31.27276709               12.05956969               86.84301359                0.00010000                3.35856646                5.76761437              -17.46377821               -0.35119359              -20.78685757               -3.97791496
              32.32654124               11.55748185               86.18125851                0.00010000                7.12706760                7.97339904              -26.83603997               -0.23957325              -13.25377956               -4.75752991
              33.41530844               11.05972271               85.61163321                0.00010000                8.87672026               10.12147533              -34.73946984               -0.19317807               -6.27116300               -4.55233963
              24.02306842               17.34251386               90.91107992                0.00010000                0.01959816                0.04422686               -0.14752769               -0.02786313                0.19014228                0.27868466
              25.02326440               16.79063928               90.48230445                0.00010000               -0.00432826               -0.00682934                0.01550303               -0.02421455                0.28551016               -0.12483562
              26.02298186               16.23875560               90.05545896                0.00010000               -1.66472466               -0.05282504                0.17118573                0.01931085                4.10493386               -0.43847114
              26.98996991               15.68769936               89.70287754                0.00010000               -4.82300977               -0.12920725                5.80938970                0.01825821                5.69784395               -1.02934102
              27.92652166               15.14229134               89.25820617                0.00010000               -6.78379106               -0.08701891                7.47792486                0.13308875               -2.96444384               -1.28330694
              28.85429409               14.61369339               88.71955243                0.00010000               -6.66814285                0.65332509                5.54160639                0.46568357              -12.03029622               -1.37859536
              29.79315880               14.10209911               88.09594865                0.00010000               -4.73786508                1.97754451                0.41258167                0.70102313              -19.61492191               -1.43553081
              30.75953679               13.60506569               87.41168183                0.00010000               -1.40904805                3.78739559               -7.28895125                0.85438346              -23.88987141               -1.49498329
              31.76497784               13.11885302               86.70525796                0.00010000                2.72751822                5.92833365              -16.67732615                0.93401313              -23.10707912               -1.51153392
              32.81408715               12.63932444               86.02927066                0.00010000                6.77633356                8.18425931              -26.43853982                0.99024646              -15.30809141               -1.37198515
              33.90050451               12.16356612               85.45483767                0.00010000                8.64173626               10.38434127              -34.52496556                0.94377535               -7.98363823               -0.11768098
              18.93547737                7.48152302               93.30322255                0.00010000               -0.02551413               -0.00500844                0.08863361               -0.01692617               -0.42106557                0.39152167
              19.93522223                6.93323808               92.90201370                0.00010000               -0.02198763               -0.03046936                0.11663251               -0.02156282               -0.57497679                0.06020452
              20.93503762                6.38504864               92.49775819                0.00010000               -0.02723285               -0.06173706                0.18026587               -0.01341987               -0.61987277               -0.04421217
              21.93467758                5.83740887               92.09518580                0.00010000               -0.06510676               -0.05367892                0.19741191                0.01551496               -0.59025960               -0.22545776
              22.93373549                5.29039224               91.69080686                0.00010000               -0.11577308               -0.03795717                0.26017734                0.01628623               -0.44180498               -0.10032757
              23.93236211                4.74373058               91.28978954                0.00010000               -0.13428621               -0.03055476                0.24085403                0.01852504               -0.09707041               -0.06853302
              24.93104976                4.19720891               90.89122955                0.00010000               -0.11431146               -0.00797767                0.15621765                0.01443355                0.14780926               -0.05890471
              25.93007589                3.65084484               90.49449436                0.00010000               -0.06351451                0.02309688                0.02405960                0.01127139                0.27440425               -0.06169830
              26.92977947                3.10460547               90.09817360                0.00010000                0.00965835                0.05704073               -0.14616312               -0.00071735                0.21132061               -0.05375021
              27.93026905                2.55838478               89.69999769                0.00010000                0.07516392                0.09363136               -0.29351872               -0.01312087                0.07194033               -0.02091574
              28.93128275                2.01216853               89.30118533                0.00010000                0.10136985                0.13215973               -0.43960882               -0.01500780                0.00067999               -0.12489115
              19.48359305                8.48147293               93.16231486                0.00010000               -0.03492563                0.02302812                0.06120590               -0.02736459               -0.10899678                0.53498189
              20.48324379                7.93293339               92.76106596                0.00010000               -0.03875095               -0.01930360                0.08858973               -0.03384219               -0.16669808                0.08893685
              21.48281803                7.38443127               92.35889130                0.00010000               -0.05414322               -0.05861646                0.13515174               -0.00481529               -0.18417189               -0.12993903
              22.48216093                6.83687208               91.95724215                0.00010000               -0.10402662               -0.02778246                0.17239315                0.01051312               -0.11856924               -0.16055936
              23.48073750                6.29001267               91.55610795                0.00010000               -0.15109480               -0.02432328                0.21702737                0.01693967                0.01876317               -0.06377777
              24.47913903                5.74342503               91.15696535                0.00010000               -0.15502641               -0.01819406                0.20511339                0.01880817                0.22640538               -0.03955677
              25.47763697                5.19712913               90.75971208                0.00010000               -0.13243558                0.00015893                0.13903171                0.02142481                0.40604856               -0.03034713
              26.47649032                4.65107581               90.36397639                0.00010000               -0.08173205                0.02764279                0.02161328                0.02197468                0.51296248               -0.03785271
              27.47600233                4.10517588               89.96878601                0.00010000               -0.00670022                0.06008623               -0.13946165                0.01516789                0.46287062               -0.05543039
              28.47635632                3.55932109               89.57204684                0.00010000                0.06733000                0.09562257               -0.29609659                0.00540027                0.27239912               -0.03558658
              29.47734893                3.01349012               89.17333080                0.00010000                0.09926120                0.13231848               -0.43485776                0.00555250                0.13746373               -0.15886636
              20.03200917                9.48198358               93.02444121                0.00010000               -0.04221227                0.07400623                0.01843289               -0.01777610               -0.03562328                0.70294024
              21.03158705                8.93285201               92.62078111                0.00010000               -0.05032741               -0.00353980                0.05229262               -0.00613896                0.00976338                0.10995332
              22.03100262                8.38387632               92.21841607                0.00010000               -0.11403031               -0.08424345                0.09437624                0.12996216                0.27821020               -0.40951629
              23.02930644                7.83685322               91.82041988                0.00010000               -0.17406448                0.31459337                0.14478644                0.03401229                0.41941117                0.74988330
              24.02752133                7.28990578               91.42182801                0.00010000               -0.18423134                0.27792514                0.17393743               -0.84532245                0.40296871                0.26487491
              25.02562182                6.74336670               91.02424427                0.00010000               -0.18469254               -0.10552138                0.17349068               -1.88573307                0.51232868               -1.92199118
              26.02382748                6.19721209               90.62825863                0.00010000               -0.15765898               -0.79313254                0.12328727               -2.70108808                0.65649733               -5.64257994
              27.02246864                5.65139769               90.23364120                0.00010000               -0.09949702               -1.73659496                0.01813315               -2.93799939                0.75387228              -10.54660297
              28.02183754                5.10580719               89.83945095                0.00010000               -0.02029125               -2.89603109               -0.13158858               -2.23461494                0.73524496              -16.04708952
              29.02206281                4.56029723               89.44434521                0.00010000                0.06091001               -4.16907549               -0.30339360               -0.15893816                0.51172633              -21.21101909
              30.02305574                4.01481490               89.04585219                0.00010000                0.09929314               -6.01213553               -0.43896807                3.86684389                0.31236842              -24.95119922
              20.58150066               10.48295306               92.88675717                0.00010000               -0.02723877                0.10236437               -0.01908275                0.00967838                0.01319839                0.70056710
              21.58122828                9.93286259               92.48021262                0.00010000               -0.00423019               -0.00753380                0.01927187                0.02384379                0.01559742                0.03377367
              22.58141606                9.38274640               92.07399762                0.00010000               -0.22082823               -0.12394629                0.03759232                0.58383251                1.65846377               -0.69859869
              23.57681171                8.84316395               91.70010240                0.00010000               -1.20492435                0.36979577                2.27356681                0.43066182                2.40930934                1.82650848
              24.55731757                8.29557117               91.29308861                0.00010000               -2.13468270                0.32792372                2.94505837               -1.55128660               -0.86620493                0.77681742
              25.53411806                7.74131460               90.85314291                0.00010000               -2.08666821               -0.27221544                2.34299350               -3.68462914               -4.18567860               -3.57555749
              26.51558421                7.18126648               90.38396769                0.00010000               -1.24914159               -1.35244309                0.63643963               -5.35938474               -7.00782380              -10.89064495
              27.50913523                6.61634391               89.89265465                0.00010000                0.34131399               -2.85646129               -2.03621304               -6.02231599               -8.82756775              -20.49600710
              28.52241049                6.04725525               89.39027167                0.00010000                2.75173119               -4.73023492               -5.47394891               -5.10408751               -8.93471355              -31.35208309
              29.56416985                5.47593958               88.89335708                0.00010000                6.16199939               -6.95175365               -9.23160553               -2.69957481               -6.35858867              -41.93412459
              30.64565048                4.89324741               88.42310949                0.00010000                8.14806270               -8.96633587              -12.44616833                1.33703975               -2.37995573              -50.83834078
              21.13238367               11.48403087               92.74856839                0.00010000               -0.01130917                0.09736294               -0.04609262                0.01364306               -0.00278809                0.65282393
              22.13227058               10.93270133               92.33832265                0.00010000               -0.00028759               -0.01373539                0.01414213                0.02595898               -0.00595816               -0.05690317
              23.13237792               10.38139739               91.92817451                0.00010000               -0.35878331               -0.12343579                0.07274262                0.72383890                2.37047330               -0.78294885
              24.12509491                9.84424914               91.56536724                0.00010000               -1.70164836               -0.07057817                3.58842646                0.75658341                3.25934074                1.08619440
              25.09834495                9.29646425               91.14715763                0.00010000               -2.94304935               -0.15071026                4.66104336               -0.80519349               -1.90220802               -0.00071634
              26.06623392                8.73792239               90.67047663                0.00010000               -2.83672333               -0.43189199                3.53583611               -2.38293866               -7.32301636               -3.93783784
              27.04161048                8.17016323               90.14120645                0.00010000               -1.51001899               -0.89491854                0.49903515               -3.60583699              -11.92313701              -10.34259378
              28.03603354                7.59426847               89.57241146                0.00010000                0.92748156               -1.53553975               -4.18166430               -4.21948972              -14.71884829              -18.67429196
              29.06016011                7.01120249               88.98502338                0.00010000                4.30228063               -2.35124319              -10.11656389               -4.09159576              -14.49047300              -28.16570311
              30.12207916                6.42126216               88.40931344                0.00010000                7.75103830               -3.26174050              -16.54949625               -2.87754743               -9.63326385              -37.86560913
              31.21518088                5.83548818               87.88767923                0.00010000                9.31017237               -3.25265700              -22.02120904               -1.48940240               -4.21432536              -46.19827259
              21.68443259               12.48490032               92.60976792                0.00010000               -0.00516574                0.07537015               -0.06184737                0.01366263               -0.00730859                0.60317372
              22.68438093               11.93258788               92.19594056                0.00010000               -0.00437777               -0.00904270                0.01883050                0.01958614               -0.01783625               -0.08677301
              23.68434504               11.38027769               91.78202881                0.00010000               -0.37522074               -0.09516623                0.10561795                0.69543231                2.80998324               -0.77906086
              24.67687652               10.84175239               91.42466991                0.00010000               -1.84022907               -0.40383106                4.48389952                0.89124617                3.79297806                0.56106356
              25.64754045               10.29255697               90.99458616                0.00010000               -3.20581049               -0.58365430                5.74103573               -0.32472983               -2.65282275               -0.54690491
              26.61276031                9.73267676               90.48695251                0.00010000               -3.02095325               -0.59208611                4.14883837               -1.48745179               -9.35980401               -3.96631650
              27.58712139                9.16336811               89.90916074                0.00010000               -1.45270731               -0.44986396                0.05369915               -2.42090203              -14.99698710               -9.38893303
              28.58370616                8.58563311               89.27888666                0.00010000                1.32317462               -0.18496012               -6.18144547               -3.05349761              -18.29626632              -16.40714090
              29.61358488                8.00023039               88.62439626                0.00010000                4.93135278                0.19284365              -14.04072959               -3.23815890              -17.75221134              -24.51021338
              30.68233322                7.41070477               87.98633528                0.00010000                8.69127539                0.82408153              -22.57010511               -2.53469152              -11.68693683              -32.96461119
              31.78741039                6.82819427               87.41802142                0.00010000               10.50771713                1.54095065              -30.14117818               -1.21914010               -5.27662388              -40.72274077
              22.23728178               13.48553827               92.47061277                0.00010000                0.00031428                0.05434448               -0.07250544                0.01036209               -0.00733954                0.56673308
              23.23728493               12.93252048               92.05336803                0.00010000               -0.00798612               -0.00578046                0.02441672                0.01495612               -0.01581834               -0.09467854
              24.23712206               12.37949406               91.63604228                0.00010000               -0.33221859               -0.06680091                0.12717716                0.48967767                3.16444679               -0.74728166
              25.23064056               11.83617252               91.28231608                0.00010000               -1.80980423               -0.67928716                5.10947471                0.66142702                4.28050842                0.07951463
              26.20092598               11.28479116               90.84231322                0.00010000               -3.24834053               -0.92102808                6.45789306               -0.14686775               -3.04641488               -0.99467593
              27.16567374               10.72608066               90.31015759                0.00010000               -3.03449423               -0.68668728                4.48103997               -0.89423364              -10.59849415               -3.81614975
              28.14023609               10.16116595               89.69452438                0.00010000               -1.37862161                0.01443798               -0.42721562               -1.53371087              -16.89286969               -8.15110347
              29.13810131                9.59056926               89.01649793                0.00010000                1.50445904                1.11701717               -7.84605544               -2.04628798              -20.50973652              -13.73418728
              30.17032527                9.01505937               88.30978991                0.00010000                5.26600657                2.56550091              -17.18117675               -2.26674538              -19.81343026              -20.20687995
              31.24342144                8.43774379               87.62186233                0.00010000                9.27469038                4.25083833              -27.39044691               -1.76034291              -12.98339877              -27.05310861
              32.35581908                7.86630719               87.01377184                0.00010000               11.23976372                5.80411378              -36.73403279               -0.89606055               -5.95538571              -33.48708983
              22.79067541               14.48598721               92.33121750                0.00010000                0.00488491                0.03930666               -0.08211986                0.00663071               -0.00575614                0.53302637
              23.79072426               13.93247228               91.91072819                0.00010000               -0.00944293               -0.00465009                0.02731070                0.01035477               -0.01017321               -0.09392479
              24.79048655               13.37894167               91.49021343                0.00010000               -0.29581509               -0.04956523                0.14182868                0.14252041                3.57449020               -0.71921867
              25.78480796               12.82816664               91.14131751                0.00010000               -1.78958013               -0.88749049                5.57952492                0.14565152                4.94028873               -0.35262340
              26.75469495               12.27413641               90.69550768                0.00010000               -3.31535528               -1.17360747                7.01752816               -0.20379623               -3.03493652               -1.33792442
              27.71850085               11.71894302               90.14607609                0.00010000               -3.13681894               -0.71797245                4.78435110               -0.48492051              -11.22482994               -3.47531467
              28.69195857               11.16365687               89.50267272                0.00010000               -1.48069358                0.46411339               -0.70109736               -0.79651795              -18.04715940               -6.63254590
              29.68888698               10.60797345               88.78897339                0.00010000                1.45584386                2.24071699               -8.98281447               -1.12805511              -21.97192626              -10.66220257
              30.72107545               10.05154041               88.04287279                0.00010000                5.34957774                4.46989970              -19.41490829               -1.29988507              -21.22753395              -15.32713282
              31.79587854                9.49572154               87.31712764                0.00010000                9.56434627                6.95628175              -30.89123863               -1.02153797              -13.88439931              -20.20088243
              32.91236237                8.94427655               86.67853805                0.00010000               11.64838376                9.34152722              -41.58508437               -0.55579810               -6.43236645              -24.68590499
              23.34444426               15.48632440               92.19158946                0.00010000                0.00932981                0.03256597               -0.09360992                0.00241762                0.00155074                0.48758376
              24.34453756               14.93242748               91.76808499                0.00010000               -0.00830782               -0.00418188                0.02489744                0.00544404               -0.00727892               -0.09290494
              25.34427810               14.37850276               91.34444738                0.00010000               -0.30893536               -0.04229860                0.14777333               -0.30339187                4.19659377               -0.61885571
              26.33835885               13.81842271               91.00489548                0.00010000               -1.91022117               -1.06840234                6.02179652               -0.55038807                6.03070017               -0.63467933
              27.30607368               13.26131902               90.55924600                0.00010000               -3.59519902               -1.40853900                7.63856066               -0.33434369               -2.53765656               -1.44000831
              28.26645487               12.71172122               90.00035021                0.00010000               -3.53991922               -0.71022795                5.31658160               -0.17437577              -11.35150985               -2.85580149
              29.23527529               12.17044821               89.33832340                0.00010000               -1.93990988                0.84503004               -0.52726592               -0.21029458              -18.80029535               -4.78802629
              30.22765667               11.63538360               88.59921778                0.00010000                1.06520954                3.08250074               -9.39812870               -0.39965053              -23.14897812               -7.26004684
              31.25657949               11.10445736               87.82456800                0.00010000                5.12989360                5.81981910              -20.59963944               -0.54801804              -22.45632531              -10.11776121
              32.33025454               10.57686942               87.07223005                0.00010000                9.55068088                8.83659794              -32.94975001               -0.45326696              -14.67813615              -12.94507815
              33.44759310               10.05313774               86.41423655                0.00010000               11.73385590               11.86178629              -44.53428078               -0.31260427               -6.88427191              -15.06719224
              23.89851761               16.48663853               92.05150881                0.00010000                0.01371713                0.03347494               -0.10778613               -0.00087824                0.03320275                0.37017186
              24.89865479               15.93238864               91.62539606                0.00010000               -0.00470626               -0.00300429                0.01473197                0.00142968                0.08168170               -0.10878070
              25.89842349               15.37809570               91.20028836                0.00010000               -0.38354211               -0.03926812                0.13915349               -0.84743472                5.25856117               -0.48367896
              26.89098394               14.80679860               90.87756812                0.00010000               -2.18569603               -1.50299342                6.63928258               -0.87291747                7.84044987               -0.42650360
              27.85470957               14.24596563               90.44038061                0.00010000               -4.25499020               -1.59802859                8.64687790               -0.32932950               -1.31634993               -1.17033026
              28.80588414               13.70473846               89.87892203                0.00010000               -4.53096380               -0.68417836                6.38382476                0.03590736              -11.16610941               -1.77585608
              29.76409029               13.18055747               89.20577604                0.00010000               -2.94996572                1.08569295                0.35387294                0.08214350              -19.54564931               -2.58669610
              30.74688482               12.66962347               88.44898742                0.00010000                0.22694883                3.55623926               -8.90524479               -0.02688738              -24.57301004               -3.66770104
              31.76862927               12.16793679               87.65335889                0.00010000                4.56239998                6.55138827              -20.63602172               -0.14974949              -24.09819742               -4.94189661
              32.83813282               11.67245350               86.88224782                0.00010000                9.24721989                9.83454927              -33.55612788               -0.15159548              -15.79013847               -6.11488636
              33.95357367               11.18151227               86.21639774                0.00010000               11.54408422               13.21132161              -45.57997256               -0.20941091               -7.54363548               -6.18156445
              24.45292647               17.48699390               91.90973176                0.00010000                0.01825082                0.03553767               -0.12251522               -0.02176542                0.18758960                0.27693713
              25.45310898               16.93236739               91.48236914                0.00010000               -0.00035093               -0.00212452               -0.00027222               -0.01840600                0.28206590               -0.12167414
              26.45291945               16.37771740               91.05692562                0.00010000               -0.00392020               -0.03783011                0.12662252               -1.75063157                7.37388966               -0.43072773
              27.45303057               15.78836284               90.77121658                0.00010000               -2.56861110               -1.84357581                8.00540995               -1.21328470               12.01162615               -1.57648323
              28.40154723               15.22935844               90.34734912                0.00010000               -6.02247006               -1.66071829               10.51179234                0.16750654                0.50610109               -1.87643694
              29.33258117               14.69803765               89.78849026                0.00010000               -6.47570380               -0.67008087                8.38702412                0.80988481              -11.12110786               -1.93123008
              30.27203315               14.19216207               89.10853478                0.00010000               -4.64207832                1.16046025                2.22254880                1.21782308              -20.90462192               -1.94665444
              31.23973961               13.70650839               88.33827259                0.00010000               -1.06393432                3.68849200               -7.34002662                1.45163076              -26.89486398               -1.99805394
              32.25075447               13.23548513               87.52519865                0.00010000                3.69537728                6.75483369              -19.47786130                1.56512074              -26.97304853               -2.02795661
              33.31364715               12.77356041               86.73560936                0.00010000                8.72664351               10.11069101              -32.85634034                1.64538472              -18.35422916               -1.89238459
              34.42528734               12.31736417               86.06283921                0.00010000               11.16401849               13.58518939              -45.12292070                1.55174280               -9.69145790               -0.37717901
              19.33252455                7.62637503               94.30432915                0.00010000               -0.02579759               -0.01113313                0.12413657               -0.02687594               -0.38605441                0.36905710
              20.33226657                7.07491512               93.90321528                0.00010000               -0.01154095               -0.03370814                0.12059783               -0.03373739               -0.51709693                0.05735698
              21.33229373                6.52368294               93.49947737                0.00010000                0.00097785               -0.06673450                0.15884283               -0.01802930               -0.57083355               -0.05092081
              22.33228613                5.97335797               93.09689802                0.00010000               -0.00844106               -0.04760073                0.15147203                0.04461048               -0.54231978               -0.19723424
              23.33212491                5.42437181               92.69301716                0.00010000               -0.04562313               -0.02839792                0.19000049                0.04070532               -0.40175912               -0.08750395
              24.33137367                4.87610733               92.29175605                0.00010000               -0.08231775               -0.01372729                0.16306034                0.03713491               -0.11362735               -0.05828856
              25.33047855                4.32829877               91.89240689                0.00010000               -0.08033571                0.00921893                0.09037324                0.03405595                0.09763122               -0.04676940
              26.32976695                3.78080639               91.49449630                0.00010000               -0.04584479                0.03267532               -0.01346023                0.02884329                0.20963327               -0.05154668
              27.32956166                3.23349131               91.09686116                0.00010000                0.00800876                0.04907443               -0.12077309                0.01245826                0.14895537               -0.04776803
              28.32992713                2.68615899               90.69755844                0.00010000                0.05300723                0.06733856               -0.20756010               -0.00220159                0.02791270               -0.02132122
              29.33062180                2.13880259               90.29767172                0.00010000                0.06946743                0.08721776               -0.28909270               -0.00414998               -0.02863319               -0.11560598
              19.88371570                8.62626370               94.16315373                0.00010000               -0.04404614                0.02382141                0.09876442               -0.03457793               -0.09087558                0.50855298
              20.88327524                8.07457803               93.76200044                0.00010000               -0.04118476               -0.01993044                0.09497223               -0.04511970               -0.13326918                0.08351635
              21.88289201                7.52301560               93.36014543                0.00010000               -0.04437226               -0.06221441                0.11475542               -0.00407397               -0.14162268               -0.13260088
              22.88238780                6.97288196               92.95872741                0.00010000               -0.08673657               -0.01178827                0.12940382                0.03057610               -0.07329831               -0.13814494
              23.88115728                6.42408783               92.55793601                0.00010000               -0.13031306               -0.00655588                0.15359292                0.03649215                0.05190315               -0.06015862
              24.87978154                5.87597006               92.15862326                0.00010000               -0.13438464                0.00315764                0.13310910                0.03490344                0.22171074               -0.03843275
              25.87846958                5.32839096               91.76074765                0.00010000               -0.11612102                0.01924828                0.07547991                0.03546234                0.36987219               -0.02989538
              26.87745912                4.78113314               91.36397004                0.00010000               -0.07298238                0.03779358               -0.01498794                0.03067258                0.45254731               -0.03601887
              27.87700994                4.23398205               90.96746294                0.00010000               -0.01048224                0.05391013               -0.12492943                0.01876124                0.39575334               -0.04999779
              28.87724947                3.68683238               90.56950983                0.00010000                0.04633850                0.07108842               -0.21859883                0.00759678                0.22296424               -0.03415702
              29.87793671                3.13967476               90.16978824                0.00010000                0.06872359                0.08830723               -0.29375883                0.00806460                0.10742175               -0.14047967
              20.43520432                9.62685146               94.02484739                0.00010000               -0.05920396                0.08437259                0.05573840               -0.01978324               -0.02549266                0.67176250
              21.43461228                9.07451651               93.62134749                0.00010000               -0.06479994               -0.00041095                0.05889290               -0.00467931                0.02954740                0.10069106
              22.43390832                8.52243865               93.21924452                0.00010000               -0.13934340               -0.09612757                0.07284876                0.17924390                0.31487491               -0.41875536
              23.43182541                7.97312220               92.82165236                0.00010000               -0.20708360                0.92590817                0.10165588                0.66679857                0.46736766                2.03783864
              24.42976665                7.42424070               92.42326926                0.00010000               -0.20284022                0.96451920                0.11491027               -0.08798468                0.44298607                1.93384062
              25.42776861                6.87617049               92.02564153                0.00010000               -0.18709656                0.44122298                0.10688831               -1.14994805                0.53230853               -0.56924030
              26.42602472                6.32868374               91.62917780                0.00010000               -0.14896489               -0.54478230                0.06329918               -2.04684302                0.64178528               -5.19835433
              27.42478931                5.78156226               91.23362752                0.00010000               -0.08935369               -1.93235812               -0.01606142               -2.35995524                0.70007518              -11.53040467
              28.42423764                5.23456951               90.83814866                0.00010000               -0.02014808               -3.71342810               -0.12250308               -1.58430881                0.65587355              -18.89495041
              29.42438635                4.68758076               90.44165509                0.00010000                0.04303377               -5.83368579               -0.23569181                1.00710735                0.44506371              -26.15853469
              30.42509832                4.14056873               90.04218409                0.00010000                0.07119708               -9.30950977               -0.30681971                6.55988164                0.26850951              -31.75624523
              20.98798995               10.62795115               93.88676819                0.00010000               -0.03954823                0.11252589                0.01556615                0.01748263                0.01206709                0.67521310
              21.98759446               10.07456982               93.48043305                0.00010000               -0.00593774               -0.00509194                0.02420224                0.03303557                0.00847959                0.03935528
              22.98787119                9.52109305               93.07423317                0.00010000                0.31636319               -0.13316121                0.01454482                1.25972812                2.94793293               -0.66997765
              23.99392173                8.99140012               92.72653444                0.00010000               -0.57609452                1.13655155                3.08038077                2.14274888                4.80976414                4.44802475
              24.97634930                8.44337822               92.32760426                0.00010000               -2.07910960                1.25527193                4.02534735               -0.08013864                0.39208516                4.10138429
              25.95233953                7.88479452               91.88143246                0.00010000               -2.21041743                0.42968914                3.38564208               -2.32289355               -3.83619561               -0.90576664
              26.93214095                7.31749531               91.39378065                0.00010000               -1.39826489               -1.12755538                1.42946217               -4.16397545               -7.51480259               -9.99656119
              27.92437424                6.74248598               90.87303397                0.00010000                0.35821543               -3.34761912               -1.75349043               -5.02802026              -10.23320171              -22.37249707
              28.93930526                6.15971349               90.33195461                0.00010000                3.35090796               -6.23754105               -6.10059169               -4.19253368              -11.08811608              -36.89512826
              29.99139240                5.57015866               89.79154019                0.00010000                8.19265692               -9.95635729              -11.23605212               -1.93672180               -8.43950700              -51.79252314
              31.10315840                4.95348457               89.28273751                0.00010000               11.17660023              -14.02749616              -16.06129631                2.84899489               -3.36651058              -65.65433267
              21.54231665               11.62910198               93.74828380                0.00010000               -0.01855477                0.10034763               -0.01505070                0.02187544               -0.00177316                0.63682242
              22.54213110               11.07441467               93.33847025                0.00010000               -0.00220362               -0.01172870                0.01567303                0.03860759               -0.00302652               -0.03180027
              23.54227258               10.51977543               92.92875565                0.00010000                0.51320594               -0.11658610                0.04689774                1.56316905                4.41778562               -0.70797323
              24.55239522                9.99585323               92.60729815                0.00010000               -0.37515471                0.00539816                4.88621974                2.49085498                7.10271344                3.10754946
              25.53476948                9.44934613               92.20212589                0.00010000               -2.26007881               -0.03804311                6.41161288                0.68863694                0.35495018                2.53597346
              26.50719364                8.88476427               91.71374966                0.00010000               -2.48578646               -0.45599338                5.19523364               -0.85542705               -6.40727251               -2.02337291
              27.48505375                8.30613263               91.15149850                0.00010000               -1.25914561               -1.17311767                1.68052686               -2.01493642              -12.25518665               -9.95705762
              28.48201073                7.71460988               90.53098607                0.00010000                1.38302684               -2.19034243               -3.93985023               -2.69265297              -16.31069084              -20.63152291
              29.51271429                7.10981869               89.87659460                0.00010000                5.49350521               -3.55833154              -11.48174041               -2.87698432              -17.03558194              -33.25255151
              30.59188083                6.48845361               89.22622018                0.00010000               10.13560582               -5.25242415              -20.28819022               -2.25336538              -11.84466221              -46.91751109
              31.71542641                5.86001881               88.63855510                0.00010000               12.35455706               -5.67207993              -28.56584256               -1.31645884               -5.31744068              -60.04717482
              22.09780207               12.62995811               93.60930647                0.00010000               -0.01089100                0.07151917               -0.03354517                0.02123040               -0.00514789                0.59623397
              23.09769316               12.07433524               93.19612190                0.00010000               -0.00530340               -0.00561618                0.01810200                0.03110926               -0.01135742               -0.05753836
              24.09769601               11.51876132               92.78291170                0.00010000                0.82374789               -0.08315202                0.07494743                1.43641446                5.35792455               -0.71400324
              25.11416812               10.99150809               92.47703674                0.00010000                0.17574989               -0.78523511                6.07575361                2.42954742                8.63091230                2.06430091
              26.10121100               10.44261736               92.06230107                0.00010000               -1.78618107               -1.17538413                7.86079016                1.00415837                0.33973297                1.25851874
              27.07844450                9.87567465               91.53799202                0.00010000               -1.96071939               -1.28589502                6.10412782               -0.05246974               -7.86868767               -2.72770801
              28.06199662                9.29403296               90.91565952                0.00010000               -0.58046912               -1.18894383                1.33780886               -0.84359770              -14.88188122               -9.42357886
              29.06683512                8.69867913               90.21646016                0.00010000                2.29626104               -0.94311181               -6.16511474               -1.54320019              -19.55662173              -18.37500931
              30.10792184                8.08854686               89.47326585                0.00010000                6.46449258               -0.57769741              -16.13928877               -2.14031488              -20.04178638              -29.12922944
              31.19612497                7.46511018               88.73626561                0.00010000               11.28884996                0.15325649              -27.77097258               -2.13054880              -13.73954491              -41.05575913
              32.33369884                6.84004297               88.07651358                0.00010000               13.75738664                1.19988277              -39.19364128               -1.08905209               -6.30492039              -53.19708149
              22.65398698               13.63053236               93.47003363                0.00010000               -0.00369159                0.04632646               -0.04575819                0.01592521               -0.00470375                0.56441278
              23.65395007               13.07430234               93.05359575                0.00010000               -0.00794823               -0.00265385                0.02199936                0.02437995               -0.00929659               -0.06901986
              24.65382802               12.51811239               92.63713417                0.00010000                1.15900339               -0.05294368                0.09521409                0.92799993                6.05127484               -0.69567720
              25.67713013               11.98014853               92.34182734                0.00010000                0.84290324               -1.41593749                6.86402425                1.64211645                9.81463179                1.05552769
              26.67068608               11.42583845               91.91828995                0.00010000               -1.12007456               -2.07073982                8.76273356                0.80047138                0.49604158                0.09895382
              27.65472864               10.85904637               91.36530728                0.00010000               -1.27543810               -1.93229686                6.55054947                0.27514903               -8.60984737               -3.20833321
              28.64517732               10.28235375               90.69625619                0.00010000                0.09520924               -1.08251133                0.82179220               -0.16647110              -16.30626984               -8.53590441
              29.65663283                9.69574764               89.93624179                0.00010000                2.91498109                0.34696786               -8.10773472               -0.73720057              -21.34295872              -15.62953021
              30.70347694                9.09826474               89.12426587                0.00010000                7.05704594                2.29033110              -19.92706266               -1.35102192              -21.77242027              -24.20986795
              31.79777375                8.49151874               88.31804854                0.00010000               12.01514193                4.67336833              -33.78660915               -1.41683642              -14.85368218              -33.86703183
              32.94377978                7.88401646               87.59732528                0.00010000               14.60060345                7.11559714              -47.76773788               -0.79879441               -6.90817247              -43.83091599
              23.21058061               14.63088463               93.33053491                0.00010000                0.00201240                0.02909627               -0.05650035                0.01010292               -0.00240869                0.53150847
              24.21060074               14.07428216               92.91097618                0.00010000               -0.00853974               -0.00207191                0.02337391                0.01672002               -0.00347625               -0.07491187
              25.21040982               13.51770245               92.49144427                0.00010000                1.43418263               -0.03527640                0.10904244                0.11722148                6.70841162               -0.68016094
              26.23928439               12.96318934               92.20603801                0.00010000                1.39563885               -1.92652551                7.41470518                0.30190933               10.99487419                0.11251594
              27.23832259               12.40120256               91.77769572                0.00010000               -0.59261036               -2.78818925                9.40940178                0.20787559                0.95430284               -0.91357454
              28.22743218               11.83702872               91.20467258                0.00010000               -0.81783359               -2.39248956                6.89561695                0.36570180               -8.81007250               -3.42048081
              29.22196592               11.27238273               90.50158062                0.00010000                0.43739685               -0.86853485                0.49202221                0.33093338              -17.05782634               -7.26463561
              30.23618012               10.70561849               89.69641920                0.00010000                3.15821865                1.52691809               -9.46603693               -0.02780447              -22.46116989              -12.35097784
              31.28513030               10.13435348               88.83280339                0.00010000                7.29282002                4.61973350              -22.63998523               -0.51824142              -22.94345994              -18.52215956
              32.38203652                9.55857754               87.97427319                0.00010000               12.37986076                8.21579886              -38.14767280               -0.69859763              -15.63983359              -25.40630345
              33.53272751                8.98235491               87.20709464                0.00010000               15.06909921               11.89583109              -54.00923256               -0.45368548               -7.34123091              -32.38166080
              23.76739398               15.63111429               93.19078364                0.00010000                0.00726710                0.02240445               -0.06930531                0.00373228                0.00538491                0.48487805
              24.76746665               15.07426091               92.76829809                0.00010000               -0.00643534               -0.00171722                0.01881157                0.00866689               -0.00041099               -0.08273233
              25.76726527               14.51740686               92.34573259                0.00010000                1.61007798               -0.02852063                0.11329010               -0.93673764                7.56194433               -0.59533791
              26.79966821               13.94161802               92.07438888                0.00010000                1.68694713               -2.45245408                7.90405640               -1.41723173               12.57805034               -0.60449387
              27.80100422               13.37007467               91.64816301                0.00010000               -0.44028530               -3.47753724               10.10043501               -0.41185803                1.89973846               -1.54718160
              28.79086251               12.81119658               91.06476679                0.00010000               -0.88989999               -2.67628770                7.49350493                0.41498635               -8.53420200               -3.19593365
              29.78320622               12.26498305               90.33920976                0.00010000                0.16217434               -0.60021865                0.68499533                0.69899266              -17.50322362               -5.49409578
              30.79410599               11.72628600               89.50223560                0.00010000                2.84734199                2.45822121               -9.95869532                0.49115439              -23.43656824               -8.57484463
              31.84015306               11.19065941               88.60155815                0.00010000                7.08471849                6.28738124              -24.06113899                0.09805828              -24.07029162              -12.33961181
              32.93580036               10.65583472               87.70652666                0.00010000               12.34991404               10.66136333              -40.67853176               -0.15316130              -16.40220357              -16.36584406
              34.08715134               10.12193308               86.90948360                0.00010000               15.13509754               15.25669279              -57.75439322               -0.21974510               -7.79184975              -19.89553992
              24.32436202               16.63133272               93.05055368                0.00010000                0.01194816                0.02462028               -0.08453559               -0.00091653                0.03432581                0.36735226
              25.32448150               16.07424782               92.62548886                0.00010000               -0.00220346               -0.00006259                0.00515833                0.00222589                0.08544195               -0.10624585
              26.32431795               15.51713204               92.20148158                0.00010000                1.68952242               -0.02701672                0.10362143               -2.28803172                8.96033555               -0.47280425
              27.35827195               14.91414026               91.95379225                0.00010000                1.80944641               -3.63726233                8.61225078               -2.26847479               15.06432105               -0.54215871
              28.36050688               14.33165181               91.54038578                0.00010000               -0.87242138               -3.96245396               11.28442070               -0.61357531                3.74449914               -1.53116973
              29.34082352               13.78350296               90.95514132                0.00010000               -1.98252632               -2.76321231                8.76173356                0.42751517               -7.98123001               -2.18337654
              30.32085635               13.26037836               90.21652032                0.00010000               -1.02483351               -0.36672622                1.75602210                0.66788843              -18.10345307               -3.09659584
              31.32032685               12.75478291               89.35770550                0.00010000                1.83431957                3.01241394               -9.32109450                0.52961959              -24.89179032               -4.41537896
              32.35754274               12.26010110               88.43029316                0.00010000                6.36863839                7.19774802              -24.03441140                0.25244723              -25.84821555               -6.08548167
              33.44769962               11.77180481               87.51013595                0.00010000               11.92965699               11.94594736              -41.34430300                0.04746574              -17.62969508               -7.77832354
              34.59613588               11.28748877               86.70003376                0.00010000               14.84362643               17.06032620              -59.02323010               -0.17838825               -8.52662063               -8.29891129
              24.88154546               17.63160669               92.90862962                0.00010000                0.01663993                0.02739692               -0.09861393               -0.01635989                0.18380766                0.27498980
              25.88171186               17.07425965               92.48229900                0.00010000                0.00333735                0.00118347               -0.01173174               -0.01397266                0.28320743               -0.12253861
              26.88161220               16.51686653               92.05799141                0.00010000                2.90335412               -0.02655106                0.09146807               -4.53991847               11.85838710               -0.42609603
              27.93977894               15.86887278               91.86298574                0.00010000                1.88789006               -4.52674809               10.36905294               -3.15134792               20.95968689               -2.39068575
              28.91937001               15.29082559               91.46844201                0.00010000               -3.45463376               -4.08262271               13.64105734                0.23929062                6.30550571               -2.72329411
              29.87068626               14.75593233               90.88729291                0.00010000               -4.70429845               -2.75706300               11.26830783                1.32742141               -7.80207790               -2.69234510
              30.82528404               14.25764853               90.14039962                0.00010000               -3.28553118               -0.27298303                4.10369271                1.97286599              -19.69825551               -2.63471043
              31.80497564               13.78653428               89.26488130                0.00010000                0.14480328                3.17513698               -7.30468890                2.31317098              -27.66060741               -2.67471946
              32.82818010               13.33461437               88.31570073                0.00010000                5.21931870                7.45132655              -22.45932043                2.47470528              -29.30340901               -2.73296918
              33.90936201               12.89475367               87.37214386                0.00010000               11.20177792               12.29488570              -40.28407425                2.59250151              -20.74146294               -2.62345815
              35.05221566               12.46313961               86.55237926                0.00010000               14.28536462               17.56508405              -58.26748826                2.44657178              -11.15047358               -0.84818392
              19.72998402                7.77125500               95.30570528                0.00010000               -0.02519481               -0.01292420                0.14270738               -0.03419863               -0.34906132                0.34496211
              20.72973207                7.21681491               94.90442566                0.00010000               -0.00229044               -0.03434053                0.11781031               -0.04258055               -0.45727637                0.05295956
              21.72993821                6.66269411               94.50093505                0.00010000                0.02796589               -0.06820022                0.12896322               -0.01843486               -0.51152409               -0.05552131
              22.73029139                6.10980542               94.09821524                0.00010000                0.04520326               -0.04505750                0.11560530                0.06681712               -0.48532826               -0.16882808
              23.73084228                5.55880447               93.69460687                0.00010000                0.02042266               -0.02470718                0.13684761                0.05499119               -0.36642673               -0.07748968
              24.73069984                5.00883038               93.29305075                0.00010000               -0.02900668               -0.00594889                0.10719063                0.04555321               -0.13417521               -0.05402370
              25.73026214                4.45959200               92.89303701                0.00010000               -0.04427797                0.01683098                0.04743154                0.04435156                0.04308245               -0.04311244
              26.72981428                3.91086642               92.49422515                0.00010000               -0.02828517                0.03577807               -0.03163299                0.04389636                0.14237413               -0.04459134
              27.72969644                3.36244654               92.09575814                0.00010000                0.01012307                0.04418728               -0.11122458                0.02757265                0.09393122               -0.05176611
              28.73001674                2.81405556               91.69584649                0.00010000                0.03935417                0.04857422               -0.15303271                0.00619764               -0.00741088               -0.02565878
              29.73048352                2.26562338               91.29540347                0.00010000                0.04667782                0.05447870               -0.18404935                0.00248517               -0.04571805               -0.10128620
              20.28408212                8.77112575               95.16429015                0.00010000               -0.04954119                0.02746888                0.12094500               -0.03967077               -0.07214866                0.47943243
              21.28358671                8.21647150               94.76296540                0.00010000               -0.04117562               -0.01908472                0.09468555               -0.05324254               -0.09855412                0.07611704
              22.28325861                7.66201211               94.36118641                0.00010000               -0.03411634               -0.06403214                0.09318823               -0.00298092               -0.09485664               -0.13352892
              23.28290438                7.10935484               93.95983022                0.00010000               -0.06894515               -0.00012280                0.09476270                0.04414751               -0.02559524               -0.11533252
              24.28187970                6.55855740               93.55917981                0.00010000               -0.10713867                0.00549337                0.10148212                0.04828324                0.08106995               -0.05520522
              25.28076161                6.00877090               93.15962753                0.00010000               -0.10960332                0.01711509                0.07521446                0.04312602                0.21436659               -0.03870074
              26.27968764                5.45976031               92.76122168                0.00010000               -0.09678161                0.03100010                0.02741345                0.04341826                0.33336769               -0.03155695
              27.27882597                4.91122420               92.36367663                0.00010000               -0.06550210                0.04296187               -0.03479854                0.04065515                0.39417111               -0.03356271
              28.27837760                4.36288842               91.96628742                0.00010000               -0.01678354                0.04849850               -0.10806249                0.02740540                0.33686122               -0.04635925
              29.27849030                3.81454131               91.56767486                0.00010000                0.02814823                0.05203116               -0.15826302                0.00958307                0.17909645               -0.03293854
              30.27894056                3.26616816               91.16745562                0.00010000                0.04502559                0.05586684               -0.19010360                0.00690629                0.07842967               -0.11699359
              20.83849910                9.77180437               95.02555598                0.00010000               -0.07182392                0.09475756                0.07929281               -0.02060847               -0.01475393                0.63568975
              21.83778086                9.21643321               94.62195897                0.00010000               -0.07519257                0.00277189                0.06149114               -0.00223635                0.05008069                0.08893038
              22.83699525                8.66141347               94.21987304                0.00010000               -0.15759071               -0.10881928                0.05481660                0.21922380                0.35163948               -0.42733628
              23.83462905                8.10980296               93.82245300                0.00010000               -0.23016824                1.85619066                0.06179850                1.71161951                0.51375429                3.78557910
              24.83239189                7.55891434               93.42412621                0.00010000               -0.21348014                2.00924150                0.06035689                1.38756357                0.48065685                4.20878877
              25.83035945                7.00917269               93.02638204                0.00010000               -0.18573448                1.31601234                0.04491844                0.58769111                0.54816353                1.37561238
              26.82867720                6.46021200               92.62952461                0.00010000               -0.14300834               -0.03728752                0.01026152               -0.17240068                0.62548791               -4.27352192
              27.82749928                5.91172566               92.23331998                0.00010000               -0.08748758               -1.98443946               -0.03829904               -0.46621190                0.65096312              -12.28718302
              28.82692745                5.36341651               91.83700089                0.00010000               -0.02853108               -4.59908318               -0.09764920                0.35674419                0.58064574              -22.01625957
              29.82692866                4.81509619               91.43963137                0.00010000                0.02202425               -7.95086381               -0.16534511                3.47153510                0.37952021              -32.19283242
              30.82736793                4.26674071               91.03971580                0.00010000                0.04392722              -14.11892100               -0.19626818               11.01370527                0.22459003              -40.64224068
              21.39441227               10.77302090               94.88706850                0.00010000               -0.04793826                0.12123311                0.03899718                0.02441384                0.01165543                0.64360276
              22.39393288               10.21652694               94.48069667                0.00010000               -0.00694662               -0.00283638                0.02797240                0.03860778                0.00327808                0.03991823
              23.39427334                9.65983572               94.07428851                0.00010000                1.28515086               -0.14270388                0.00278492                2.24310955                4.69823778               -0.64310090
              24.41963590                9.14647866               93.76171001                0.00010000                0.79939578                2.30474318                3.97986859                4.90281926                8.20985641                8.00770897
              25.41026125                8.59874223               93.37359555                0.00010000               -1.42090702                2.67862892                5.13555906                2.76065232                2.59363615                8.61121728
              26.39121776                8.03509114               92.92085575                0.00010000               -1.82873010                1.58613421                4.44518623                0.93143782               -2.33730353                2.90420795
              27.37368665                7.45901456               92.41255694                0.00010000               -1.24602674               -0.55344030                2.36178473               -0.64812940               -6.70084176               -8.17275598
              28.36629723                6.87153542               91.85758484                0.00010000                0.42276529               -3.67569223               -1.15544773               -1.54417301              -10.49788577              -23.77385943
              29.38214195                6.27090675               91.26825984                0.00010000                3.91497901               -7.92881450               -6.41489143               -0.93622337              -12.71867354              -42.88039407
              30.44459681                5.65552403               90.66863603                0.00010000               10.68918282              -13.84548345              -13.35301311                0.45898681              -10.69490406              -63.69144291
              31.59592561                4.98378974               90.10188356                0.00010000               15.13288039              -21.29860473              -20.64337890                5.66628577               -4.57789480              -85.22690831
              21.95197531               11.77422904               94.74826738                0.00010000               -0.02371061                0.10271325                0.00775622                0.02907028               -0.00061546                0.61466724
              22.95173820               11.21637649               94.33863611                0.00010000               -0.00347892               -0.01076616                0.01699592                0.04730097                0.00066027               -0.01400446
              23.95190573               10.65855939               93.92911246                0.00010000                2.10203651               -0.11083135                0.02577793                2.79183441                7.18429582               -0.64140516
              24.99377893               10.15589783               93.66309163                0.00010000                2.35433595                0.10152777                6.27104710                5.21985118               12.56501865                5.79785614
              25.99899245                9.61248692               93.27538989                0.00010000               -0.25315309                0.14105309                8.11992948                3.40580624                4.28268066                5.91804754
              26.98871587                9.04089537               92.77438131                0.00010000               -0.98610555               -0.42630833                6.77134291                2.37333111               -3.39519202                0.68050994
              27.97927034                8.44914320               92.17481699                0.00010000               -0.19961203               -1.44378591                2.95631846                1.73227101              -10.13498953               -8.95706961
              28.98472363                7.83821182               91.49361445                0.00010000                2.24720144               -2.93291037               -3.34123749                1.21835983              -15.62471729              -22.32360110
              30.02421437                7.20484022               90.75538857                0.00010000                6.92508882               -5.04661148              -12.49689324                0.53882294              -18.11896612              -38.77550047
              31.12322541                6.53818652               90.00354963                0.00010000               12.99739262               -7.88813975              -24.32797361               -0.21869092              -13.54306615              -57.76513623
              32.28416222                5.84076862               89.31636238                0.00010000               16.09368124               -8.91536385              -36.78566465               -0.49726836               -6.27545289              -78.15883165
              22.51069877               12.77507517               94.60909702                0.00010000               -0.01502220                0.06845225               -0.01176107                0.02805269               -0.00232258                0.58399684
              23.51054855               12.21631162               94.19630260                0.00010000               -0.00550430               -0.00453454                0.01797217                0.04020872               -0.00457455               -0.03543145
              24.51058868               11.65761910               93.78352776                0.00010000                2.97784265               -0.07557175                0.05167041                2.51039150                8.77209320               -0.65758076
              25.57010540               11.14850921               93.54618498                0.00010000                4.13955731               -1.38080156                7.70632164                4.79713395               15.46380437                4.00502537
              26.59337983               10.60156329               93.15180197                0.00010000                1.59613497               -2.05556658                9.82182427                3.32150936                5.47162219                3.61014040
              27.60202810               10.02656498               92.60903506                0.00010000                0.88178960               -2.28309635                7.82932793                2.76851206               -3.62504089               -0.98273842
              28.61101562                9.43013884               91.93591692                0.00010000                1.64696485               -2.23082223                2.59027848                2.51090433              -11.49007320               -9.07171644
              29.63496740                8.81287721               91.15558436                0.00010000                4.09640454               -2.00960954               -5.87491141                1.91722518              -17.64360836              -20.20692038
              30.69294371                8.16997452               90.30161048                0.00010000                8.46635985               -1.67578755              -17.96657604                0.68698890              -20.03245478              -34.15076803
              31.80429459                7.49776123               89.43091583                0.00010000               14.39361638               -0.78954731              -33.45760940               -0.72145344              -14.72277372              -50.63163096
              32.98081604                6.80548247               88.63414859                0.00010000               17.65214461                0.91695957              -50.45120881               -0.48088042               -6.89400894              -69.13129300
              23.07006346               13.77559808               94.46969760                0.00010000               -0.00650154                0.03960953               -0.02448671                0.02106761               -0.00105877                0.55758831
              24.06999845               13.21628580               94.05380802                0.00010000               -0.00737493               -0.00199598                0.02070774                0.03233537               -0.00172307               -0.04978668
              25.06991597               12.65704796               93.63794656                0.00010000                3.78894845               -0.04395304                0.07073379                1.55001350                9.87941466               -0.65095258
              26.14577742               12.12828179               93.41959657                0.00010000                5.87254526               -2.53268917                8.59249725                3.13381067               17.54866590                2.25880318
              27.18736687               11.57137558               93.01756789                0.00010000                3.48665695               -3.77857165               10.78926217                2.43591308                6.45336361                1.47698152
              28.21551056               10.99523344               92.44116858                0.00010000                2.79046603               -3.77455438                8.25107605                2.47687855               -3.46342801               -2.32547217
              29.24317619               10.40452675               91.71096023                0.00010000                3.38609480               -2.73641306                1.91361689                2.54129929              -11.92245540               -8.70299643
              30.28323245                9.79801963               90.85434324                0.00010000                5.49469633               -0.89585651               -8.19711250                2.01355724              -18.42924817              -17.47013903
              31.35307012                9.17132447               89.91124865                0.00010000                9.50279710                1.69152064              -22.49480321                0.78922467              -20.91094242              -28.54595621
              32.47328839                8.52239557               88.94613015                0.00010000               15.30160135                5.06780586              -40.80473284               -0.38603222              -15.33094683              -41.80039293
              33.65910214                7.85910781               88.05841708                0.00010000               18.58137504                8.95012744              -61.28918200               -0.37483537               -7.26614941              -56.64816792
              23.62974469               14.77586736               94.33008750                0.00010000                0.00006885                0.02025567               -0.03578675                0.01341381                0.00226196                0.52603327
              24.62974538               14.21627170               93.91119567                0.00010000               -0.00758679               -0.00128189                0.02109039                0.02273084                0.00535387               -0.06206837
              25.62959296               13.65674004               93.49239428                0.00010000                4.43543036               -0.02446355                0.08535080                0.05469832               10.81463623               -0.64832590
              26.71845399               13.09785543               93.28961162                0.00010000                7.27767437               -3.48515992                9.15793583                0.54819219               19.35064607                0.61861886
              27.77514644               12.52599186               92.88369572                0.00010000                4.99802572               -5.18451278               11.41992046                0.97710610                7.52080117               -0.43353477
              28.81841450               11.95107389               92.28398843                0.00010000                4.19544913               -4.89498190                8.52993884                1.93161212               -2.99249465               -3.28645269
              29.85905543               11.37541058               91.51251316                0.00010000                4.50131608               -2.94500743                1.43528313                2.42260040              -11.96472176               -7.81595666
              30.90844082               10.79496008               90.59965265                0.00010000                6.26484180                0.22903941               -9.84858342                2.08694095              -18.88122365              -14.04037570
              31.98435226               10.20380494               89.59007309                0.00010000               10.01748954                4.44254410              -25.74447213                1.09848791              -21.56417590              -21.96412375
              33.10879061                9.59911735               88.55417418                0.00010000               15.77712969                9.56471058              -46.08850893                0.08383573              -15.85032877              -31.36443848
              34.29989486                8.98448502               87.59835340                0.00010000               19.11042416               15.15900014              -69.01553414               -0.12622941               -7.58810001              -41.66812148
              24.18952306               15.77600319               94.19020335                0.00010000                0.00573264                0.01361155               -0.04923243                0.00515067                0.01034213                0.47896994
              25.18958039               15.21626016               93.76846122                0.00010000               -0.00484305               -0.00044472                0.01457125                0.01229165                0.00888713               -0.07910509
              26.18942620               14.65655869               93.34671319                0.00010000                4.89545255               -0.01796215                0.08803612               -1.89738536               11.91355900               -0.57898008
              27.28748944               14.05857860               93.16297661                0.00010000                8.21321651               -4.52484341                9.63237723               -2.69805873               21.48989787               -0.68835375
              28.35369053               13.46768533               92.76125470                0.00010000                5.86173159               -6.54643166               12.09485951               -0.40703760                9.03612610               -1.77908050
              29.40472407               12.89733381               92.15022031                0.00010000                4.70257386               -5.62645424                9.11193272                1.48258868               -2.14185530               -3.60968037
              30.44774201               12.34562661               91.35202330                0.00010000                4.59264224               -2.89874433                1.58370019                2.28341170              -11.91234956               -6.22415250
              31.49657692               11.80260041               90.40004388                0.00010000                6.15702966                1.18550600              -10.45868655                2.06920536              -19.47061925               -9.93078524
              32.57088260               11.26017536               89.34334522                0.00010000                9.88540567                6.41398203              -27.41889252                1.29858058              -22.43974446              -14.72941111
              33.69428503               10.71368978               88.25865941                0.00010000               15.74798128               12.60762380              -49.09085352                0.45600800              -16.50147597              -20.22966357
              34.88584223               10.16228781               87.25914869                0.00010000               19.15571977               19.40766866              -73.55098478                0.02734149               -8.00048956              -25.63137001
              24.74933378               16.77613959               94.04981809                0.00010000                0.01019453                0.01693127               -0.06436371               -0.00063923                0.03508940                0.36297163
              25.74943572               16.21626280               93.62549923                0.00010000               -0.00034829                0.00180838               -0.00207281                0.00360740                0.09259944               -0.10929879
              26.74932681               15.65638079               93.20236079                0.00010000                5.19652240               -0.01914309                0.07728512               -4.44649931               13.68647026               -0.46692957
              27.85336617               15.00735856               93.04981314                0.00010000                8.94618356               -6.82082272               10.37401230               -4.35166513               24.74743519               -0.80840549
              28.92825048               14.39506322               92.66606902                0.00010000                5.83794142               -7.44526197               13.38294266               -0.95770615               11.65227936               -2.08461140
              29.97012500               13.83854480               92.05415670                0.00010000                3.56032844               -5.87231282               10.51178311                1.11152037               -1.09349925               -2.71065280
              30.99945705               13.31743570               91.24089648                0.00010000                3.25755913               -2.69586728                2.79237610                1.64315222              -12.24826350               -3.66547349
              32.03527618               12.81867020               90.26256553                0.00010000                4.98887274                1.80309914               -9.69967644                1.46491550              -20.84418769               -5.21083766
              33.09923451               12.33208458               89.17267066                0.00010000                9.02610682                7.49176177              -27.31482711                0.95703762              -24.25825522               -7.32356773
              34.21579832               11.85126983               88.05536176                0.00010000               15.20055598               14.16928226              -49.76738632                0.42040750              -17.78523644               -9.64525221
              35.40324563               11.37263839               87.03593314                0.00010000               18.74473081               21.67108451              -74.98130307               -0.06490189               -8.77739663              -10.80487143
              25.30926385               17.77634182               93.90775948                0.00010000                0.01474832                0.02022278               -0.07634377               -0.01154173                0.17864591                0.27266868
              26.30941134               17.21629633               93.48213450                0.00010000                0.00683037                0.00335213               -0.01944298               -0.01073837                0.28897916               -0.12766726
              27.30940046               16.65617582               93.05875498                0.00010000                7.61811858               -0.02049695                0.06667835               -8.69934425               17.57243467               -0.42595789
              28.46177371               15.92216214               92.97859764                0.00010000                9.69748528               -8.51964183               12.52767879               -6.02903296               32.77200083               -3.55987109
              29.50335017               15.31878009               92.62017026                0.00010000                2.14041496               -7.62831346               16.20089441                0.39623874               15.04727904               -3.88108752
              30.50458201               14.77988755               92.01385642                0.00010000               -0.14352531               -5.86572546               13.46100467                2.09215941               -0.78331761               -3.68467625
              31.50047966               14.29170926               91.19060864                0.00010000                0.33221697               -2.57264365                5.56173052                3.04100327              -14.07163356               -3.50897796
              32.51122635               13.83866240               90.19217881                0.00010000                2.84720332                1.99921992               -7.25002199                3.51008309              -24.01948158               -3.53782372
              33.55742373               13.41001059               89.07601224                0.00010000                7.54565119                7.79260134              -25.28448630                3.73957357              -28.26178515               -3.64924805
              34.66213937               12.99707543               87.92992787                0.00010000               14.21916711               14.58056005              -48.26527452                3.91905087              -21.45135047               -3.58581093
              35.84180707               12.59570950               86.89748944                0.00010000               17.96676983               22.30711145              -73.83486563                3.71955181              -11.91205356               -1.54255518
              20.12810256                7.91610453               96.30718329                0.00010000               -0.02112923               -0.01028763                0.14371243               -0.03900463               -0.30863423                0.31859948
              21.12789127                7.35889481               95.90557149                0.00010000                0.00855474               -0.03277542                0.10652126               -0.05007381               -0.39673584                0.04647995
              22.12827366                6.80206979               95.50205664                0.00010000                0.05082351               -0.06627666                0.09741090               -0.02152905               -0.43802521               -0.04891211
              23.12890774                6.24675144               95.09921013                0.00010000                0.08436037               -0.04138899                0.08380753                0.07779293               -0.41080821               -0.13586778
              24.12996087                5.69367614               94.69575412                0.00010000                0.06761372               -0.02117568                0.10086422                0.05814276               -0.32784361               -0.06724830
              25.13026002                5.14187329               94.29389986                0.00010000                0.01024637               -0.00085360                0.07404315                0.04624953               -0.14916999               -0.05406060
              26.13016579                4.59106718               93.89335552                0.00010000               -0.01833529                0.02050398                0.02926843                0.04912005               -0.00566300               -0.04716687
              27.12989331                4.04101161               93.49386364                0.00010000               -0.01734246                0.03554587               -0.03227598                0.05486070                0.07187590               -0.04232748
              28.12981894                3.49139742               93.09463667                0.00010000                0.01201300                0.04146924               -0.10802149                0.04187176                0.03533982               -0.04469863
              29.13013357                2.94198907               92.69449778                0.00010000                0.03872640                0.03996551               -0.15435134                0.01672045               -0.03334285               -0.04373104
              30.13059347                2.39267257               92.29399073                0.00010000                0.04599018                0.03499972               -0.17774842                0.00338107               -0.04035761               -0.12896494
              20.68492223                8.91600165               96.16557263                0.00010000               -0.05143290                0.03411938                0.12761777               -0.04342445               -0.05347007                0.44709576
              21.68440790                8.35856706               95.76389415                0.00010000               -0.03960881               -0.01654823                0.08799496               -0.05945331               -0.06385481                0.06685211
              22.68413005                7.80140702               95.36200919                0.00010000               -0.02627025               -0.06399834                0.07254975               -0.00280411               -0.04433041               -0.12842165
              23.68388250                7.24633755               94.96062266                0.00010000               -0.05743423                0.01012760                0.06630186                0.04984741                0.02511068               -0.09019948
              24.68298137                6.69346439               94.55996565                0.00010000               -0.09277518                0.01622911                0.06220929                0.05085434                0.10965694               -0.04699539
              25.68202699                6.14186476               94.16012755                0.00010000               -0.09467658                0.02906096                0.03207385                0.04406496                0.20913314               -0.03930976
              26.68108784                5.59127222               93.76129592                0.00010000               -0.08750958                0.04054298               -0.00190843                0.04665260                0.29859602               -0.03575090
              27.68027680                5.04136706               93.36327407                0.00010000               -0.06694537                0.04493912               -0.03492190                0.04894341                0.32585687               -0.03319827
              28.67974893                4.49181211               92.96530169                0.00010000               -0.03068008                0.04372419               -0.08000981                0.03709405                0.26415741               -0.03556941
              29.67966320                3.94238873               92.56634457                0.00010000                0.00974275                0.03869347               -0.11669691                0.01693667                0.13522045               -0.03664385
              30.67994379                3.39302257               92.16598616                0.00010000                0.02805862                0.03117019               -0.13663795                0.00477355                0.05928252               -0.11408596
              21.24210325                9.91678691               96.02643324                0.00010000               -0.08064245                0.10550804                0.08981381               -0.02008255               -0.00421384                0.59510170
              22.24129683                9.35856385               95.62257732                0.00010000               -0.08280859                0.00619918                0.06037562                0.00175078                0.06968135                0.07563234
              23.24044708                8.80078982               95.22034085                0.00010000               -0.17247505               -0.12077072                0.04081424                0.25413460                0.38345216               -0.43078142
              24.23784733                8.24695399               94.82288833                0.00010000               -0.24981667                3.22890590                0.03133131                3.40701105                0.55268858                6.01550402
              25.23545075                7.69400072               94.42447640                0.00010000               -0.22569245                3.54372521                0.01643178                4.07977161                0.51278795                7.05143370
              26.23333348                7.14245451               94.02653990                0.00010000               -0.19271060                2.65073275               -0.00845989                4.12412016                0.56199751                3.86020759
              27.23159654                6.59187804               93.62938303                0.00010000               -0.15005940                0.87377981               -0.03012224                3.98815335                0.61191395               -2.83193262
              28.23033229                6.04191039               93.23286154                0.00010000               -0.10286862               -1.73263757               -0.04126168                3.94153403                0.59818455              -12.64073038
              29.22953917                5.49227190               92.83619568                0.00010000               -0.05352225               -5.40470913               -0.05936187                4.74921090                0.49986992              -25.20097648
              30.22926185                4.94276294               92.43834818                0.00010000               -0.00589509              -10.49885914               -0.09219105                8.26157305                0.30697050              -39.33664370
              31.22942126                4.39329597               92.03825872                0.00010000                0.01594164              -21.03613734               -0.10738614               18.31138608                0.17676988              -52.15029905
              21.80096671               10.91811181               95.88754813                0.00010000               -0.05267020                0.12899445                0.05183396                0.03110420                0.01187171                0.60794968
              22.80044001               10.35869104               95.48099250                0.00010000               -0.00720535               -0.00175986                0.03093438                0.04410960                0.00071198                0.03507082
              23.80082260                9.79899161               95.07428887                0.00010000                2.91859059               -0.15408711                0.00281412                3.66402565                6.92498030               -0.61934904
              24.85881182                9.31091567               94.80613181                0.00010000                3.41268422                4.01906984                4.84174512                9.24590584               12.76020563               12.56207085
              25.86907628                8.76433889               94.43031544                0.00010000                0.39101313                4.77499726                5.92962206                7.88232068                6.11804838               14.22157274
              26.86663208                8.19487941               93.97033619                0.00010000               -0.38406282                3.38703239                5.09116419                7.54690739                1.23435145                7.73836426
              27.86139503                7.60874782               93.44101634                0.00010000               -0.39592282                0.58766062                3.16141377                7.16795889               -3.12101469               -5.36109316
              28.85871362                7.00671431               92.84992502                0.00010000                0.62427846               -3.58860274               -0.17601726                6.67913069               -7.96897389              -24.34578143
              29.87388060                6.38371793               92.20365678                0.00010000                4.25784826               -9.56569323               -6.02769970                6.82789258              -12.55206117              -48.81032673
              30.94387059                5.73241154               91.52447992                0.00010000               13.56124225              -18.59459214              -15.25264944                5.96828746              -12.66203130              -77.46787729
              32.14510544                4.97229982               90.86986994                0.00010000               20.12348544              -31.43594131              -26.48260659               10.73235672               -5.95290435             -110.75672233
              22.36156687               11.91936680               95.74843892                0.00010000               -0.02676508                0.10480033                0.02250649                0.03507277               -0.00005519                0.58857746
              23.36129922               11.35852865               95.33881017                0.00010000               -0.00319524               -0.01181681                0.01747291                0.05361031                0.00279551               -0.00443449
              24.36150297               10.79770808               94.92927120                0.00010000                4.80594721               -0.11080027                0.00883158                4.56198132               10.66051443               -0.59077594
              25.45741817               10.32733539               94.73271909                0.00010000                7.38152274                0.20939942                7.46872526                9.40753857               19.85110465                9.13068268
              26.50913342                9.78950067               94.36452448                0.00010000                4.12222670                0.41516323                9.15168699                8.07884246               10.53577084               10.01200470
              27.53986270                9.21019516               93.84917651                0.00010000                2.69936956               -0.28234013                7.49584420                8.46636173                3.23516941                4.02448842
              28.56312081                8.60363125               93.21062487                0.00010000                2.45410488               -1.61462139                3.79254329                9.20969986               -3.21173485               -7.34761497
              29.58894480                7.97013833               92.46416132                0.00010000                3.86394871               -3.64511881               -2.40685511                9.34412746               -9.96319678              -23.51388974
              30.64039979                7.30095804               91.62665673                0.00010000                8.55504529               -6.70232541              -12.68401263                7.93967218              -15.49794261              -44.30565912
              31.76004570                6.57087110               90.73966071                0.00010000               16.19460289              -11.12572523              -28.20083232                4.44399530              -13.55831426              -70.10797862
              32.96429185                5.76457715               89.90284181                0.00010000               20.42461421              -12.84687031              -47.04141209                1.58298907               -6.60822285             -101.14087302
              22.92334446               12.92020782               95.60907124                0.00010000               -0.01735319                0.06634227                0.00315474                0.03359447                0.00105946                0.56720179
              23.92317093               12.35845471               95.19648134                0.00010000               -0.00444883               -0.00575573                0.01708484                0.04676059                0.00232931               -0.02066228
              24.92325549               11.79677560               94.78394511                0.00010000                6.59995347               -0.07406340                0.03318807                4.03868716               12.99765042               -0.61039276
              26.05517000               11.31510366               94.63116317                0.00010000               11.22689396               -2.27187157                8.97583374                8.34652528               24.47262109                6.30705594
              27.14779337               10.77264215               94.25873755                0.00010000                8.33293652               -3.30081685               10.78216391                7.15884356               13.50179439                6.36486894
              28.22182873               10.18923261               93.69457858                0.00010000                6.89262429               -3.63058017                8.33543825                7.80091425                5.16905000                1.15911380
              29.28564585                9.57645539               92.96746509                0.00010000                6.32203300               -3.59668373                3.10682999                8.75060353               -2.06163931               -8.30103279
              30.34826939                8.93381194               92.09896194                0.00010000                7.31477133               -3.39308819               -5.42798139                8.60153349               -9.37789104              -21.65691109
              31.43194128                8.24967142               91.11393433                0.00010000               11.04309963               -3.10375127              -19.05401871                6.45782464              -14.99007497              -39.12825561
              32.56913138                7.50989704               90.06711342                0.00010000               17.87059240               -1.93092841              -39.06925920                2.48158386              -13.10538881              -61.20683226
              33.78935313                6.71536241               89.06748940                0.00010000               22.02217427                1.11355733              -64.12359457                1.02609224               -6.36041034              -88.41803028
              23.48574498               13.92069365               95.46954389                0.00010000               -0.00783364                0.03458681               -0.00963636                0.02524108                0.00332211                0.54623962
              24.48566664               13.35841354               95.05400990                0.00010000               -0.00586117               -0.00335591                0.01936690                0.03816327                0.00649062               -0.03690820
              25.48562776               12.79622681               94.63854885                0.00010000                8.14077385               -0.04031480                0.05242405                2.42577670               14.54434305               -0.61290195
              26.64848212               12.28189796               94.51367729                0.00010000               14.62767929               -4.14609908                9.80091791                5.35416969               27.59417786                3.59442272
              27.77818134               11.72348433               94.13407519                0.00010000               12.17928140               -6.18985499               11.56661431                5.11270162               15.58215172                3.02694356
              28.89206775               11.13758356               93.53032880                0.00010000               10.76861062               -6.34923364                8.48260000                6.25746784                6.70107719               -1.20997399
              29.99355356               10.53169758               92.73452853                0.00010000                9.78458450               -5.07274330                2.07226875                7.30272141               -0.88133991               -8.54966612
              31.08775944                9.90227657               91.77229954                0.00010000                9.99588120               -2.73508018               -8.25572090                6.99558816               -8.47441559              -18.96180743
              32.19347118                9.23888301               90.67436981                0.00010000               12.81134730                0.66515087              -24.38344510                4.86799647              -14.38542953              -32.72694964
              33.34398639                8.53225253               89.50195388                0.00010000               19.02058804                5.44312386              -47.76014557                1.77917626              -12.81907477              -50.24091287
              34.57388294                7.78684829               88.37154164                0.00010000               22.98965552               11.64492288              -77.21466582                0.62227354               -6.31850466              -71.34017158
              24.04840950               14.92089955               95.32981918                0.00010000               -0.00084754                0.01347216               -0.02103100                0.01580830                0.00795500                0.51627339
              25.04840103               14.35838759               94.91139799                0.00010000               -0.00614538               -0.00191456                0.01941092                0.02688351                0.01638999               -0.05552978
              26.04828660               13.79596931               94.49315128                0.00010000                9.32974232               -0.01830315                0.06890759               -0.04062980               15.74382204               -0.62241804
              27.23499588               13.23218168               94.38919673                0.00010000               17.30376024               -5.71242677               10.25790529                0.96591383               30.04475547                1.08485843
              28.39436180               12.64884505               94.00609413                0.00010000               15.18844830               -8.56822909               12.01380203                2.31839771               17.38221363                0.03441895
              29.53876484               12.06224794               93.37527136                0.00010000               13.63227320               -8.43744288                8.54393827                4.56722592                8.06704873               -3.05217411
              30.66700727               11.47500052               92.53028629                0.00010000               12.11154409               -5.97904450                1.33980818                5.92222484                0.06911987               -8.13637467
              31.78099572               10.87911033               91.49944753                0.00010000               11.61589912               -1.87595750              -10.24832282                5.67930801               -7.96862086              -15.42745514
              32.89932525               10.26297444               90.31791394                0.00010000               13.78769512                3.72952999              -28.15506513                3.94603170              -14.28324938              -25.19239023
              34.05674963                9.61875952               89.05250301                0.00010000               19.66409105               10.89006734              -53.88300164                1.56337125              -12.95973611              -37.47997285
              35.29260707                8.94826087               87.82678395                0.00010000               23.58574437               19.24388287              -86.24131232                0.56413797               -6.48990967              -51.85654611
              24.61108508               15.92096309               95.18979899                0.00010000                0.00494833                0.00682370               -0.03448022                0.00581702                0.01586147                0.46988682
              25.61113456               15.35837525               94.76858951                0.00010000               -0.00320015                0.00004893                0.01143916                0.01437122                0.02116263               -0.08257424
              26.61102107               14.79586075               94.34749331                0.00010000               10.18950468               -0.01088306                0.07221371               -3.26394856               17.06305132               -0.56990968
              27.81492465               14.16764942               94.26703642                0.00010000               19.17309835               -7.49152826               10.62606971               -4.46122275               32.73917880               -0.96216679
              28.99448304               13.55211975               93.89006020                0.00010000               17.11660734              -10.89005146               12.55899219               -0.19838146               19.55615675               -2.17247259
              30.15725680               12.96883470               93.24700545                0.00010000               15.03263081               -9.82970699                9.01527112                3.26790878                9.63674430               -4.04525781
              31.29513566               12.41211669               92.37088377                0.00010000               12.80574449               -6.32584844                1.38412730                4.81988546                0.77301156               -6.82699506
              32.41337169               11.86475742               91.29306187                0.00010000               11.88034888               -1.03395543              -10.99111061                4.60150546               -8.02579798              -11.07958577
              33.53274263               11.31347361               90.05318030                0.00010000               13.82978434                5.89941470              -30.04286151                3.27763104              -14.78890848              -16.93892936
              34.68996738               10.75005388               88.72470958                0.00010000               19.67101785               14.44358955              -57.25145398                1.51175653              -13.44039429              -24.09267218
              35.92616299               10.17172595               87.43846390                0.00010000               23.61956144               24.23948592              -91.37949529                0.50911337               -6.83418226              -31.76101202
              25.17370153               16.92103603               95.04926641                0.00010000                0.00892589                0.01071013               -0.04800463               -0.00058312                0.03461336                0.35753357
              26.17379079               16.35838857               94.62544740                0.00010000                0.00159566                0.00302600               -0.00742505                0.00384988                0.10336931               -0.11834241
              27.17373345               15.79575165               94.20302729                0.00010000               10.78608141               -0.01508858                0.06051401               -7.52303841               19.21203783               -0.46714472
              28.38951242               15.08235111               94.16127249                0.00010000               20.77377261              -11.37715385               11.31353603               -7.29142989               36.80524196               -1.29258169
              29.58920890               14.43104403               93.80804463                0.00010000               17.73068293              -12.35591991               13.84675832               -1.30617721               23.06846922               -2.85850038
              30.74412608               13.86565380               93.16537698                0.00010000               13.91366775              -10.29976575               10.45024399                2.23821333               11.29047115               -3.31139379
              31.86748225               13.34848356               92.27236784                0.00010000               11.37714164               -6.20360195                2.65768539                3.15853721                0.81764420               -4.19079628
              32.97166891               12.85843123               91.16371197                0.00010000               10.60495797               -0.41030849              -10.13665911                2.91449446               -9.18729295               -5.91190894
              34.07958141               12.38096273               89.88399661                0.00010000               12.85317519                7.07363202              -29.82436334                2.08263917              -16.51408943               -8.47412206
              35.22873242               11.90763131               88.51478822                0.00010000               18.99318875               16.19256708              -57.82605911                1.04891457              -14.67758196              -11.48294611
              36.45944519               11.43305059               87.20040770                0.00010000               23.07127725               26.87249745              -92.81815152                0.17635148               -7.58430601              -13.44626861
              25.73636833               17.92117729               94.90710274                0.00010000                0.01276035                0.01412664               -0.05595855               -0.00747285                0.17187108                0.27061548
              26.73649594               17.35843577               94.48191015                0.00010000                0.01147135                0.00471988               -0.02332156               -0.01040134                0.30004227               -0.13746628
              27.73659776               16.79555898               94.05932498                0.00010000               14.86538704               -0.01926679                0.05369057              -14.63003965               24.28525407               -0.43308779
              29.03380368               15.94010635               94.11353931                0.00010000               22.42295262              -14.22447646               13.81671748              -10.09875574               47.29851484               -5.18208923
              30.18505681               15.30500135               93.79245990                0.00010000               12.53889301              -12.60426729               16.99934718                0.72144305               27.29474109               -5.37445614
              31.28458154               14.76283938               93.15651301                0.00010000                9.02360799              -10.28144129               13.67057607                3.19771060               11.67898031               -4.88379738
              32.36552897               14.28804465               92.25163423                0.00010000                7.73004340               -6.04389052                5.69370456                4.49026506               -1.18086403               -4.52746771
              33.43918240               13.85655125               91.11988086                0.00010000                7.98331824               -0.18799753               -7.33227281                5.09642927              -12.60976291               -4.56903685
              34.52519534               13.45494625               89.81001101                0.00010000               10.98377017                7.39835208              -27.29613555                5.42909066              -20.89785768               -4.78343330
              35.65885781               13.07390522               88.40683837                0.00010000               17.68280593               16.62739113              -55.72958298                5.72402168              -18.82165699               -4.79546785
              36.87885145               12.70917590               87.07568194                0.00010000               21.99936467               27.61253103              -91.09944992                5.46769481              -11.23797573               -2.43996246
              20.52703495                8.06084832               97.30857953                0.00010000               -0.01109360               -0.00305955                0.12614471               -0.04144019               -0.26651106                0.29064090
              21.52692401                7.50109919               96.90655608                0.00010000                0.02520580               -0.02964684                0.08523420               -0.05697495               -0.33709862                0.04000595
              22.52753906                6.94181075               96.50288327                0.00010000                0.07268655               -0.06512904                0.07364130               -0.03136715               -0.36406344               -0.03485786
              23.52837774                6.38426300               96.09989139                0.00010000                0.10283011               -0.03903491                0.05877162                0.06852308               -0.32489951               -0.09600599
              24.52959567                5.82903643               95.69662415                0.00010000                0.08686466               -0.01412258                0.07693397                0.04876848               -0.27293809               -0.05465349
              25.53011504                5.27529380               95.29453161                0.00010000                0.02947207                0.00508676                0.06143005                0.03646874               -0.13811859               -0.05502897
              26.53018511                4.72276787               94.89362238                0.00010000               -0.00721915                0.02499123                0.03554739                0.02805446               -0.02186135               -0.04821325
              27.52997065                4.17119902               94.49357963                0.00010000               -0.02080105                0.03633196               -0.00878090                0.00940132                0.02405816               -0.02616834
              28.52976909                3.62022252               94.09359771                0.00010000                0.00125825                0.03954938               -0.08930776               -0.00346809               -0.03311484               -0.01947432
              29.52999582                3.06948736               93.69275946                0.00010000                0.04606912                0.04706660               -0.20086799               -0.00702328               -0.09418478               -0.04675690
              30.53069047                2.51905322               93.29184850                0.00010000                0.06946509                0.05652363               -0.30483029               -0.02815821               -0.07286254               -0.18704581
              21.08636968                9.06081772               97.16684251                0.00010000               -0.04966327                0.04412952                0.11883198               -0.04691391               -0.03565840                0.41258639
              22.08587305                8.50080272               96.76472530                0.00010000               -0.03630957               -0.01258392                0.07566336               -0.06576944               -0.03103861                0.05787286
              23.08564349                7.94115946               96.36263741                0.00010000               -0.02114550               -0.06462926                0.05565322               -0.00579268                0.00548477               -0.11948716
              24.08545014                7.38387265               95.96115626                0.00010000               -0.05377676                0.01704467                0.04445552                0.04526344                0.07689022               -0.06155909
              25.08456795                6.82889520               95.56042399                0.00010000               -0.09180656                0.02783953                0.03330323                0.04362149                0.14580748               -0.03462781
              26.08361400                6.27534467               95.16026901                0.00010000               -0.10274542                0.04372006                0.00057244                0.03501537                0.22630842               -0.03975020
              27.08251304                5.72301778               94.76118351                0.00010000               -0.11383323                0.05425299               -0.01037521                0.03131995                0.29906099               -0.03682687
              28.08133734                5.17156234               94.36297819                0.00010000               -0.09614043                0.05305411               -0.02502385                0.01399544                0.30476504               -0.02143277
              29.08059023                4.62061802               93.96468722                0.00010000               -0.04135503                0.04096840               -0.05577563                0.00324010                0.23122825               -0.01918838
              30.08051024                4.06995803               93.56534092                0.00010000                0.01263985                0.03703001               -0.10149308                0.00048197                0.12236753               -0.03988815
              31.08084303                3.51961845               93.16472286                0.00010000                0.03327921                0.03988711               -0.16483427               -0.01436835                0.07627576               -0.15015465
              21.64612668               10.06173091               97.02735225                0.00010000               -0.08597957                0.11782471                0.08770582               -0.01877623                0.00553995                0.55183343
              22.64526688                9.50084751               96.62316648                0.00010000               -0.08867001                0.00963943                0.05606272                0.00603001                0.08701801                0.06155159
              23.64435328                8.94051817               96.22068933                0.00010000               -0.18598066               -0.13205368                0.03211673                0.28732656                0.40974176               -0.42799944
              24.64154727                8.38460389               95.82307963                0.00010000               -0.26785994                5.20083318                0.01224963                6.12191786                0.58297719                8.65773542
              25.63899608                7.82959322               95.42445485                0.00010000               -0.24272519                5.71151978               -0.01460438                8.77070978                0.54050755               10.17551571
              26.63669277                7.27616820               95.02621284                0.00010000               -0.22011222                4.59385729               -0.05542359               10.79247990                0.59730002                6.51900584
              27.63459384                6.72385293               94.62892217                0.00010000               -0.20212198                2.37665408               -0.04830359               12.26281912                0.63603170               -1.04805140
              28.63265033                6.17226010               94.23249474                0.00010000               -0.15778183               -0.91211655               -0.03964078               13.00644651                0.60900431              -12.39698578
              29.63143820                5.62104189               93.83581366                0.00010000               -0.08226523               -5.81894268               -0.03476263               13.69617266                0.49833523              -27.97951901
              30.63100502                5.07022796               93.43778755                0.00010000               -0.01779747              -13.25520333               -0.05198656               17.17209281                0.31844892              -47.38394674
              31.63108225                4.51985096               93.03756808                0.00010000                0.00772276              -30.77731221               -0.10337896               30.22452332                0.22937219              -67.05741363
              22.20776095               11.06317422               96.88810517                0.00010000               -0.05545680                0.13732811                0.05431337                0.03738091                0.01398396                0.57065726
              23.20720639               10.50099551               96.48131536                0.00010000               -0.00636604               -0.00242739                0.03293650                0.05195602                0.00312345                0.02488126
              24.20763363                9.93851839               96.07434480                0.00010000                5.58035265               -0.17152691                0.00928366                5.68738105                9.55731164               -0.60588035
              25.31881344                9.48788931               95.85854492                0.00010000                8.03921031                6.44381129                5.38832366               15.93038433               18.47817325               17.97810726
              26.36841784                8.94312560               95.49218799                0.00010000                4.31952271                7.73558402                5.64306474               16.67934308               11.59234504               20.37217390
              27.40520389                8.36722181               95.02267904                0.00010000                3.16298429                6.04872737                4.39004873               19.90256858                8.44651755               12.89255307
              28.43167753                7.77055086               94.47578521                0.00010000                1.95367070                2.59446096                3.10175098               22.57775965                5.90026718               -1.89343008
              29.44427731                7.15332001               93.85406450                0.00010000                1.24341504               -2.66814981                1.09392716               23.52329016                0.62594357              -23.71894308
              30.45654583                6.50423916               93.14770584                0.00010000                4.04328603              -10.62961995               -4.26360798               22.94259407               -7.69752942              -53.65156715
              31.52514303                5.80485396               92.36358305                0.00010000               16.47708377              -23.84172558              -16.10203493               17.23510323              -13.02701982              -92.23926880
              32.78608750                4.90407221               91.57223143                0.00010000               26.09444735              -44.97596336              -34.25806948               19.64949009               -7.20251373             -143.53617434
              22.77123172               12.06447747               96.74871751                0.00010000               -0.02698857                0.10700114                0.02847130                0.03908964                0.00036603                0.56121739
              23.77096183               11.50079896               96.33898557                0.00010000               -0.00123120               -0.01484344                0.01779664                0.05625208                0.00306194               -0.00331431
              24.77120709               10.93708763               95.92928909                0.00010000                9.22929569               -0.11923956                0.00350934                7.04536931               14.65197682               -0.55870430
              25.95554775               10.51348012               95.81246614                0.00010000               16.10216749                0.29014110                7.91842259               15.65846078               28.97915369               12.88043311
              27.09325044                9.98430490               95.45842363                0.00010000               12.58855646                0.80921809                8.20118851               15.76225495               20.11064680               14.29910783
              28.20731887                9.39714275               94.92429819                0.00010000               10.34001958                0.06865758                5.81254812               19.14574581               15.97567390                7.47730902
              29.30005083                8.77574215               94.25066785                0.00010000                8.10544776               -1.51681671                2.97822540               22.77381561               12.53910725               -5.37362825
              30.36942783                8.11889710               93.44547735                0.00010000                6.93526459               -4.08596184               -1.50314111               24.46851871                5.53200956              -23.93447697
              31.43875613                7.40844949               92.50170832                0.00010000               10.32231061               -8.22714154              -11.38646038               22.14706265               -4.72427470              -49.01363199
              32.57587404                6.59339345               91.43953298                0.00010000               19.34397137              -14.67612726              -30.86159373               13.76854601               -9.26135529              -82.86844175
              33.82563555                5.62033169               90.37553414                0.00010000               24.97615119              -16.78250895              -59.81513955                6.03224268               -5.18943332             -128.77113452
              23.33589977               13.06531424               96.60916011                0.00010000               -0.01784991                0.06487359                0.01107732                0.03674815                0.00445212                0.54754829
              24.33572127               12.50069864               96.19664429                0.00010000               -0.00199531               -0.00839896                0.01456979                0.04904157                0.00841841               -0.01217469
              25.33585986               11.93613360               95.78419152                0.00010000               12.45220573               -0.07519421                0.01623359                6.14609238               17.71533088               -0.57194541
              26.58476538               11.49369214               95.72570166                0.00010000               23.20702241               -3.56717141                9.08927071               13.48816265               35.52046172                8.67878229
              27.80000031               10.95930996               95.36744525                0.00010000               20.59580895               -4.98735136                9.09949621               13.20053883               25.49658344                9.11463763
              28.99668156               10.36859496               94.77574383                0.00010000               18.26995856               -5.34007792                5.79430973               16.13322293               21.24586302                3.37672717
              30.16539948                9.74021453               93.99805352                0.00010000               15.21293876               -5.25149576                1.48502372               19.32668155               17.74278320               -7.14660052
              31.30094034                9.07160077               93.04702474                0.00010000               12.97956260               -5.02996100               -5.30371963               20.19784160               10.41059914              -22.31599752
              32.42499073                8.33969633               91.92053011                0.00010000               14.38457059               -4.78218134              -18.79546011               16.83408518               -0.14157491              -43.12729854
              33.58863175                7.51133142               90.64953064                0.00010000               21.39325686               -3.06028640              -43.43726104                8.62933623               -5.99807033              -71.39340581
              34.85285587                6.56842203               89.35167670                0.00010000               26.42241211                2.63390651              -80.08183427                4.10511040               -3.41094986             -109.50448242
              23.90119788               14.06577494               96.46950488                0.00010000               -0.00745789                0.03117446               -0.00123118                0.02792349                0.00789323                0.53126346
              24.90112330               13.50063098               96.05419535                0.00010000               -0.00312201               -0.00585718                0.01696999                0.04143040                0.01443502               -0.02892875
              25.90113544               12.93558374               95.63899504                0.00010000               15.05056648               -0.03931923                0.03733006                3.61582530               19.61721166               -0.58089930
              27.20213463               12.44213669               95.61561493                0.00010000               29.06114740               -6.37493355                9.53244114                8.53074970               39.63566407                4.83058761
              28.48235839               11.88455787               95.24890018                0.00010000               27.34720657               -9.43073660                9.30092917                9.24601402               28.84305249                4.48861858
              29.74907876               11.29034119               94.61082058                0.00010000               25.06101343               -9.76206012                5.32958204               12.25180594               24.52475380                0.02666850
              30.98357866               10.67071223               93.75240560                0.00010000               21.24120461               -8.19433410               -0.11560197               14.94094318               21.01484183               -7.91857328
              32.17390286               10.01829788               92.68922882                0.00010000               17.60642623               -5.29760668               -8.69933945               15.12970232               13.48746733              -19.56316865
              33.33570718                9.31280587               91.42357975                0.00010000               17.29161059               -0.92748478              -24.83387429               11.72654508                2.33862064              -35.73596509
              34.51973507                8.53218772               89.99092724                0.00010000               22.89246735                5.77153857              -53.19658584                5.61490441               -4.65515680              -57.66996841
              35.79355653                7.67300982               88.51412376                0.00010000               27.38214619               15.60049001              -94.78309915                2.51615508               -2.91818581              -85.88985153
              24.46674616               15.06593773               96.32966688                0.00010000               -0.00050864                0.00893787               -0.01235618                0.01744500                0.01372005                0.50288205
              25.46674107               14.50058149               95.91158389                0.00010000               -0.00377508               -0.00358584                0.01754927                0.02977521                0.02855342               -0.05466489
              26.46667066               13.93534721               95.49377243                0.00010000               16.98325874               -0.01496282                0.05688057               -0.16415750               20.98857032               -0.60167276
              27.80640625               13.36619346               95.49476972                0.00010000               33.50227166               -8.74385957                9.68837000                1.64597582               42.60830755                1.35915968
              29.13671609               12.77069523               95.12397176                0.00010000               32.45785365              -13.11362483                9.34249461                4.48232739               31.37593821                0.38345367
              30.45556332               12.17335376               94.45486720                0.00010000               29.97727790              -13.20090808                5.01399262                8.65946203               26.85940141               -2.67584434
              31.73626165               11.57632785               93.53930933                0.00010000               25.29387148              -10.18535413               -1.16875531               11.29310145               23.04719648               -7.97087213
              32.96144075               10.96564864               92.39468620                0.00010000               20.46850734               -5.07768109              -10.99046536               11.23401776               15.02235882              -15.97353684
              34.14563180               10.32114664               91.02697178                0.00010000               18.96425652                2.12541154              -28.94280824                8.44315444                3.22074460              -27.30869671
              35.34072588                9.62676219               89.47651415                0.00010000               23.79514872               11.86817017              -59.77014922                3.98718358               -4.46254570              -42.45877437
              36.62153477                8.88043183               87.87352716                0.00010000               28.08088894               24.02170015             -104.40768887                1.77163554               -2.98769721              -61.24864503
              25.03225925               16.06595370               96.18951375                0.00010000                0.00500720                0.00243915               -0.02493708                0.00645122                0.02101937                0.45804902
              26.03230932               15.50055926               95.76869001                0.00010000               -0.00094647               -0.00030847                0.00866463                0.01659730                0.03608333               -0.09322925
              27.03224032               14.93528449               95.34815746                0.00010000               18.36984046               -0.00704899                0.06333754               -5.11139734               22.45104543               -0.56845912
              28.39970613               14.26725950               95.37549800                0.00010000               36.63021597              -11.55947155                9.83800419               -6.74758473               45.77143022               -1.49543673
              29.76484464               13.62228538               95.01243455                0.00010000               35.84646275              -16.76008603                9.64398838                0.39314096               34.23493543               -2.71504561
              31.11663539               13.02632303               94.33052573                0.00010000               32.61505860              -15.52721976                5.30747741                6.03838323               29.19697795               -4.35314426
              32.41714581               12.46700515               93.37970585                0.00010000               26.85645172              -11.17292711               -1.25134598                8.58172660               24.42674088               -7.02735827
              33.65376442               11.91674426               92.18022166                0.00010000               21.31554543               -4.60178004              -11.82724651                8.33848722               15.50864939              -11.59487081
              34.84345672               11.35531410               90.74248799                0.00010000               19.32145629                4.23123970              -30.90878102                6.25257653                3.09219133              -18.35552201
              36.04019355               10.76955113               89.11363033                0.00010000               23.90966157               15.63599681              -63.23847663                3.16197196               -4.77499547              -27.13658146
              37.32164995               10.15344383               87.43155878                0.00010000               28.14564058               29.30315709             -109.72011800                1.32855883               -3.25575620              -37.30521645
              25.59766405               17.06598651               96.04885800                0.00010000                0.00781748                0.00638770               -0.03539515                0.00024243                0.03182430                0.35135726
              26.59774223               16.50057532               95.62535073                0.00010000                0.00392110                0.00311243               -0.01096927                0.00501739                0.11727883               -0.13320749
              27.59774248               15.93520623               95.20357107                0.00010000               19.33557175               -0.01829019                0.05062084              -11.71676193               24.92799340               -0.47433364
              28.98445366               15.13500403               95.27608386                0.00010000               39.38864527              -17.66363909               10.37666395              -11.24048881               50.61400859               -2.05628784
              30.38551538               14.43549351               94.94300419                0.00010000               37.35787738              -18.99124771               10.84412857               -1.53840074               38.72803789               -3.79730946
              31.73161121               13.86280937               94.26316158                0.00010000               31.59797823              -16.31917426                6.69418662                3.98638464               31.51590600               -3.83327095
              33.01747495               13.35286931               93.29405019                0.00010000               25.41451684              -11.21890140                0.02407060                5.35761929               24.91248353               -4.47186907
              34.23990155               12.87361304               92.05983235                0.00010000               20.02007582               -4.09001915              -10.90973752                4.98960090               14.67257813               -6.26959355
              35.41787646               12.40577143               90.57618340                0.00010000               18.29670216                5.34995211              -30.53039550                3.74607146                1.62700885               -9.24786920
              36.60583559               11.93948212               88.89884057                0.00010000               23.12220419               17.37573270              -63.58851564                2.02826437               -5.80567220              -12.94640738
              37.88032055               11.46649497               87.17957011                0.00010000               27.44849547               32.14589718             -110.98507526                0.58680739               -3.83482240              -15.84824071
              26.16308647               18.06608145               95.90664031                0.00010000                0.01034760                0.00949420               -0.03768229               -0.00375217                0.16303269                0.26889673
              27.16318995               17.50062151               95.48166807                0.00010000                0.01949505                0.00461880               -0.02134698               -0.01336639                0.31713062               -0.15169867
              28.16347637               16.93491868               95.05982880                0.00010000               25.57095653               -0.02875481                0.05510429              -22.75834998               31.35616015               -0.45509636
              29.67460908               15.91398672               95.25493199                0.00010000               42.13974595              -22.10173167               13.11394111              -15.60737150               63.77741797               -7.34256385
              31.00627129               15.24246042               94.96015721                0.00010000               30.21891020              -19.30330860               14.08714452                1.37323244               43.58739735               -7.14824469
              32.27898728               14.69993954               94.28726794                0.00010000               25.36116182              -16.28698245                9.88632685                4.74594220               31.88426211               -6.14125284
              33.51349453               14.24262712               93.30448273                0.00010000               21.08335148              -11.02421825                3.06176037                6.35217522               22.86978575               -5.57842988
              34.70065431               13.83494388               92.04553335                0.00010000               16.95072668               -3.86691565               -7.91626016                7.05957731               11.37309334               -5.68084491
              35.85250906               13.46231314               90.53008953                0.00010000               15.96904904                5.65417074              -27.48733880                7.56935512               -2.67458190               -6.14800897
              37.02003529               13.11706578               88.81533621                0.00010000               21.34256691               17.75836565              -60.61741925                8.12240176              -10.12174035               -6.31086506
              38.27936040               12.79636177               87.07550044                0.00010000               25.93251073               32.98667964             -108.36027311                7.83358450               -7.90838573               -3.64667000
              20.92681923                8.20539138               98.30970619                0.00010000                0.00263252                0.00892682                0.09082336               -0.04106486               -0.22375411                0.25942733
              21.92684556                7.64335649               97.90727617                0.00010000                0.04189223               -0.02423780                0.05479144               -0.06168407               -0.27595973                0.03585717
              22.92765708                7.08186436               97.50352946                0.00010000                0.09116534               -0.06531348                0.05543733               -0.03757411               -0.29583046               -0.02179098
              23.92866887                6.52230159               97.10038556                0.00010000                0.11024044               -0.03834483                0.04437509                0.05243667               -0.24890594               -0.05901848
              24.92986189                5.96498339               96.69729280                0.00010000                0.09152755               -0.00422584                0.05822098                0.04210509               -0.20144443               -0.03875790
              25.93049942                5.40929792               96.29512846                0.00010000                0.04093279                0.00906058                0.05970196                0.02928526               -0.08253391               -0.05420112
              26.93068054                4.85498065               95.89406647                0.00010000               -0.00501334                0.02552471                0.06189142               -0.01240694                0.02924148               -0.02114824
              27.93039915                4.30169112               95.49368802                0.00010000               -0.03518616                0.03321803                0.04451402               -0.06066364                0.04917192                0.01827639
              28.92997682                3.74882889               95.09285051                0.00010000               -0.02000369                0.03834969               -0.04064221               -0.08661105               -0.06665447                0.02161279
              29.92999908                3.19589101               94.69048042                0.00010000                0.04906593                0.06718659               -0.23796945               -0.07471408               -0.18625388               -0.05048752
              30.93095814                2.64318294               94.28789413                0.00010000                0.09590621                0.11169608               -0.49410595               -0.09607804               -0.17990785               -0.34682194
              21.48844347                9.20548065               98.16794927                0.00010000               -0.04512438                0.05847674                0.09627553               -0.04833552               -0.01959017                0.37424116
              22.48799223                8.64311411               97.76540742                0.00010000               -0.03173425               -0.00758324                0.05900430               -0.07074344               -0.00175962                0.05058505
              23.48780879                8.08121122               97.36312226                0.00010000               -0.01792585               -0.06709554                0.04365422               -0.00621383                0.04987918               -0.10856165
              24.48763371                7.52191814               96.96151177                0.00010000               -0.05120087                0.02092306                0.03112707                0.04012006                0.12286497               -0.03327841
              25.48678477                6.96494113               96.56063172                0.00010000               -0.09200367                0.03818224                0.00687123                0.03680933                0.18410820               -0.02075010
              26.48579364                6.40938852               96.16013900                0.00010000               -0.12124500                0.05633408               -0.02228887                0.03037547                0.27975363               -0.04015353
              27.48435987                5.85523590               95.76108841                0.00010000               -0.14626238                0.06673309               -0.01520603               -0.00052484                0.37809923               -0.01469991
              28.48286839                5.30202330               95.36277359                0.00010000               -0.11745535                0.05966243               -0.03364608               -0.04008839                0.41379467                0.01284654
              29.48201077                4.74921239               94.96418618                0.00010000               -0.03967399                0.04170028               -0.06934427               -0.06120911                0.38486564                0.00548855
              30.48207491                4.19656288               94.56431471                0.00010000                0.03473314                0.04754369               -0.11221650               -0.05175809                0.29301849               -0.08758501
              31.48270543                3.64429990               94.16268948                0.00010000                0.06305151                0.07280938               -0.28539960               -0.05182169                0.26444575               -0.39393866
              22.05058559               10.20656091               98.02818736                0.00010000               -0.08854765                0.13395274                0.07151747               -0.01648147                0.01451026                0.50591889
              23.04970012                9.64320483               97.62369857                0.00010000               -0.09284088                0.01277360                0.04942428                0.01160753                0.10178094                0.04678602
              24.04872878                9.08052244               97.22098318                0.00010000               -0.19793825               -0.14684907                0.03139798                0.32228518                0.42819154               -0.42112061
              25.04574135                8.52272005               96.82313332                0.00010000               -0.28005444                7.95865831                0.00489185               10.40614824                0.60243119               11.45243552
              26.04312769                7.96574704               96.42418431                0.00010000               -0.24645954                8.64362281               -0.04137993               16.88544227                0.55994027               12.77109009
              27.04081216                7.41042460               96.02543143                0.00010000               -0.25462096                7.26282997               -0.09006994               22.83699234                0.66856768                8.35482035
              28.03803527                6.85631531               95.62841696                0.00010000               -0.25956360                4.69488155               -0.06164270               27.80574053                0.75061968                0.38332286
              29.03562089                6.30288437               95.23206872                0.00010000               -0.19111026                0.86647714               -0.05907785               30.48955294                0.77448892              -11.45541662
              30.03421306                5.74966290               94.83550042                0.00010000               -0.08722426               -5.22102372               -0.05907369               31.11791047                0.73700668              -29.43588972
              31.03387640                5.19684188               94.43730845                0.00010000                0.01172954              -15.53410721               -0.10521552               33.58529588                0.60905936              -55.53966795
              32.03444765                4.64463913               94.03619114                0.00010000                0.05712494              -44.03448163               -0.49982188               49.83237271                0.75235962              -86.79648487
              22.61482602               11.20815970               97.88863440                0.00010000               -0.05631712                0.14876488                0.04434428                0.04361202                0.01875643                0.53336544
              23.61426285               10.64336958               97.48165123                0.00010000               -0.00433754               -0.00356987                0.03244559                0.06016471                0.00947863                0.01096834
              24.61473927               10.07827424               97.07447454                0.00010000                9.81346168               -0.19175857                0.02001371                8.50274383               12.33420208               -0.59888590
              25.81053208                9.68109130               96.91389828                0.00010000               16.10248967                9.75336344                5.05725558               26.08323529               25.88151338               23.81577843
              26.93678907                9.13781359               96.54317674                0.00010000               12.07165631               11.72392685                2.63906681               31.49702199               20.21319053               25.50930337
              28.05196521                8.55464512               96.05813716                0.00010000               10.56129236                9.81259752                0.44781759               41.88198638               22.79819297               16.65681591
              29.14801491                7.94913353               95.50305136                0.00010000                7.36733270                5.87875343                0.84678924               50.96981249               25.07408236                1.07708377
              30.19931186                7.31935284               94.87180356                0.00010000                3.11982741               -0.21979072                1.74525874               55.42910088               21.51668453              -21.66284921
              31.21041146                6.64479192               94.11838462                0.00010000                2.97463686              -10.09008838               -0.55861298               54.20867422                8.85684894              -55.61373932
              32.25880460                5.88588073               93.20243923                0.00010000               18.66734666              -28.46436096              -13.88358716               39.29673631               -7.30060695             -105.42464159
              33.58375839                4.76361027               92.18470855                0.00010000               32.49537915              -61.74649704              -45.79642930               35.47561438               -6.22211624             -184.58804651
              23.18103807               12.20953621               97.74900835                0.00010000               -0.02491953                0.11058552                0.02432375                0.04167759                0.00269842                0.53566565
              24.18078888               11.64313343               97.33916610                0.00010000                0.00119314               -0.01840789                0.01754802                0.05980500                0.00631641               -0.00884972
              25.18106193               11.07668727               96.92934139                0.00010000               16.35389154               -0.13217477                0.01023648               10.42096789               18.58835210               -0.54362391
              26.50786671               10.71778732               96.89108754                0.00010000               30.92261872                0.22196061                6.39473462               24.76658629               40.24392292               16.29034500
              27.79951431               10.20022558               96.52854825                0.00010000               27.96326220                1.33223805                2.57249584               27.98915155               35.07746016               17.62422608
              29.06713195                9.60667655               95.96542748                0.00010000               24.66047447                0.77998189               -0.91339482               36.89186567               39.70498296                9.90279864
              30.29272380                8.97389038               95.27018938                0.00010000               19.07062852               -0.86739503               -1.45541170               45.65088501               43.37294192               -3.67664774
              31.44854452                8.29848856               94.43409850                0.00010000               12.95674313               -3.78061631               -2.16833997               50.43318362               38.71621597              -23.29891634
              32.55185866                7.54786113               93.39892752                0.00010000               12.62241292               -8.97689499               -8.55817610               47.26292605               22.98251882              -51.32663687
              33.70099278                6.62755466               92.12242883                0.00010000               21.83211041              -17.76230331              -30.49471024               31.05334171                5.68147893              -93.35666947
              34.98850087                5.40970919               90.70653902                0.00010000               28.75080891              -18.84635630              -75.06199636               14.86963318                1.47477870             -157.70349472
              23.74846514               13.21037141               97.60929279                0.00010000               -0.01572515                0.06379688                0.01176861                0.03719231                0.00718064                0.52847152
              24.74830789               12.64300143               97.19677274                0.00010000                0.00198001               -0.01190314                0.01104061                0.04678157                0.01095527               -0.00778926
              25.74850474               12.07563074               96.78426978                0.00010000               21.70088093               -0.08296793                0.00701722                8.90097867               22.07574560               -0.54158418
              27.18232551               11.68553052               96.81294859                0.00010000               42.95890601               -5.41728351                6.29368810               20.61255845               48.64988094               10.50215336
              28.60768286               11.16445835               96.44072748                0.00010000               41.69061041               -7.17476909                1.77110513               22.25183389               43.45088189               11.08838726
              30.01613772               10.57024476               95.81046478                0.00010000               38.07688725               -7.38414969               -2.52322005               28.96263654               49.37402265                5.16708264
              31.36922061                9.93178563               94.99716556                0.00010000               30.89335351               -7.09100382               -4.18230727               35.81070566               53.69137964               -5.64471808
              32.63400479                9.24374052               93.99288754                0.00010000               22.86916327               -6.75684101               -6.86286318               38.56292527               48.65469463              -21.44481244
              33.82660387                8.46525402               92.73802513                0.00010000               19.20092972               -6.50695508              -16.85299173               33.67903299               32.02090878              -44.26090908
              35.01802338                7.53063467               91.19836820                0.00010000               24.51190699               -3.78425058              -44.39588274               19.03877928               11.56366066              -77.94281888
              36.31684201                6.38668314               89.46585271                0.00010000               29.88186305                6.87458093              -97.11200795                9.63611341                4.51399084             -127.46302738
              24.31652189               14.21081215               97.46951927                0.00010000               -0.00567133                0.02884549                0.00227434                0.02755859                0.01191247                0.51393342
              25.31646518               13.64289537               97.05434930                0.00010000                0.00152639               -0.01008952                0.01247152                0.03872078                0.02054828               -0.02170403
              26.31655242               13.07502791               96.63929545                0.00010000               25.74125454               -0.04286531                0.02119380                5.14568546               24.03895054               -0.54665100
              27.83129027               12.60944165               96.70432611                0.00010000               52.16421616               -9.30243591                5.90364540               12.81697363               53.24403478                5.46840653
              29.35983674               12.05673019               96.32009377                0.00010000               52.38835682              -13.57392950                0.91036070               15.18260693               47.76264100                5.39369433
              30.87905740               11.45899356               95.63692044                0.00010000               48.78027066              -14.06094299               -3.86939039               20.99088476               54.15747297                1.18295318
              32.33544215               10.83207031               94.73221649                0.00010000               40.36386176              -12.17513975               -6.38501558               26.16348839               58.75124895               -6.58283041
              33.68633464               10.16335174               93.59831275                0.00010000               30.15515092               -8.75468832              -10.63560263               27.27136906               53.52905588              -18.37065040
              34.93854517                9.41772203               92.17769232                0.00010000               23.70023004               -3.36808787              -23.12473418               22.19131161               35.93611119              -35.63907034
              36.16033924                8.55186965               90.43802216                0.00010000               26.52905052                5.81231351              -54.29850343               11.61993653               13.56473721              -60.88721212
              37.46912618                7.54720081               88.47587966                0.00010000               30.87869433               20.95849022             -111.71506707                5.63237020                5.21689407              -95.73569071
              24.88484988               15.21094832               97.32957205                0.00010000                0.00166591                0.00603987               -0.00739912                0.01668382                0.01799155                0.48625812
              25.88486654               14.64279964               96.91174898                0.00010000                0.00111445               -0.00757724                0.01445929                0.02862246                0.03889309               -0.05572395
              26.88487217               14.07477344               96.49428889                0.00010000               28.60480808               -0.01674911                0.04621079               -0.33181338               25.37480751               -0.58671580
              28.45696270               13.49948180               96.58296413                0.00010000               58.84554596              -12.65075462                5.46735552                2.64961138               56.38877357                1.22162854
              30.06178309               12.89297976               96.19294402                0.00010000               60.18262983              -18.89718927                0.27683048                7.69306915               50.80656484                0.45883796
              31.66061530               12.28902590               95.47555121                0.00010000               56.31745528              -19.27580647               -4.69746925               14.50853622               57.23082760               -2.09975112
              33.18813220               11.68828283               94.50691118                0.00010000               46.65825721              -15.76208207               -7.74191396               18.90766167               61.56254431               -6.98980070
              34.59378044               11.06864675               93.27963822                0.00010000               34.68899957               -9.78189420              -13.02508381               19.20186605               55.76061182              -14.90270126
              35.88191219               10.39789226               91.73905778                0.00010000               26.35814469               -1.02852376              -27.10158191               15.04334022               37.29173071              -26.82616466
              37.12094334                9.64688094               89.85710002                0.00010000               27.84574619               11.65630847              -60.42674832                7.65090612               13.86768287              -43.93154695
              38.43882711                8.80585295               87.73863018                0.00010000               31.78837735               28.61889327             -120.46796252                3.70044006                5.13689664              -66.62334249
              25.45315294               16.21093295               97.18930025                0.00010000                0.00595717               -0.00058573               -0.01735653                0.00622139                0.02384014                0.44304651
              26.45321251               15.64274382               96.76876281                0.00010000                0.00405245               -0.00266411                0.00544622                0.01583717                0.05236215               -0.10876094
              27.45323399               15.07469293               96.34876006                0.00010000               30.64318298               -0.00898992                0.05232659               -7.48146266               26.84683933               -0.58271994
              29.06607617               14.35642655               96.46379650                0.00010000               63.54600160              -16.88452160                5.26718803               -9.52548767               59.83397168               -2.34199423
              30.72415402               13.67878641               96.08293996                0.00010000               65.39244425              -24.28022929                0.29503913                1.59798574               54.28351112               -3.26455308
              32.37392506               13.07347743               95.35315499                0.00010000               60.49102584              -22.83898661               -4.57673540               10.04125791               60.20837059               -4.26481149
              33.93397454               12.51682866               94.34585685                0.00010000               49.34187396              -17.70067704               -7.92296153               13.75826939               63.40973927               -6.44293325
              35.36076253               11.96771385               93.05651694                0.00010000               36.36016276              -10.04595431              -13.86545152               13.47648558               56.59658285              -10.92128601
              36.66117779               11.39715156               91.43500468                0.00010000               27.23170700                0.52557729              -28.91564392               10.42415745               37.39392994              -18.07623278
              37.90539667               10.78499582               89.45994005                0.00010000               28.20065848               15.00581707              -63.53965421                5.53580198               13.59699195              -28.07063325
              39.22519096               10.11957867               87.24406154                0.00010000               31.97942873               33.31455850             -125.19372016                2.58141307                4.86169771              -40.64540047
              26.02135256               17.21093661               97.04855850                0.00010000                0.00707368                0.00288315               -0.02604706                0.00200076                0.02558977                0.34146595
              27.02142330               16.64274635               96.62522802                0.00010000                0.01038113                0.00116439               -0.01132513                0.00472906                0.13325790               -0.15116525
              28.02156019               16.07459364               96.20403970                0.00010000               32.04680873               -0.03756659                0.03192302              -17.18659670               29.57098107               -0.50006499
              29.66235947               15.16179137               96.36880577                0.00010000               67.75658731              -26.04338731                5.63885964              -16.21355046               65.42090269               -3.04914152
              31.37669193               14.40737518               96.02492720                0.00010000               68.05193635              -27.55279934                1.44161408               -1.46152026               59.84961438               -4.66652273
              33.02339820               13.83224617               95.29926071                0.00010000               59.61846139              -24.08379031               -3.16437290                6.54551590               63.06899425               -3.96266569
              34.56906116               13.33426929               94.27284925                0.00010000               47.97945315              -18.06088497               -6.68462397                8.30831143               64.24711563               -4.18379028
              35.98298726               12.86772767               92.94551722                0.00010000               35.20261030               -9.80907541              -12.95541107                7.72047232               56.10597187               -5.97081792
              37.27311337               12.40840381               91.27338870                0.00010000               26.31224988                1.35111222              -28.40017775                5.99963288               36.30276665               -9.23846321
              38.50923226               11.94699728               89.24301791                0.00010000               27.40881550               16.48504080              -63.63203043                3.46778640               12.95706691              -13.60224426
              39.82128967               11.47214412               86.98070620                0.00010000               31.20574134               36.24015791             -126.40663042                1.27290001                4.68233769              -17.84127205
              26.58957346               18.21099061               96.90634910                0.00010000                0.00765987                0.00540020               -0.02135781               -0.00026015                0.14903919                0.26293238
              27.58965006               17.64276711               96.48148321                0.00010000                0.04417900                0.00207546               -0.01191368               -0.02977429                0.33885333               -0.16628950
              28.59045704               17.07394160               96.06042706                0.00010000               40.96867815               -0.06520385                0.06735288              -33.47072935               37.49289107               -0.53349602
              30.40902362               15.83555881               96.37581814                0.00010000               71.70058846              -32.62325587                8.42036583              -22.64414396               81.03475796              -10.12851478
              32.02446881               15.12773042               96.07420279                0.00010000               58.44588159              -27.96447551                4.46407913                2.58982872               65.03982272               -8.80591978
              33.57794126               14.59180162               95.35423954                0.00010000               52.00952289              -24.04445486               -0.30835413                6.84833270               63.21705293               -7.22559488
              35.06465927               14.15561097               94.31286944                0.00010000               43.15481067              -17.86583287               -3.99435574                8.54634718               62.36656238               -6.38396741
              36.44103747               13.77153234               92.96155565                0.00010000               31.86207843               -9.61953223              -10.04171546                9.23316229               53.53611966               -6.73849800
              37.70190084               13.42417380               91.26026423                0.00010000               23.49873110                1.57699945              -24.98518098               10.03696209               33.01303344               -7.70644491
              38.91101209               13.11469664               89.19448998                0.00010000               24.92272223               16.76993612              -59.60138721               11.18838444                9.34462695               -8.50794311
              40.20035528               12.84438183               86.90847648                0.00010000               28.93431916               37.22377124             -122.44969119               10.87507988                0.85556401               -5.56555452
              21.32741990                8.34955070               99.31039599                0.00010000                0.01616436                0.02706706                0.04471776               -0.03551857               -0.17199661                0.21271092
              22.32758155                7.78555384               98.90765191                0.00010000                0.05465823               -0.01618209                0.01881427               -0.05973650               -0.20959730                0.03016893
              23.32851307                7.22218934               98.50399201                0.00010000                0.10273731               -0.06548329                0.03229998               -0.03381661               -0.22807961               -0.00759876
              24.32963629                6.66083021               98.10077889                0.00010000                0.11554038               -0.03708921                0.02929565                0.04587297               -0.19097788               -0.02575289
              25.33082387                6.10158343               97.69778857                0.00010000                0.10271972                0.00052555                0.04002113                0.04782614               -0.12686330               -0.02384198
              26.33169069                5.54418871               97.29572565                0.00010000                0.06932550                0.00499275                0.05715776                0.04204872                0.03143316               -0.03376316
              27.33221038                4.98830101               96.89486021                0.00010000                0.02396816                0.00722776                0.10059639               -0.01675944                0.19445931                0.06019677
              28.33217005                4.43339341               96.49446991                0.00010000               -0.02833957                0.00451568                0.11528331               -0.08133629                0.20939690                0.12573570
              29.33164359                3.87798345               96.09278486                0.00010000               -0.04714625                0.00944284                0.03386753               -0.11893558               -0.01107968                0.09460839
              30.33122712                3.32080904               95.68800007                0.00010000                0.03106564                0.05692642               -0.20542333               -0.10885000               -0.27195396               -0.01552326
              31.33226491                2.76252608               95.28196639                0.00010000                0.10377812                0.09165858               -0.60008002               -0.11654457               -0.34799093               -0.60106172
              21.89106158                9.34982138               99.16876802                0.00010000               -0.03967172                0.08067266                0.06078407               -0.04420761               -0.00518175                0.31887714
              22.89066486                8.78539202               98.76590539                0.00010000               -0.02624323               -0.00072147                0.03963174               -0.06808690                0.02161722                0.04159723
              23.89053672                8.22153451               98.36351049                0.00010000               -0.01334433               -0.07229329                0.03704164                0.00182933                0.08103524               -0.08933268
              24.89039798                7.66045932               97.96177880                0.00010000               -0.04569146                0.02179400                0.02347073                0.04063256                0.14724912               -0.00087690
              25.88962289                7.10158868               97.56056142                0.00010000               -0.08227981                0.04432869               -0.01755324                0.04261136                0.21349469               -0.01207711
              26.88875238                6.54423863               97.15982323                0.00010000               -0.10912236                0.05388681               -0.03860658                0.04626974                0.34343908               -0.03573081
              27.88744044                5.98837329               96.76087939                0.00010000               -0.11184554                0.06277136               -0.06096721               -0.00207608                0.51424790                0.05610726
              28.88651547                5.43343856               96.36230527                0.00010000               -0.03470082                0.03641934               -0.11534731               -0.07044116                0.69043367                0.14177232
              29.88674642                4.87807788               95.96330034                0.00010000                0.06759195                0.00711028               -0.14935903               -0.13826272                0.85398523                0.10935679
              30.88786731                4.32137830               95.56309659                0.00010000                0.13179962                0.02505277               -0.13910559               -0.16834229                0.76998013               -0.16461875
              31.88938242                3.76344267               95.15901487                0.00010000                0.15151068               -0.03119420               -0.37516932                0.01139431                0.68681028               -1.13325404
              22.45539446               10.35116416               99.02878260                0.00010000               -0.08877847                0.15995786                0.03557959               -0.01043319                0.02278204                0.44873687
              23.45450668                9.78553941               98.62415497                0.00010000               -0.09560529                0.01776614                0.03982551                0.02351335                0.11247743                0.02987329
              24.45348236                9.22074347               98.22131729                0.00010000               -0.20559557               -0.16760214                0.04442074                0.36302934                0.43194789               -0.40868186
              25.45039476                8.66126609               97.82317746                0.00010000               -0.27927856               11.78956727                0.01118472               17.95350311                0.59515961               13.77013708
              26.44789678                8.10247000               97.42362725                0.00010000               -0.22816459               12.36795216               -0.07291350               31.14101185                0.58553475               12.90977415
              27.44583147                7.54526644               97.02441144                0.00010000               -0.24639257               10.80617232               -0.09923883               44.98135946                0.74211405                7.11289782
              28.44296893                6.98955644               96.62768931                0.00010000               -0.23874158                8.09734165               -0.09710154               56.04538429                1.02721718               -0.04728360
              29.44105664                6.43412179               96.23131319                0.00010000               -0.10151647                4.22973424               -0.16224056               63.06657389                1.59968057              -10.48843299
              30.44093860                5.87812565               95.83463218                0.00010000                0.07194241               -2.47702985               -0.43863770               65.17445073                2.77912681              -28.43789011
              31.44249549                5.32131009               95.43568324                0.00010000                0.37127283              -15.50687741               -1.01267854               65.43580996                4.38110801              -61.69406236
              32.44836406                4.76190220               95.02757164                1.00000000                0.58685701              -61.07396297               -6.60410951               84.44541653               10.49328172             -119.84783095
              23.02210241               11.35302053               98.88899206                0.00010000               -0.05465955                0.16841155                0.01760382                0.05146722                0.02505933                0.49342120
              24.02155581               10.78574734               98.48196427                0.00010000               -0.00158931               -0.00194745                0.02700717                0.07051869                0.01794188               -0.00404029
              25.02207062               10.21818246               98.07474507                0.00010000               17.30928475               -0.21617820                0.04146405               12.40368285               14.61864525               -0.59454579
              26.36774151                9.89625066               97.95969003                0.00010000               30.31860730               13.94853131                1.38055435               42.07949200               34.54251263               28.18885503
              27.62844277                9.34894773               97.54496933                0.00010000               26.67758105               16.83843414               -8.18595486               56.83371740               40.23328422               26.36247000
              28.90129313                8.76036208               97.03163539                0.00010000               24.55250021               14.88023326               -8.53198983               80.76591682               52.75452554               15.23078490
              30.11949277                8.15032012               96.49272100                0.00010000               17.89923023               10.92692741               -5.91316342              100.67704438               63.25723336                0.86410917
              31.25927774                7.51803325               95.88896967                0.00010000                9.17771837                4.88565005               -2.18164152              112.60872567               66.67382987              -19.12719125
              32.30304714                6.82853728               95.13653358                0.00010000                2.67646152               -5.79247013                0.93972670              113.11725333               56.49511002              -51.76717538
              33.31280697                6.01124075               94.08591130                0.00010000               19.70296972              -29.54895005               -7.19749323               82.64113810               26.43222694             -110.66491190
              34.69710654                4.54196341               92.65630285                0.00010000               38.42995702              -78.83922828              -59.58517145               64.99960014                9.75443462             -228.42288250
              23.59097019               12.35453239               98.74920398                0.00010000               -0.02150667                0.11761095                0.00923892                0.04586126                0.00763822                0.50938726
              24.59075512               11.78550046               98.33933653                0.00010000                0.00412531               -0.01938465                0.01425016                0.06475439                0.01389241               -0.01544519
              25.59105269               11.21641991               97.92949382                0.00010000               28.52321110               -0.14173042                0.01615969               14.69322765               21.05296945               -0.53243191
              27.16121934               10.94023672               97.94036083                0.00010000               56.47035110               -0.28770133               -2.21066146               37.81912873               55.20405073               18.02234841
              28.72045971               10.43923869               97.50987354                0.00010000               54.92790356                2.02922301              -13.33108742               47.28466902               66.46091758               18.16748299
              30.25977741                9.84287111               96.90603029                0.00010000               48.91894691                2.00407847              -14.21358734               64.76435497               84.77392652               10.01050076
              31.69883865                9.20809499               96.22155962                0.00010000               37.76182942                0.74864663              -11.42849982               81.31376087               97.65097559               -2.80937041
              33.01501400                8.53183480               95.40211055                0.00010000               25.56187580               -1.97714887               -7.74679425               91.40390960               98.04216941              -21.03634555
              34.21007617                7.76227625               94.33054480                0.00010000               18.34390624               -7.64119631               -7.49836794               87.76887041               79.71547263              -48.27497181
              35.38189213                6.73033109               92.82963878                0.00010000               23.84172925              -18.71795214              -24.73427156               60.10558942               43.21185020              -94.25232787
              36.68691075                5.18511763               90.87429421                0.00010000               30.50186278              -14.60712796              -88.57641104               31.03165981               18.87946339             -174.89648475
              24.16108349               13.35537275               98.60939548                0.00010000               -0.01201072                0.06209798                0.00611858                0.03898363                0.00984940                0.50547641
              25.16096338               12.78535965               98.19686511                0.00010000                0.00577171               -0.01399016                0.00760137                0.04890362                0.01547704               -0.00593457
              26.16119892               12.21534785               97.78433186                0.00010000               37.01709634               -0.08941482                0.00541895               12.30109708               24.00751905               -0.51304843
              27.90130531               11.89049664               97.85157542                0.00010000               75.51514173               -7.93737201               -4.52701116               29.95909987               63.20660057               10.26349520
              29.67150176               11.38953219               97.40286735                0.00010000               76.32093085               -9.95117367              -16.49954213               34.72520894               75.93937786               11.09885541
              31.42772393               10.80044365               96.72527943                0.00010000               69.26512734               -9.69786443              -17.34840829               46.80444849               96.35733871                5.84808268
              33.05680430               10.16529306               95.91440737                0.00010000               55.27253702               -8.93924905              -14.97836700               58.82096519              110.16278741               -3.64747912
              34.53317467                9.47849027               94.90976747                0.00010000               40.15619754               -8.38502989              -12.63786041               64.72072165              109.85892453              -17.68189248
              35.85992826                8.67571335               93.58347027                0.00010000               27.94513545               -8.16422208              -15.45126752               58.15176305               89.93860682              -38.83186725
              37.09207738                7.63688171               91.76161299                0.00010000               27.41191979               -3.73097183              -38.27556454               34.25289242               49.34400258              -73.21001304
              38.40816665                6.24982085               89.40943654                0.00010000               31.60892761               15.02004582             -109.51209853               18.05734739               22.37573380             -131.03545003
              24.73177606               14.35577435               98.46955036                0.00010000               -0.00179746                0.02545782                0.00294741                0.02806357                0.01223018                0.48798216
              25.73175809               13.78522066               98.05444478                0.00010000                0.00807922               -0.01530686                0.00736487                0.03479877                0.02097613               -0.01499645
              26.73193765               13.21463161               97.63941892                0.00010000               42.72294590               -0.05997851                0.00977834                6.90106738               25.49510330               -0.48372205
              28.58621701               12.78148928               97.73368784                0.00010000               88.65396159              -12.96704973               -6.57698981               17.99024394               67.21509371                4.82780110
              30.50501688               12.24021521               97.26710739                0.00010000               91.69442530              -18.62531940              -18.95655924               22.80915483               80.28951610                5.13449262
              32.42010551               11.64891382               96.53343277                0.00010000               84.60972280              -19.26597315              -19.71822982               32.37917934              101.41623362                1.96540277
              34.19721133               11.02931001               95.62470529                0.00010000               68.94513131              -17.12007924              -17.64011843               41.09207967              115.48607532               -4.33308921
              35.79900814               10.36413420               94.47651677                0.00010000               50.87543289              -13.45499288              -16.25666602               44.05067619              114.92612745              -14.32110357
              37.21471999                9.59899181               92.96108507                0.00010000               34.69171712               -7.42011836              -20.93105930               37.28269043               93.90988979              -29.67078960
              38.49284248                8.65571165               90.90495717                0.00010000               30.37297159                4.46658247              -46.39350992               20.64782506               51.13375810              -54.27898916
              39.82217942                7.48551855               88.27982242                0.00010000               32.93369438               26.49811255             -120.69494530               10.63297660               22.88172104              -92.92498610
              25.30275214               15.35588191               98.32951890                0.00010000                0.00499527                0.00269145               -0.00068747                0.01890454                0.01929674                0.46104502
              26.30280209               14.78505351               97.91187308                0.00010000                0.00997572               -0.01578264                0.00977578                0.02025222                0.04299317               -0.05793262
              27.30295165               14.21414828               97.49469665                0.00010000               46.63622482               -0.03761659                0.02685765               -0.58460533               26.40532433               -0.51058978
              29.23552659               13.63115564               97.60411683                0.00010000               97.86543282              -17.34556513               -7.91254945                3.94330870               69.80836831                0.41786757
              31.26026031               13.01702580               97.12950837                0.00010000              102.53430634              -25.76020368              -20.45113040               12.00540203               83.36789043                0.18268125
              33.28621272               12.41512419               96.36091781                0.00010000               95.15826050              -26.57982622              -21.08450375               22.18230384              104.60950234               -1.32377262
              35.16342552               11.82289147               95.38447105                0.00010000               77.91468369              -22.85507966              -19.21031790               28.95167708              118.35956914               -4.98509016
              36.84450639               11.20939041               94.13418452                0.00010000               57.52895441              -16.58473244              -18.45003787               30.09798095              117.20993422              -11.51261067
              38.31400461               10.52731099               92.48494014                0.00010000               38.70003750               -6.97666461              -24.14582263               24.50075815               95.31894521              -21.95442483
              39.61850714                9.72621336               90.26797918                0.00010000               32.36038940                8.32544621              -50.92613249               13.13530801               51.37325836              -38.29914159
              40.96121240                8.77978310               87.46416791                0.00010000               34.27052571               30.64706264             -126.67519652                6.78004943               22.71274978              -62.93272096
              25.87381094               16.35582818               98.18916662                0.00010000                0.00858108               -0.00574629               -0.00394578                0.01191709                0.02434740                0.42078277
              26.87389675               15.78490501               97.76879893                0.00010000                0.01662332               -0.01109464                0.00035346                0.00875997                0.06284201               -0.12918284
              27.87414341               15.21387928               97.34920399                0.00010000               49.41544549               -0.03051763                0.02784478              -10.38471725               27.68561062               -0.55033255
              29.86220566               14.43457797               97.48084176                0.00010000              104.35064813              -23.45780350               -8.43532389              -12.62052568               73.22525049               -3.39351556
              31.96115637               13.72501114               97.01833533                0.00010000              109.78401252              -33.30627869              -20.62110024                3.72658712               87.20875452               -3.53925618
              34.05788592               13.11731730               96.23899102                0.00010000              101.04111380              -31.63263424              -21.09055748               15.30268040              107.76070587               -3.38557932
              35.98197865               12.57220842               95.22124662                0.00010000               81.93311642              -26.03552821              -19.47355831               20.39287428              120.19764306               -4.80943697
              37.69654824               12.03243955               93.90291263                0.00010000               60.29667813              -18.01162234              -19.21259279               20.21126233              118.03224250               -8.62141531
              39.18791221               11.45945852               92.16417511                0.00010000               40.32641426               -6.57841829              -25.55659945               16.11037616               95.43835049              -15.08694632
              40.50307653               10.82222058               89.84283725                0.00010000               33.13643604               10.33369759              -53.14356854                8.90767904               51.06685228              -24.89493369
              41.85064093               10.09845980               86.92768438                0.00010000               34.75644036               33.27357472             -129.84285212                4.49283866               22.42602771              -39.22273361
              26.44483682               17.35576698               98.04833706                0.00010000                0.00893634               -0.00346337               -0.01747451                0.00586868                0.02261155                0.32196402
              27.44492619               16.78483162               97.62512423                0.00010000                0.03737587               -0.00598315               -0.00769930               -0.01183766                0.13973018               -0.16802823
              28.44558434               16.21353793               97.20420953                0.00010000               51.35290151               -0.12026189               -0.02020012              -23.89880961               30.64598778               -0.52958374
              30.47198422               15.16199957               97.38886105                0.00010000              110.32341942              -36.85931395               -8.23737740              -22.16574310               79.99171385               -4.40225922
              32.65205273               14.35090023               96.97183647                0.00010000              113.65424139              -37.86101454              -18.90017482               -0.60190520               93.63796791               -4.98979624
              34.74506905               13.78247150               96.19987413                0.00010000              100.20540111              -33.59236598              -19.47155626                9.90282317              110.74607726               -3.06473868
              36.65616075               13.30218091               95.16035771                0.00010000               80.82062440              -26.86505065              -18.33548598               11.91087417              120.95996017               -3.05383177
              38.36148153               12.84915797               93.80072413                0.00010000               59.51351753              -18.21712523              -18.45763385               11.04976912              117.71403664               -4.81742927
              39.84643110               12.39574262               92.00817984                0.00010000               39.80889520               -6.25126643              -25.11500475                8.78262674               94.68799576               -8.05693692
              41.15765944               11.93288731               89.62619997                0.00010000               32.60798113               11.08710973              -53.04614194                5.25755131               50.45978343              -12.62473051
              42.49859073               11.44525459               86.65143750                0.00010000               34.09312875               36.55251552             -130.91417590                2.12961583               22.19081000              -18.81955374
              27.01579904               18.35575891               97.90621315                0.00010000                0.00900084               -0.00080719                0.00059906               -0.00113488                0.12899613                0.23962781
              28.01588905               17.78478534               97.48142980                0.00010000                0.16001115               -0.00462766               -0.00840148               -0.11795698                0.36037525               -0.16865376
              29.01899927               17.21147404               97.06117585                0.00010000               63.28197290               -0.20638888                0.01765286              -47.02819003               40.61458525               -1.08815832
              31.28152851               15.69739169               97.42333931                0.00010000              115.48235361              -46.46078777               -5.68775967              -31.22973069               99.07966239              -12.87515483
              33.32864634               14.96779085               97.04943879                0.00010000              101.15665931              -38.31093784              -15.52784335                5.06327487               98.23455842              -10.29319253
              35.30466170               14.44546998               96.28110085                0.00010000               91.24316647              -33.70015269              -17.06018103                9.31509273              110.14503742               -7.18728084
              37.15350967               14.03490740               95.22459562                0.00010000               75.96601095              -26.72735062              -16.31377887               10.86624493              119.43941921               -6.57057796
              38.82398191               13.66809704               93.84469904                0.00010000               56.31628683              -18.10609233              -16.00353462               11.22632735              116.57998971               -7.63913706
              40.27983540               13.33443319               92.03038591                0.00010000               36.73668343               -6.13094317              -21.72541942               12.13371651               93.48132170               -9.41940461
              41.55871558               13.04396277               89.62330847                0.00010000               29.43316397               11.10754622              -48.69256414               14.85946055               49.08027821              -11.20179703
              42.86849868               12.82951011               86.62650662                0.00010000               30.97831006               38.42555174             -126.41030149               15.54552958               21.01531682              -11.84639235
              21.72886747                8.49290155              100.31060054                0.00010000                0.01901237                0.05700320                0.00527745               -0.02510037               -0.09618162                0.12789035
              22.72905759                7.92745291               99.90765246                0.00010000                0.05505158               -0.00099161               -0.00963732               -0.04885510               -0.12170529                0.01671001
              23.72996850                7.36267543               99.50417546                0.00010000                0.09975779               -0.05761329                0.00272612               -0.02455223               -0.13982905                0.00329441
              24.73105275                6.79978671               99.10097147                0.00010000                0.12046826               -0.02846805                0.00388408                0.06177388               -0.11631236                0.00299846
              25.73237787                6.23896086               98.69809322                0.00010000                0.15018471               -0.00999476                0.00578781                0.09527624               -0.02071726               -0.00534496
              26.73405644                5.68042749               98.29627162                0.00010000                0.17237990               -0.04393761                0.02510068                0.08806814                0.22158114                0.03621832
              27.73582546                5.12414622               97.89607840                0.00010000                0.13029968               -0.06172789                0.09863442                0.03911386                0.46933992                0.16933399
              28.73666244                4.56853512               97.49599368                0.00010000                0.01998016               -0.05196435                0.12596697                0.03656294                0.45100829                0.19046048
              29.73622507                4.00969011               97.09352786                0.00010000               -0.06419816               -0.01379023                0.05667635                0.05002722                0.15680163                0.10584161
              30.73537847                3.44538750               96.68637196                0.00010000               -0.00796854                0.01998315               -0.10621106                0.00688267               -0.17382211                0.07995562
              31.73606570                2.87706474               96.27589253                0.00010000                0.06872233               -0.10351727               -0.44136875                0.02166238               -0.33779108               -0.51776401
              22.29406510                9.49347158              100.16916495                0.00010000               -0.03829977                0.12050311                0.01570946               -0.03140665                0.01310979                0.20652478
              23.29368210                8.92744300               99.76620005                0.00010000               -0.02545109                0.01452492                0.01908023               -0.05074483                0.03722791                0.02216601
              24.29355608                8.36209929               99.36386309                0.00010000               -0.00771672               -0.07805998                0.03112018                0.02178874                0.07196971               -0.05873105
              25.29352777                7.79950203               98.96198118                0.00010000               -0.02729205                0.02124256                0.01373216                0.05217285                0.11056158                0.02445059
              26.29301024                7.23886092               98.56028065                0.00010000               -0.05916613                0.02868722               -0.02671042                0.08563125                0.19978952               -0.00531776
              27.29234445                6.67998812               98.15936687                0.00010000               -0.04237246                0.02214524               -0.07441375                0.11019810                0.42117008                0.05333394
              28.29216279                6.12352894               97.75986907                0.00010000                0.09558377               -0.03090917               -0.20300018                0.19398819                0.74665277                0.31076460
              29.29425612                5.56801548               97.36046664                1.00000000                0.30681795               -0.10419050               -0.27901082                0.50162310                1.13391423                0.39857303
              30.29829915                5.00955221               96.96119900                1.00000000                0.37519316               -0.10091285               -0.25946587                1.33861687                1.49872171               -0.02570192
              31.30175998                4.44558734               96.56153260                1.00000000                0.31529685               -0.26207878               -0.19998458                2.98289975                1.43933738               -0.94487618
              32.30460508                3.87602957               96.15518609                1.00000000                0.28451000               -6.33351044               -0.38512896                9.26776282                1.27991131               -7.14909858
              22.86029650               10.49531161              100.02889895                0.00010000               -0.08815198                0.20675846               -0.01344628                0.00906470                0.03275148                0.31765720
              23.85941498                9.92774341               99.62449508                0.00010000               -0.09756309                0.03321119                0.02790328                0.04945954                0.10568283                0.01868352
              24.85834524                9.36111423               99.22187160                0.00010000               -0.20402003               -0.19462520                0.07692558                0.41492444                0.35812615               -0.33882463
              25.85533458                8.80021156               98.82335702                0.00010000               -0.23704178               16.40915029                0.02871336               30.80253458                0.45576298               12.86231784
              26.85360441                8.23953461               98.42272604                0.00010000               -0.18711015               16.99778910               -0.08077773               62.85789930                0.52880510                4.68258125
              27.85159238                7.68087040               98.02344665                0.00010000               -0.09632691               14.88269263               -0.26340166               87.54765184                1.20512159               -0.00023484
              28.85167787                7.12352804               97.62647493                1.00000000                0.45396266               12.45082330               -2.18011529              107.46217109                7.79161737               -5.37958554
              29.86067163                6.56645131               97.22882391                1.00000000                1.68738394                9.89980883               -6.79228930              123.94317859               33.76436618              -11.57664378
              30.88542555                6.00767185               96.82672767                1.00000000                3.39437376                5.19917922              -12.85092169              135.93837503               72.95868650              -23.12020564
              31.92855911                5.44014593               96.41705488                1.00000000                8.75554719               -8.34801912              -16.45848262              135.43212860              115.50356964              -51.34008646
              33.06053649                4.75039453               95.90410895                1.00000000               13.19773818              -76.37997614              -63.01410043              147.69780588              160.89618993             -191.47834721
              23.42938279               11.49760675               99.88898647                0.00010000               -0.05141153                0.20044617               -0.02215687                0.08150907                0.03022993                0.37630535
              24.42886868               10.92810722               99.48219138                0.00010000                0.00018115                0.00901380                0.01357342                0.09809705                0.02862621               -0.00597710
              25.42938642               10.35820679               99.07530382                0.00010000               30.11447003               -0.23311923                0.05649585               17.11647979               13.68313439               -0.48438047
              27.03115808               10.12768504               98.94150937                0.00010000               62.00614866               19.30686666              -28.23451105               69.84216634               95.27609831               29.15079075
              28.66950939                9.57881670               98.37945764                0.00010000               56.40729878               23.30713043              -26.60845516              107.97078625              114.06170025               16.38194003
              30.15930405                8.97764197               97.88749737                0.00010000               44.31579541               21.61860653              -23.30709115              149.65303670              135.08124365                7.54142922
              31.55582530                8.37254541               97.38478809                0.00010000               36.48359118               18.62442806              -19.75875881              184.31774341              147.30019773               -3.29188438
              32.88897588                7.76601165               96.82817073                0.00010000               29.37733666               14.52562667              -16.07163087              209.03607400              154.35219461              -17.18747743
              34.14337203                7.11353579               96.13717916                0.00010000               18.93520002                6.38765778              -11.09475223              217.29148189              150.40598345              -38.19118855
              35.26767988                6.27862695               95.05848936                0.00010000               24.73459834              -18.66697535               -7.67312240              166.39077576              110.34722057              -87.71794194
              36.63806400                4.34843004               92.99300512                0.00010000               37.03841194              -79.58743671              -46.24460299              117.79244813               59.13009181             -215.20292928
              24.00092574               12.49932053               99.74919313                0.00010000               -0.01488577                0.12639056               -0.01461530                0.07732002                0.01274402                0.39662303
              25.00077688               11.92792369               99.33945110                0.00010000                0.00856391               -0.01663704                0.00855481                0.09718404                0.01939282               -0.01379740
              26.00109702               11.35645184               98.92966459                0.00010000               51.53955580               -0.13810566                0.01792372               20.14918021               16.37943652               -0.42473948
              28.03156800               11.18634890               98.84687431                0.00010000              108.09830890               -1.51058107              -37.20195888               57.29946665              106.31708356               13.02671958
              30.16306320               10.70567722               98.26192651                0.00010000              100.96782021                2.51924546              -34.86568003               75.50753265              134.99680217               12.85379407
              32.05092440               10.11324253               97.68115573                0.00010000               79.32999265                4.10809828              -30.00596647              103.13898965              160.96195477                6.68650243
              33.74966305                9.49601660               97.04161938                0.00010000               62.47391622                4.15724836              -24.77650282              128.79421642              174.49040551               -1.96481497
              35.30040273                8.85696384               96.27916261                0.00010000               48.44884167                2.48423994              -19.90212781              145.62764566              178.94345117              -13.67395882
              36.71863988                8.13542501               95.24896016                0.00010000               36.05388207               -2.77296938              -16.22700885              142.00005202              166.37014319              -32.40662888
              38.02148037                7.06680642               93.62774340                0.00010000               27.90696929              -14.37554704              -19.99650178               96.72390371              118.15347131              -65.66336007
              39.27677927                5.15864580               90.93501080                0.00010000               25.52989001                0.60079450              -77.62820049               50.71621668               78.29932641             -139.42180533
              24.57372289               13.50013456               99.60941516                0.00010000               -0.00418359                0.05639239               -0.00440998                0.06658731                0.01228493                0.39092120
              25.57368105               12.92777448               99.19692476                0.00010000                0.01109625               -0.01681102                0.00465967                0.07746861                0.01945338               -0.00495922
              26.57394481               12.35544468               98.78437816                0.00010000               62.71204930               -0.07315767                0.00112064               15.79066741               17.55956146               -0.39270586
              28.82792204               12.09747342               98.72240836                0.00010000              133.94107993              -11.64463217              -44.04014703               39.50462994              111.76962340                6.98640769
              31.25276641               11.62920161               98.11073663                0.00010000              130.19112146              -13.64490948              -40.63244375               48.25747234              141.29990051                7.62938703
              33.43174447               11.05980393               97.46349661                0.00010000              106.76109499              -12.52896512              -34.76417420               66.26742711              169.08378378                4.82819625
              35.38798831               10.45569037               96.69759822                0.00010000               86.51879577              -11.03358752              -28.78900627               85.41545666              182.82241081               -1.00561059
              37.16212038                9.81569645               95.74013034                0.00010000               69.27710918              -10.22256145              -23.98359717               97.52303561              186.40594355               -9.72705256
              38.77353049                9.05807640               94.42899978                0.00010000               50.84083912              -10.62943214              -21.74803424               92.25411194              172.01765627              -23.06342687
              40.17893716                7.99111601               92.43285691                0.00010000               34.75895434               -5.34413739              -29.48242409               57.25831047              122.08241334              -46.34754370
              41.46870958                6.36044593               89.27561074                0.00010000               28.97724169               23.76619609              -91.13831871               31.94553403               79.94110670              -97.07032698
              25.14697765               14.50044838               99.46957822                0.00010000                0.00384910                0.02092048               -0.00108267                0.05413709                0.01027931                0.37718057
              26.14701614               13.92758747               99.05449660                0.00010000                0.01168912               -0.02438220                0.00657549                0.07039534                0.01721706               -0.01830612
              27.14721143               13.35498869               98.63949102                0.00010000               70.04437632               -0.03340530                0.00390084                8.63294377               17.44916355               -0.36088577
              29.54790367               12.95345625               98.57278631                0.00010000              150.93353466              -16.83940961              -48.49770237               23.40933272              113.65648100                2.68123013
              32.16588213               12.43277903               97.94096259                0.00010000              150.09402561              -24.18980778              -44.60520762               31.43902408              144.29200983                3.21953991
              34.54978418               11.86266323               97.24255585                0.00010000              126.80987705              -25.14058668              -38.05606970               45.43320101              172.45310983                1.88445587
              36.70207967               11.27534485               96.37941412                0.00010000              104.93466161              -23.18253357              -31.74230244               59.19589749              186.25378631               -1.56438421
              38.64847741               10.65251262               95.27317943                0.00010000               84.31114484              -20.18488909              -27.07201662               66.14405840              189.63302859               -7.31649308
              40.38830256                9.92283637               93.75907114                0.00010000               60.78998187              -15.11813436              -25.67848709               59.41884969              174.85136725              -16.56138992
              41.86427705                8.95992367               91.51015196                0.00010000               39.43637719               -2.40489924              -34.66383068               35.06884666              123.33106645              -32.42595260
              43.17703011                7.63396972               88.06198075                0.00010000               31.27530581               26.94453161              -96.89268275               19.00435851               80.33397943              -64.44061779
              25.72052746               15.50055297               99.32955830                0.00010000                0.00211931                0.00410285                0.00141534                0.04326676                0.01804806                0.36647395
              26.72054865               14.92728684               98.91194449                0.00010000                0.01037218               -0.03392270                0.00796500                0.08197167                0.04184309               -0.07400795
              27.72073490               14.35477657               98.49482605                0.00010000               74.88848508               -0.04076440               -0.00819257               -0.94548364               17.44807439               -0.39711813
              30.21831835               13.76068522               98.42471314                0.00010000              162.58025089              -22.48221149              -50.90548094                5.20875290              114.88883840               -0.46620935
              32.97233992               13.14540545               97.78392142                0.00010000              163.97621567              -33.35529231              -46.70540986               17.03023520              146.42675593               -0.11087165
              35.49784267               12.55699220               97.05386113                0.00010000              140.48584758              -34.79268494              -39.85691260               31.15389775              174.72414165               -0.38231584
              37.78205687               11.99203970               96.12270482                0.00010000              116.98336832              -31.52957908              -33.49858297               41.34662940              188.20136392               -2.22994796
              39.83751003               11.41199867               94.91063747                0.00010000               93.62197792              -26.18833386              -29.00885585               44.68377461              191.24634412               -5.94676421
              41.65449643               10.75571372               93.25614133                0.00010000               66.58353558              -17.53317165              -27.99557871               38.63684913              175.96175361              -12.17704614
              43.16918074                9.94301803               90.83857737                0.00010000               42.31041160               -1.55236536              -37.34119433               22.12851272              123.62397957              -22.61207276
              44.50070466                8.89933657               87.20512625                0.00010000               33.15239175               25.69423441              -99.33245704               11.98121104               79.99604265              -42.77938881
              26.29437525               16.50053044               99.18922134                0.00010000                0.00567205               -0.01118096                0.00497959                0.02300759                0.01963941                0.33666461
              27.29443197               15.92690901               98.76876987                0.00010000                0.02640588               -0.02659555               -0.00436234                0.07198720                0.07140690               -0.14391992
              28.29490337               15.35417340               98.34931696                0.00010000               78.35089344               -0.13732334               -0.04445596              -13.65443872               18.50225838               -0.48987587
              30.86144984               14.50381202               98.29509003                0.00010000              170.76382401              -31.47182938              -51.25538342              -15.61258798              117.17411421               -3.93022839
              33.71017985               13.76567318               97.67051796                0.00010000              173.23890200              -43.44648305              -46.62954080                6.45479003              149.49796216               -2.36691030
              36.32622788               13.16680953               96.93134384                0.00010000              148.19129666              -41.40753197              -40.00187953               21.55179648              177.07730255               -1.62120284
              38.67400578               12.64475327               95.95638568                0.00010000              122.61255036              -36.10980204              -33.89005838               28.36449507              189.40901617               -2.34525236
              40.77847889               12.12874594               94.67226509                0.00010000               97.80072019              -29.12030005              -29.70485437               28.96777482              191.76955958               -4.72346284
              42.63002019               11.57217293               92.92387269                0.00010000               69.23727815              -18.73297242              -28.94045483               24.35157213              176.07337933               -8.83147323
              44.16322445               10.92887637               90.39706868                0.00010000               43.69985307               -1.44932910              -38.49630674               14.08355026              123.44637386              -15.23075137
              45.50401725               10.14785441               86.64720450                0.00010000               34.07927968               24.87971191             -100.55184098                7.59411147               79.81555724              -27.51855672
              26.86823046               17.50032935               99.04820901                0.00010000                0.01149723               -0.02497295               -0.01253707                0.00979954                0.03085222                0.27352741
              27.86834543               16.92675492               98.62507403                0.00010000                0.12563281               -0.00630604               -0.00802034               -0.04181781                0.12935310               -0.18026775
              28.87074312               16.35203010               98.20363570                0.00010000               81.31106897               -0.79638062               -0.39727508              -31.47852111               22.24077307               -0.68119711
              31.49456681               15.13124864               98.20405822                0.00010000              178.38475495              -49.73564118              -48.78113530              -26.73251097              124.15699955               -6.39398140
              34.43843822               14.27647579               97.64692371                0.00010000              177.76158489              -49.95056253              -44.29795393                0.94057536              155.64616208               -2.92073315
              37.04979851               13.72884156               96.90982958                0.00010000              147.44860727              -44.06034901              -38.24176943               13.64125839              179.03994579               -1.24923005
              39.38741036               13.26984366               95.90613953                0.00010000              121.98236763              -37.45148385              -33.01513915               15.82973935              189.67919496               -1.41937041
              41.48944586               12.82959267               94.57636454                0.00010000               97.69935410              -29.89730848              -29.19323158               14.97893408              191.23905977               -2.80266444
              43.34139744               12.38105427               92.77108861                0.00010000               69.28622059              -19.03996830              -28.54802996               12.36682175              175.50646106               -5.14006115
              44.87517027               11.91403145               90.18209507                0.00010000               43.66166834               -1.62163379              -38.17438592                7.45745168              122.95941504               -8.26114938
              46.21463081               11.39693081               86.36242268                0.00010000               33.94605357               25.47306681             -100.83126988                3.80233948               79.58547720              -14.48778462
              27.44172010               18.50003098               98.90636108                0.00010000                0.01747688               -0.02983714                0.02213658                0.02415498                0.13041536                0.23185798
              28.44189487               17.92678289               98.48131518                0.00010000                0.95595704                0.00279675               -0.02941301               -0.73431620                0.39213879               -0.19275155
              29.46083924               17.33824579               98.06078012                1.00000000               98.02295349               -1.37843151               -3.95512240              -61.87457246               45.97829004               -6.74059908
              32.40235394               15.50909920               98.26206294                0.00010000              183.52795975              -62.21494367              -43.24129049              -37.80048045              143.05126842              -18.87275555
              35.13139843               14.76666193               97.76364593                0.00010000              160.16656217              -50.98138606              -39.12756480                8.12118916              158.45576724               -8.24060271
              37.60568518               14.28560255               97.01303592                0.00010000              137.92255155              -44.32390151              -36.01176729               12.04174994              177.44063547               -6.07528007
              39.88984946               13.89572359               95.98659386                0.00010000              118.05808935              -37.41200733              -31.69854519               12.50377143              188.67679610               -6.24345156
              41.96684697               13.53079977               94.64148496                0.00010000               95.15341918              -29.87929013              -27.55549089               12.52260930              191.63826953               -8.26521098
              43.79291785               13.19137357               92.82575584                0.00010000               66.48249919              -18.96807018              -25.73933272               13.43423663              176.13109547              -12.05498141
              45.29649695               12.89644369               90.22063870                0.00010000               41.06737369               -1.75877550              -34.94156876               15.42977650              123.34709279              -13.85614361
              46.61426532               12.65731574               86.38027045                0.00010000               31.77683713               26.03849382              -97.76857435               16.05065644               80.76420626              -17.89655274
              22.13139244                8.63497970              101.31050154                1.00000000                0.01800785                0.06737646               -0.00990016               -0.03257157               -0.05174044                0.06588172
              23.13157252                8.06879285              100.90745916                1.00000000                0.05025124                0.01998631               -0.01932934               -0.09111089               -0.07125738                0.01677693
              24.13239747                7.50287997              100.50404654                1.00000000                0.09098827               -0.02162198               -0.01289253               -0.11635421               -0.08723256                0.02908993
              25.13339229                6.93887076              100.10085658                1.00000000                0.13559567               -0.03079720               -0.01148971               -0.00897940               -0.07315641                0.02809135
              26.13510938                6.37710166               99.69790433                1.00000000                0.23724214               -0.02521572               -0.01888883                0.10495227                0.04170597                0.02636767
              27.13813713                5.81872258               99.29622766                1.00000000                0.33828677               -0.05922936               -0.00439566                0.29525775                0.35449724                0.04023767
              28.14187512                5.26410635               98.89683290                1.00000000                0.28018092                0.00857031                0.07545028                0.41656666                0.64304491               -0.00533820
              29.14374075                4.70825670               98.49698925                1.00000000                0.12631176                0.03230944                0.09955695                0.44489091                0.56210578               -0.05426158
              30.14440135                4.14475801               98.09391839                1.00000000                0.08226335               -0.03939806                0.03905271                0.31686247                0.26195846               -0.07394676
              31.14538602                3.57208686               97.68587585                1.00000000                0.10332956               -0.02890102               -0.04961049                0.16937758               -0.03821460               -0.00795930
              32.14646794                2.99358367               97.27313901                1.00000000                0.10819278               -0.13394040               -0.27535168                0.27025256               -0.23345945               -0.53077900
              22.69725358                9.63565346              101.16908221                1.00000000               -0.05422953                0.13580396               -0.00827421                0.00716451                0.03932591                0.11879525
              23.69671128                9.06899272              100.76628699                1.00000000               -0.05292999                0.05644514                0.00869420               -0.04572778                0.05545201                0.01766557
              24.69619498                8.50266375              100.36413289                1.00000000               -0.02598163               -0.01768582                0.02698028               -0.05222310                0.05221233               -0.00309144
              25.69619165                7.93856278               99.96205345                1.00000000                0.00190093                0.00567527                0.00722612               -0.02754759                0.06110365                0.05083292
              26.69623299                7.37684950               99.56002721                1.00000000                0.06978588               -0.00785104               -0.02534427                0.14206868                0.13635108                0.00422697
              27.69758736                6.81813028               99.15833496                1.00000000                0.25203636               -0.07956649               -0.10319122                0.76952175                0.36390092               -0.03999612
              28.70127372                6.26419205               98.75681939                1.00000000                0.51382309               -0.35303190               -0.30496792                7.09992071                0.83059825               -1.57098373
              29.70786383                5.70857980               98.35672506                1.00000000                0.71905887                1.33140627               -0.37415859               32.62612274                1.42535206               -6.01966067
              30.71565490                5.14436403               97.95811102                1.00000000                0.74015673                4.74916855               -0.30879761               71.53490319                1.85416742              -12.33404983
              31.72266696                4.57179785               97.55909690                1.00000000                0.60093806               11.27323699               -0.24356980              118.88399103                1.75076112              -16.34706176
              32.72767366                3.99224427               97.15131229                1.00000000                0.50066984              -44.95337226               -0.38738021              169.33023014                1.52839619              -63.67099905
              23.26485723               10.63769578              101.02851368                1.00000000               -0.12095468                0.22994979               -0.03852719                0.17477904                0.07600853                0.21175262
              24.26364768               10.06992176              100.62471304                1.00000000               -0.15371457                0.08395302                0.02179555                0.19650909                0.14037611                0.01527168
              25.26178294                9.50252625              100.22285580                1.00000000               -0.24960519               -0.09809396                0.09841996                0.46414234                0.29570458               -0.27169285
              26.25865558                8.93898426               99.82375173                1.00000000               -0.16998420               25.85931993                0.03947115              107.36681993                0.28989456              -14.47541214
              27.25838326                8.37694464               99.42201169                1.00000000                0.37647193               23.02682816               -0.07143487              157.28013856                0.24746886              -13.62034599
              28.26618502                7.81713125               99.01914341                1.00000000                6.75203810               21.76756510               -0.43032420              189.00506286               -0.43697046              -16.01598451
              29.39342402                7.25704571               98.58408701                1.00000000               32.49531028               20.25729691               -4.23879224              217.06516123                7.99081463              -19.61191122
              30.91609122                6.73488483               98.09546740                1.00000000               65.92286728               20.76826014              -13.33565123              243.43812039               55.21829620              -22.61604828
              32.71188136                6.23974138               97.57761375                1.00000000               87.95471871               24.90584922              -24.91139224              271.39300276              133.19789106              -28.96667126
              34.67518560                5.79755160               97.10651359                1.00000000               99.01491758               23.71977715              -31.05412953              239.80166503              184.14644318              -45.59183519
              36.69217971                4.09451623               95.76728963                1.00000000              101.69941160              -39.26206455             -113.68193239              193.84662250              229.24192681             -236.58290566
              23.83629720               11.64025246              100.88854892                1.00000000               -0.04862123                0.21701906               -0.04375498                0.33452591                0.06012232                0.28447098
              24.83581099               11.07067178              100.48223574                1.00000000                0.00590575                0.02846854                0.00443609                0.37366216                0.06053451               -0.00381494
              25.83641532               10.50070187              100.07587499                1.00000000              106.66493336               -0.18377353                0.05711671               26.72563387              -13.65890631               -0.40066725
              28.96910966               10.45574918               99.39499981                1.00000000              156.36367306               24.04439272              -54.65095625              151.66638549              140.64141982                1.43491063
              30.96368878                9.83738607               99.01280023                1.00000000               81.42389478               29.40454673              -36.66574128              206.27317455              187.94262685               -4.61565087
              32.59758755                9.25348159               98.56549357                1.00000000               58.05672929               29.17353335              -32.20038007              263.25452686              198.06562962               -8.07766060
              34.12482336                8.66933799               98.09754582                1.00000000               49.81715048               29.94714242              -28.72422690              303.38396386              207.00198108              -13.22361417
              35.59393056                8.12394500               97.56753705                1.00000000               47.80124086               30.57555928              -26.06336774              322.17970195              211.35010432              -18.77663556
              37.08084818                7.64248101               96.91463854                1.00000000               53.49974272               29.12908357              -22.25406176              319.96326367              211.99320509              -25.68593405
              38.66392542                7.04619339               95.93244885                1.00000000               46.49143393               12.25723706              -12.60405066              247.41236410              180.46316629              -57.08359806
              40.01067686                5.20700298               93.73141079                1.00000000               34.67514432                0.97798349              -26.15943300              163.39009677              117.15747954             -136.42067818
              24.41070912               12.64203616              100.74891168                1.00000000               -0.00375970                0.12768138               -0.02814534                0.34613579                0.03793233                0.30948071
              25.41067152               12.07049113              100.33950762                1.00000000                0.02545476               -0.02284043                0.00565206                0.36965401                0.03649452               -0.00712795
              26.41121821               11.49885078               99.92985230                1.00000000              127.23137862               -0.15172811                0.01877107               24.99361121              -16.14717941               -0.33614173
              29.95529909               11.41987212               99.19632165                1.00000000              208.74480656               -7.57181958              -65.05526613               65.37072209              136.50849146                2.14095533
              32.58611434               10.96503557               98.81255994                1.00000000              137.20122711                1.28488892              -44.93665637               88.67262710              197.78457998                4.80674805
              34.69932363               10.40060191               98.30591096                1.00000000              100.22627684                4.10629363              -37.52447657              125.79517199              210.51340402                1.96105742
              36.59063988                9.85598856               97.72602956                1.00000000               84.36093019                6.90240594              -31.55898160              162.87947652              219.00553442               -1.94873276
              38.38654224                9.34639601               97.00406799                1.00000000               79.91291818                8.29937028              -27.50946169              195.11479584              222.61270389               -7.92885924
              40.18889824                8.82232305               96.00600462                1.00000000               83.61843403                3.09264148              -24.29555423              211.15034784              218.30787334              -19.61664318
              42.05891092                8.04269634               94.42970874                1.00000000               72.47321214              -10.93355616              -19.80346561              165.74710511              169.52933383              -40.43522533
              43.63836249                6.11407590               91.32173020                1.00000000               57.94515675               -1.27793106              -61.32805950              122.67816781              125.36046743             -111.69402107
              24.98630999               13.64280609              100.60930728                1.00000000                0.00794651                0.05693296               -0.01078775                0.31267621                0.02381135                0.29800441
              25.98638945               13.07021497              100.19695830                1.00000000                0.02982840               -0.03281599                0.00335358                0.31896636                0.02318963               -0.00251768
              26.98690655               12.49766731               99.78435428                1.00000000              141.19749275               -0.09423842               -0.00238837               19.27554076              -20.01311694               -0.29550491
              30.81033931               12.30431279               98.97077248                1.00000000              238.47524840              -14.35315081              -75.16358860               48.39962505              138.53493668               -0.94545579
              33.75641152               11.86308384               98.59021847                1.00000000              170.60993522              -16.68071739              -52.05181590               58.31339341              203.32568440                1.51038875
              36.22253801               11.33560746               98.02999594                1.00000000              134.01036367              -15.21817506              -43.35006670               83.78474039              216.49979317                0.90037309
              38.43661879               10.80738611               97.33862725                1.00000000              115.36769873              -14.15364159              -35.89709752              112.76742746              224.86802778               -1.63894277
              40.52989198               10.28993241               96.43009553                1.00000000              108.54680080              -14.95494043              -31.00348071              136.12085944              227.27127719               -6.02598267
              42.60755481                9.70433384               95.14850959                1.00000000              107.86113457              -19.08502952              -28.04901906              141.17332107              220.49588057              -13.29872089
              44.68711468                8.82752227               93.17196451                1.00000000               85.69631495              -22.06121051              -26.08924002              103.73768949              172.72578025              -27.26078346
              46.32148111                7.18144436               89.58667017                1.00000000               63.43664341                7.65573958              -68.89405766               69.73415609              126.74771909              -66.88822984
              25.56214488               14.64317482              100.46952871                1.00000000                0.00447485                0.03810900               -0.00495076                0.26753551                0.02148152                0.28463969
              26.56218963               14.06983481              100.05457629                1.00000000                0.02431621               -0.04574445                0.00796932                0.28864758                0.01576019               -0.02156219
              27.56263120               13.49696601               99.63949694                1.00000000              149.78427126               -0.06436623                0.00059205               10.76061159              -23.00014808               -0.29334161
              31.55787505               13.13280910               98.76373379                1.00000000              257.92281693              -20.23925238              -80.90525258               28.41619486              137.77245391               -1.30297856
              34.72108754               12.63142123               98.37500324                1.00000000              193.64205628              -28.89154241              -56.59593464               38.33326155              205.94942127                0.12330471
              37.43071618               12.09623841               97.77231138                1.00000000              158.52879689              -30.84587933              -47.02444672               58.04343154              218.83600004                0.04669965
              39.89166348               11.57291573               96.98985924                1.00000000              139.06477552              -30.30325785              -38.95548748               79.25582324              227.09663420               -1.44930527
              42.21201169               11.04729721               95.93507643                1.00000000              129.15556595              -29.92814692              -33.81029915               93.69057607              229.23623199               -4.32594717
              44.47477480               10.44062246               94.44751533                1.00000000              122.22712532              -29.26826682              -31.15558113               92.59599437              222.47742985               -9.39544113
              46.65655420                9.60147213               92.21168056                1.00000000               92.52133200              -22.02335436              -29.84714051               64.07276800              173.95038672              -18.38561460
              48.32520144                8.26719069               88.34196876                1.00000000               66.86472432                7.87636092              -72.00119847               41.89957526              127.84595394              -42.13547320
              26.13834072               15.64356827              100.32954720                1.00000000                0.00304891                0.03679695               -0.00111000                0.22126977                0.02984362                0.28840470
              27.13837121               15.06930008               99.91203238                1.00000000                0.04018863               -0.04688685                0.00878828                0.29256777                0.03153573               -0.09190609
              28.13914449               14.49637998               99.49453280                1.00000000              155.29183892               -0.08469506               -0.02932485               -0.72675568              -24.46029889               -0.39876207
              32.24420799               13.89952774               98.58600721                1.00000000              271.02514724              -27.80903878              -83.87059283                5.77424549              137.63233216               -1.51573284
              35.55964744               13.28525300               98.19540017                1.00000000              209.88520767              -40.83752919              -58.85212463               20.64681918              207.61936926               -0.47818197
              38.44191214               12.71868987               97.56377956                1.00000000              175.55145144              -43.36568133              -49.00815726               39.94580087              220.36190856               -0.49813040
              41.07067647               12.20132095               96.71449939                1.00000000              154.70423138              -41.55235333              -40.82054346               55.51269224              228.37335179               -1.39256487
              43.53599677               11.69136947               95.55400740                1.00000000              141.73116526              -38.75269940              -35.66300617               63.50441451              230.37513283               -3.37596468
              45.90529977               11.11896851               93.92502857                1.00000000              130.30025205              -33.63703461              -33.11127554               60.27435604              223.43772897               -6.78198639
              48.14200181               10.38705518               91.52115530                1.00000000               96.13678663              -21.36921389              -31.74220775               40.60605358              174.90661642              -12.53475666
              49.82803550                9.33897157               87.47751877                1.00000000               68.60336944                6.18007734              -72.76074812               26.26558926              128.36943124              -27.30255951
              26.71510665               16.64391076              100.18926621                1.00000000                0.01226173                0.02647587                0.00448722                0.16778693                0.01768774                0.26498780
              27.71522927               16.06889707               99.76871169                1.00000000                0.13808870               -0.03095580               -0.00581894                0.25383531                0.03216291               -0.15462207
              28.71786843               15.49527211               99.34831487                1.00000000              158.46288390               -0.39645770               -0.10020844              -15.99988148              -23.35237406               -0.80356744
              32.88448695               14.57662832               98.45573409                1.00000000              279.84966852              -41.61903575              -83.93559327              -20.64866261              139.17519255               -1.35681338
              36.31486180               13.81467064               98.08574451                1.00000000              221.45386476              -54.29477005              -58.47734447                7.59268181              209.62916142               -0.57639277
              39.31356424               13.22892479               97.43895343                1.00000000              185.71879659              -52.14475248              -49.23904147               27.59690050              221.61868297               -0.22551521
              42.02923773               12.74186866               96.54344545                1.00000000              162.54440897              -47.88678150              -41.29402291               37.79258313              229.01630028               -1.01068400
              44.56445242               12.27224322               95.30881555                1.00000000              147.76692375              -43.37423315              -36.34495410               40.56649978              230.69338155               -2.50766738
              46.98457620               11.76788177               93.58536602                1.00000000              134.21098893              -36.39551294              -33.85066759               37.36873294              223.66037988               -4.81958267
              49.24867220               11.17408785               91.07291111                1.00000000               98.10521206              -22.14804395              -32.41575687               25.32111627              175.10885204               -8.40100370
              50.94668045               10.39079223               86.91664756                1.00000000               69.80082440                4.17306865              -73.05569363               16.75091548              128.63996438              -17.84155051
              27.29172384               17.64409779              100.04808632                1.00000000                0.03627276                0.00905888               -0.01226948                0.12794300                0.03708770                0.24632732
              28.29208656               17.06868096               99.62496382                1.00000000                0.98458871               -0.02245252               -0.01102102               -0.07817206               -0.21700136               -0.20090358
              29.31141561               16.48845083               99.19626403                1.00000000              160.98748201               -6.64494446               -0.73716709              -28.07925305              -16.51902435               -4.67000094
              33.51183620               15.06714703               98.41323835                1.00000000              287.38945003              -68.63505883              -79.08198781              -36.69460538              146.20760732               -1.27119062
              37.05920461               14.19935760               98.08587739                1.00000000              227.74079656              -62.25681445              -56.10463141                2.02873489              213.16665913                1.34532950
              40.06665213               13.67579482               97.43503874                1.00000000              186.20025435              -55.56865451              -47.47908477               18.05949749              222.39423917                0.79092997
              42.78320970               13.24358532               96.50005492                1.00000000              162.73307593              -49.63694724              -40.60846088               20.87244027              228.67097163               -0.26687127
              45.32131365               12.82388480               95.21685950                1.00000000              148.38100482              -44.98456192              -35.95050430               20.03029148              230.04499509               -1.33210252
              47.75082979               12.39105825               93.43721924                1.00000000              135.21000086              -39.19413378              -33.38693662               17.94684361              223.23587270               -2.48793995
              50.02551367               11.94409430               90.86271225                1.00000000               98.94076301              -24.21676066              -31.93828223               12.69226635              174.91398260               -4.41541506
              51.72964505               11.42243295               86.63481210                1.00000000               70.41313836                2.25456367              -72.76105764                8.72580712              128.71140985               -9.72540736
              27.86849916               18.64409194               99.90665589                1.00000000                0.08136291               -0.00058493                0.02948050                0.11314058                0.09647130                0.26305231
              28.86931279               18.06844802               99.48084154                1.00000000               14.46590716               -0.02329435               -0.04736389               -6.36331335               -3.48733185               -0.24571553
              30.15781730               17.36237322               98.98207341                1.00000000              178.51876428              -12.60776061               -7.87067144              -58.58587450               23.58140434              -19.00631901
              34.43968807               15.20392715               98.55851350                1.00000000              279.44856998              -86.32198811              -70.35494444              -46.85675648              167.97411811              -15.98969008
              37.74678870               14.56953435               98.26688749                1.00000000              209.54191982              -62.98232422              -49.67584312               14.43963652              211.65662735               -1.61174742
              40.63052647               14.11755170               97.56086551                1.00000000              177.59039257              -55.82431259              -45.21704152               15.36720147              218.67098985               -4.22240791
              43.29859655               13.74912971               96.59062471                1.00000000              159.35294277              -49.44556059              -39.59691499               14.28869964              227.51089473               -5.60240876
              45.81758532               13.37255198               95.29358923                1.00000000              146.23535121              -45.13328251              -34.78957348               11.37063612              231.32256316               -8.15180583
              48.22330358               12.98399909               93.51559926                1.00000000              132.67787529              -40.70591542              -31.01565839               13.10741134              224.58296624              -12.89944569
              50.47114283               12.68975264               90.92447709                1.00000000               97.06078642              -25.43416636              -29.61616048               17.15713667              175.24138165              -14.49262030
              52.16451930               12.43588351               86.67113513                1.00000000               69.33764744                1.34505613              -70.91353197               18.10051172              129.69120204              -18.51092053
         1          2         13         12        122        123        134        133  
         2          3         14         13        123        124        135        134  
         3          4         15         14        124        125        136        135  
         4          5         16         15        125        126        137        136  
         5          6         17         16        126        127        138        137  
         6          7         18         17        127        128        139        138  
         7          8         19         18        128        129        140        139  
         8          9         20         19        129        130        141        140  
         9         10         21         20        130        131        142        141  
        10         11         22         21        131        132        143        142  
        12         13         24         23        133        134        145        144  
        13         14         25         24        134        135        146        145  
        14         15         26         25        135        136        147        146  
        15         16         27         26        136        137        148        147  
        16         17         28         27        137        138        149        148  
        17         18         29         28        138        139        150        149  
        18         19         30         29        139        140        151        150  
        19         20         31         30        140        141        152        151  
        20         21         32         31        141        142        153        152  
        21         22         33         32        142        143        154        153  
        23         24         35         34        144        145        156        155  
        24         25         36         35        145        146        157        156  
        25         26         37         36        146        147        158        157  
        26         27         38         37        147        148        159        158  
        27         28         39         38        148        149        160        159  
        28         29         40         39        149        150        161        160  
        29         30         41         40        150        151        162        161  
        30         31         42         41        151        152        163        162  
        31         32         43         42        152        153        164        163  
        32         33         44         43        153        154        165        164  
        34         35         46         45        155        156        167        166  
        35         36         47         46        156        157        168        167  
        36         37         48         47        157        158        169        168  
        37         38         49         48        158        159        170        169  
        38         39         50         49        159        160        171        170  
        39         40         51         50        160        161        172        171  
        40         41         52         51        161        162        173        172  
        41         42         53         52        162        163        174        173  
        42         43         54         53        163        164        175        174  
        43         44         55         54        164        165        176        175  
        45         46         57         56        166        167        178        177  
        46         47         58         57        167        168        179        178  
        47         48         59         58        168        169        180        179  
        48         49         60         59        169        170        181        180  
        49         50         61         60        170        171        182        181  
        50         51         62         61        171        172        183        182  
        51         52         63         62        172        173        184        183  
        52         53         64         63        173        174        185        184  
        53         54         65         64        174        175        186        185  
        54         55         66         65        175        176        187        186  
        56         57         68         67        177        178        189        188  
        57         58         69         68        178        179        190        189  
        58         59         70         69        179        180        191        190  
        59         60         71         70        180        181        192        191  
        60         61         72         71        181        182        193        192  
        61         62         73         72        182        183        194        193  
        62         63         74         73        183        184        195        194  
        63         64         75         74        184        185        196        195  
        64         65         76         75        185        186        197        196  
        65         66         77         76        186        187        198        197  
        67         68         79         78        188        189        200        199  
        68         69         80         79        189        190        201        200  
        69         70         81         80        190        191        202        201  
        70         71         82         81        191        192        203        202  
        71         72         83         82        192        193        204        203  
        72         73         84         83        193        194        205        204  
        73         74         85         84        194        195        206        205  
        74         75         86         85        195        196        207        206  
        75         76         87         86        196        197        208        207  
        76         77         88         87        197        198        209        208  
        78         79         90         89        199        200        211        210  
        79         80         91         90        200        201        212        211  
        80         81         92         91        201        202        213        212  
        81         82         93         92        202        203        214        213  
        82         83         94         93        203        204        215        214  
        83         84         95         94        204        205        216        215  
        84         85         96         95        205        206        217        216  
        85         86         97         96        206        207        218        217  
        86         87         98         97        207        208        219        218  
        87         88         99         98        208        209        220        219  
        89         90        101        100        210        211        222        221  
        90         91        102        101        211        212        223        222  
        91         92        103        102        212        213        224        223  
        92         93        104        103        213        214        225        224  
        93         94        105        104        214        215        226        225  
        94         95        106        105        215        216        227        226  
        95         96        107        106        216        217        228        227  
        96         97        108        107        217        218        229        228  
        97         98        109        108        218        219        230        229  
        98         99        110        109        219        220        231        230  
       100        101        112        111        221        222        233        232  
       101        102        113        112        222        223        234        233  
       102        103        114        113        223        224        235        234  
       103        104        115        114        224        225        236        235  
       104        105        116        115        225        226        237        236  
       105        106        117        116        226        227        238        237  
       106        107        118        117        227        228        239        238  
       107        108        119        118        228        229        240        239  
       108        109        120        119        229        230        241        240  
       109        110        121        120        230        231        242        241  
       122        123        134        133        243        244        255        254  
       123        124        135        134        244        245        256        255  
       124        125        136        135        245        246        257        256  
       125        126        137        136        246        247        258        257  
       126        127        138        137        247        248        259        258  
       127        128        139        138        248        249        260        259  
       128        129        140        139        249        250        261        260  
       129        130        141        140        250        251        262        261  
       130        131        142        141        251        252        263        262  
       131        132        143        142        252        253        264        263  
       133        134        145        144        254        255        266        265  
       134        135        146        145        255        256        267        266  
       135        136        147        146        256        257        268        267  
       136        137        148        147        257        258        269        268  
       137        138        149        148        258        259        270        269  
       138        139        150        149        259        260        271        270  
       139        140        151        150        260        261        272        271  
       140        141        152        151        261        262        273        272  
       141        142        153        152        262        263        274        273  
       142        143        154        153        263        264        275        274  
       144        145        156        155        265        266        277        276  
       145        146        157        156        266        267        278        277  
       146        147        158        157        267        268        279        278  
       147        148        159        158        268        269        280        279  
       148        149        160        159        269        270        281        280  
       149        150        161        160        270        271        282        281  
       150        151        162        161        271        272        283        282  
       151        152        163        162        272        273        284        283  
       152        153        164        163        273        274        285        284  
       153        154        165        164        274        275        286        285  
       155        156        167        166        276        277        288        287  
       156        157        168        167        277        278        289        288  
       157        158        169        168        278        279        290        289  
       158        159        170        169        279        280        291        290  
       159        160        171        170        280        281        292        291  
       160        161        172        171        281        282        293        292  
       161        162        173        172        282        283        294        293  
       162        163        174        173        283        284        295        294  
       163        164        175        174        284        285        296        295  
       164        165        176        175        285        286        297        296  
       166        167        178        177        287        288        299        298  
       167        168        179        178        288        289        300        299  
       168        169        180        179        289        290        301        300  
       169        170        181        180        290        291        302        301  
       170        171        182        181        291        292        303        302  
       171        172        183        182        292        293        304        303  
       172        173        184        183        293        294        305        304  
       173        174        185        184        294        295        306        305  
       174        175        186        185        295        296        307        306  
       175        176        187        186        296        297        308        307  
       177        178        189        188        298        299        310        309  
       178        179        190        189        299        300        311        310  
       179        180        191        190        300        301        312        311  
       180        181        192        191        301        302        313        312  
       181        182        193        192        302        303        314        313  
       182        183        194        193        303        304        315        314  
       183        184        195        194        304        305        316        315  
       184        185        196        195        305        306        317        316  
       185        186        197        196        306        307        318        317  
       186        187        198        197        307        308        319        318  
       188        189        200        199        309        310        321        320  
       189        190        201        200        310        311        322        321  
       190        191        202        201        311        312        323        322  
       191        192        203        202        312        313        324        323  
       192        193        204        203        313        314        325        324  
       193        194        205        204        314        315        326        325  
       194        195        206        205        315        316        327        326  
       195        196        207        206        316        317        328        327  
       196        197        208        207        317        318        329        328  
       197        198        209        208        318        319        330        329  
       199        200        211        210        320        321        332        331  
       200        201        212        211        321        322        333        332  
       201        202        213        212        322        323        334        333  
       202        203        214        213        323        324        335        334  
       203        204        215        214        324        325        336        335  
       204        205        216        215        325        326        337        336  
       205        206        217        216        326        327        338        337  
       206        207        218        217        327        328        339        338  
       207        208        219        218        328        329        340        339  
       208        209        220        219        329        330        341        340  
       210        211        222        221        331        332        343        342  
       211        212        223        222        332        333        344        343  
       212        213        224        223        333        334        345        344  
       213        214        225        224        334        335        346        345  
       214        215        226        225        335        336        347        346  
       215        216        227        226        336        337        348        347  
       216        217        228        227        337        338        349        348  
       217        218        229        228        338        339        350        349  
       218        219        230        229        339        340        351        350  
       219        220        231        230        340        341        352        351  
       221        222        233        232        342        343        354        353  
       222        223        234        233        343        344        355        354  
       223        224        235        234        344        345        356        355  
       224        225        236        235        345        346        357        356  
       225        226        237        236        346        347        358        357  
       226        227        238        237        347        348        359        358  
       227        228        239        238        348        349        360        359  
       228        229        240        239        349        350        361        360  
       229        230        241        240        350        351        362        361  
       230        231        242        241        351        352        363        362  
       243        244        255        254        364        365        376        375  
       244        245        256        255        365        366        377        376  
       245        246        257        256        366        367        378        377  
       246        247        258        257        367        368        379        378  
       247        248        259        258        368        369        380        379  
       248        249        260        259        369        370        381        380  
       249        250        261        260        370        371        382        381  
       250        251        262        261        371        372        383        382  
       251        252        263        262        372        373        384        383  
       252        253        264        263        373        374        385        384  
       254        255        266        265        375        376        387        386  
       255        256        267        266        376        377        388        387  
       256        257        268        267        377        378        389        388  
       257        258        269        268        378        379        390        389  
       258        259        270        269        379        380        391        390  
       259        260        271        270        380        381        392        391  
       260        261        272        271        381        382        393        392  
       261        262        273        272        382        383        394        393  
       262        263        274        273        383        384        395        394  
       263        264        275        274        384        385        396        395  
       265        266        277        276        386        387        398        397  
       266        267        278        277        387        388        399        398  
       267        268        279        278        388        389        400        399  
       268        269        280        279        389        390        401        400  
       269        270        281        280        390        391        402        401  
       270        271        282        281        391        392        403        402  
       271        272        283        282        392        393        404        403  
       272        273        284        283        393        394        405        404  
       273        274        285        284        394        395        406        405  
       274        275        286        285        395        396        407        406  
       276        277        288        287        397        398        409        408  
       277        278        289        288        398        399        410        409  
       278        279        290        289        399        400        411        410  
       279        280        291        290        400        401        412        411  
       280        281        292        291        401        402        413        412  
       281        282        293        292        402        403        414        413  
       282        283        294        293        403        404        415        414  
       283        284        295        294        404        405        416        415  
       284        285        296        295        405        406        417        416  
       285        286        297        296        406        407        418        417  
       287        288        299        298        408        409        420        419  
       288        289        300        299        409        410        421        420  
       289        290        301        300        410        411        422        421  
       290        291        302        301        411        412        423        422  
       291        292        303        302        412        413        424        423  
       292        293        304        303        413        414        425        424  
       293        294        305        304        414        415        426        425  
       294        295        306        305        415        416        427        426  
       295        296        307        306        416        417        428        427  
       296        297        308        307        417        418        429        428  
       298        299        310        309        419        420        431        430  
       299        300        311        310        420        421        432        431  
       300        301        312        311        421        422        433        432  
       301        302        313        312        422        423        434        433  
       302        303        314        313        423        424        435        434  
       303        304        315        314        424        425        436        435  
       304        305        316        315        425        426        437        436  
       305        306        317        316        426        427        438        437  
       306        307        318        317        427        428        439        438  
       307        308        319        318        428        429        440        439  
       309        310        321        320        430        431        442        441  
       310        311        322        321        431        432        443        442  
       311        312        323        322        432        433        444        443  
       312        313        324        323        433        434        445        444  
       313        314        325        324        434        435        446        445  
       314        315        326        325        435        436        447        446  
       315        316        327        326        436        437        448        447  
       316        317        328        327        437        438        449        448  
       317        318        329        328        438        439        450        449  
       318        319        330        329        439        440        451        450  
       320        321        332        331        441        442        453        452  
       321        322        333        332        442        443        454        453  
       322        323        334        333        443        444        455        454  
       323        324        335        334        444        445        456        455  
       324        325        336        335        445        446        457        456  
       325        326        337        336        446        447        458        457  
       326        327        338        337        447        448        459        458  
       327        328        339        338        448        449        460        459  
       328        329        340        339        449        450        461        460  
       329        330        341        340        450        451        462        461  
       331        332        343        342        452        453        464        463  
       332        333        344        343        453        454        465        464  
       333        334        345        344        454        455        466        465  
       334        335        346        345        455        456        467        466  
       335        336        347        346        456        457        468        467  
       336        337        348        347        457        458        469        468  
       337        338        349        348        458        459        470        469  
       338        339        350        349        459        460        471        470  
       339        340        351        350        460        461        472        471  
       340        341        352        351        461        462        473        472  
       342        343        354        353        463        464        475        474  
       343        344        355        354        464        465        476        475  
       344        345        356        355        465        466        477        476  
       345        346        357        356        466        467        478        477  
       346        347        358        357        467        468        479        478  
       347        348        359        358        468        469        480        479  
       348        349        360        359        469        470        481        480  
       349        350        361        360        470        471        482        481  
       350        351        362        361        471        472        483        482  
       351        352        363        362        472        473        484        483  
       364        365        376        375        485        486        497        496  
       365        366        377        376        486        487        498        497  
       366        367        378        377        487        488        499        498  
       367        368        379        378        488        489        500        499  
       368        369        380        379        489        490        501        500  
       369        370        381        380        490        491        502        501  
       370        371        382        381        491        492        503        502  
       371        372        383        382        492        493        504        503  
       372        373        384        383        493        494        505        504  
       373        374        385        384        494        495        506        505  
       375        376        387        386        496        497        508        507  
       376        377        388        387        497        498        509        508  
       377        378        389        388        498        499        510        509  
       378        379        390        389        499        500        511        510  
       379        380        391        390        500        501        512        511  
       380        381        392        391        501        502        513        512  
       381        382        393        392        502        503        514        513  
       382        383        394        393        503        504        515        514  
       383        384        395        394        504        505        516        515  
       384        385        396        395        505        506        517        516  
       386        387        398        397        507        508        519        518  
       387        388        399        398        508        509        520        519  
       388        389        400        399        509        510        521        520  
       389        390        401        400        510        511        522        521  
       390        391        402        401        511        512        523        522  
       391        392        403        402        512        513        524        523  
       392        393        404        403        513        514        525        524  
       393        394        405        404        514        515        526        525  
       394        395        406        405        515        516        527        526  
       395        396        407        406        516        517        528        527  
       397        398        409        408        518        519        530        529  
       398        399        410        409        519        520        531        530  
       399        400        411        410        520        521        532        531  
       400        401        412        411        521        522        533        532  
       401        402        413        412        522        523        534        533  
       402        403        414        413        523        524        535        534  
       403        404        415        414        524        525        536        535  
       404        405        416        415        525        526        537        536  
       405        406        417        416        526        527        538        537  
       406        407        418        417        527        528        539        538  
       408        409        420        419        529        530        541        540  
       409        410        421        420        530        531        542        541  
       410        411        422        421        531        532        543        542  
       411        412        423        422        532        533        544        543  
       412        413        424        423        533        534        545        544  
       413        414        425        424        534        535        546        545  
       414        415        426        425        535        536        547        546  
       415        416        427        426        536        537        548        547  
       416        417        428        427        537        538        549        548  
       417        418        429        428        538        539        550        549  
       419        420        431        430        540        541        552        551  
       420        421        432        431        541        542        553        552  
       421        422        433        432        542        543        554        553  
       422        423        434        433        543        544        555        554  
       423        424        435        434        544        545        556        555  
       424        425        436        435        545        546        557        556  
       425        426        437        436        546        547        558        557  
       426        427        438        437        547        548        559        558  
       427        428        439        438        548        549        560        559  
       428        429        440        439        549        550        561        560  
       430        431        442        441        551        552        563        562  
       431        432        443        442        552        553        564        563  
       432        433        444        443        553        554        565        564  
       433        434        445        444        554        555        566        565  
       434        435        446        445        555        556        567        566  
       435        436        447        446        556        557        568        567  
       436        437        448        447        557        558        569        568  
       437        438        449        448        558        559        570        569  
       438        439        450        449        559        560        571        570  
       439        440        451        450        560        561        572        571  
       441        442        453        452        562        563        574        573  
       442        443        454        453        563        564        575        574  
       443        444        455        454        564        565        576        575  
       444        445        456        455        565        566        577        576  
       445        446        457        456        566        567        578        577  
       446        447        458        457        567        568        579        578  
       447        448        459        458        568        569        580        579  
       448        449        460        459        569        570        581        580  
       449        450        461        460        570        571        582        581  
       450        451        462        461        571        572        583        582  
       452        453        464        463        573        574        585        584  
       453        454        465        464        574        575        586        585  
       454        455        466        465        575        576        587        586  
       455        456        467        466        576        577        588        587  
       456        457        468        467        577        578        589        588  
       457        458        469        468        578        579        590        589  
       458        459        470        469        579        580        591        590  
       459        460        471        470        580        581        592        591  
       460        461        472        471        581        582        593        592  
       461        462        473        472        582        583        594        593  
       463        464        475        474        584        585        596        595  
       464        465        476        475        585        586        597        596  
       465        466        477        476        586        587        598        597  
       466        467        478        477        587        588        599        598  
       467        468        479        478        588        589        600        599  
       468        469        480        479        589        590        601        600  
       469        470        481        480        590        591        602        601  
       470        471        482        481        591        592        603        602  
       471        472        483        482        592        593        604        603  
       472        473        484        483        593        594        605        604  
       485        486        497        496        606        607        618        617  
       486        487        498        497        607        608        619        618  
       487        488        499        498        608        609        620        619  
       488        489        500        499        609        610        621        620  
       489        490        501        500        610        611        622        621  
       490        491        502        501        611        612        623        622  
       491        492        503        502        612        613        624        623  
       492        493        504        503        613        614        625        624  
       493        494        505        504        614        615        626        625  
       494        495        506        505        615        616        627        626  
       496        497        508        507        617        618        629        628  
       497        498        509        508        618        619        630        629  
       498        499        510        509        619        620        631        630  
       499        500        511        510        620        621        632        631  
       500        501        512        511        621        622        633        632  
       501        502        513        512        622        623        634        633  
       502        503        514        513        623        624        635        634  
       503        504        515        514        624        625        636        635  
       504        505        516        515        625        626        637        636  
       505        506        517        516        626        627        638        637  
       507        508        519        518        628        629        640        639  
       508        509        520        519        629        630        641        640  
       509        510        521        520        630        631        642        641  
       510        511        522        521        631        632        643        642  
       511        512        523        522        632        633        644        643  
       512        513        524        523        633        634        645        644  
       513        514        525        524        634        635        646        645  
       514        515        526        525        635        636        647        646  
       515        516        527        526        636        637        648        647  
       516        517        528        527        637        638        649        648  
       518        519        530        529        639        640        651        650  
       519        520        531        530        640        641        652        651  
       520        521        532        531        641        642        653        652  
       521        522        533        532        642        643        654        653  
       522        523        534        533        643        644        655        654  
       523        524        535        534        644        645        656        655  
       524        525        536        535        645        646        657        656  
       525        526        537        536        646        647        658        657  
       526        527        538        537        647        648        659        658  
       527        528        539        538        648        649        660        659  
       529        530        541        540        650        651        662        661  
       530        531        542        541        651        652        663        662  
       531        532        543        542        652        653        664        663  
       532        533        544        543        653        654        665        664  
       533        534        545        544        654        655        666        665  
       534        535        546        545        655        656        667        666  
       535        536        547        546        656        657        668        667  
       536        537        548        547        657        658        669        668  
       537        538        549        548        658        659        670        669  
       538        539        550        549        659        660        671        670  
       540        541        552        551        661        662        673        672  
       541        542        553        552        662        663        674        673  
       542        543        554        553        663        664        675        674  
       543        544        555        554        664        665        676        675  
       544        545        556        555        665        666        677        676  
       545        546        557        556        666        667        678        677  
       546        547        558        557        667        668        679        678  
       547        548        559        558        668        669        680        679  
       548        549        560        559        669        670        681        680  
       549        550        561        560        670        671        682        681  
       551        552        563        562        672        673        684        683  
       552        553        564        563        673        674        685        684  
       553        554        565        564        674        675        686        685  
       554        555        566        565        675        676        687        686  
       555        556        567        566        676        677        688        687  
       556        557        568        567        677        678        689        688  
       557        558        569        568        678        679        690        689  
       558        559        570        569        679        680        691        690  
       559        560        571        570        680        681        692        691  
       560        561        572        571        681        682        693        692  
       562        563        574        573        683        684        695        694  
       563        564        575        574        684        685        696        695  
       564        565        576        575        685        686        697        696  
       565        566        577        576        686        687        698        697  
       566        567        578        577        687        688        699        698  
       567        568        579        578        688        689        700        699  
       568        569        580        579        689        690        701        700  
       569        570        581        580        690        691        702        701  
       570        571        582        581        691        692        703        702  
       571        572        583        582        692        693        704        703  
       573        574        585        584        694        695        706        705  
       574        575        586        585        695        696        707        706  
       575        576        587        586        696        697        708        707  
       576        577        588        587        697        698        709        708  
       577        578        589        588        698        699        710        709  
       578        579        590        589        699        700        711        710  
       579        580        591        590        700        701        712        711  
       580        581        592        591        701        702        713        712  
       581        582        593        592        702        703        714        713  
       582        583        594        593        703        704        715        714  
       584        585        596        595        705        706        717        716  
       585        586        597        596        706        707        718        717  
       586        587        598        597        707        708        719        718  
       587        588        599        598        708        709        720        719  
       588        589        600        599        709        710        721        720  
       589        590        601        600        710        711        722        721  
       590        591        602        601        711        712        723        722  
       591        592        603        602        712        713        724        723  
       592        593        604        603        713        714        725        724  
       593        594        605        604        714        715        726        725  
       606        607        618        617        727        728        739        738  
       607        608        619        618        728        729        740        739  
       608        609        620        619        729        730        741        740  
       609        610        621        620        730        731        742        741  
       610        611        622        621        731        732        743        742  
       611        612        623        622        732        733        744        743  
       612        613        624        623        733        734        745        744  
       613        614        625        624        734        735        746        745  
       614        615        626        625        735        736        747        746  
       615        616        627        626        736        737        748        747  
       617        618        629        628        738        739        750        749  
       618        619        630        629        739        740        751        750  
       619        620        631        630        740        741        752        751  
       620        621        632        631        741        742        753        752  
       621        622        633        632        742        743        754        753  
       622        623        634        633        743        744        755        754  
       623        624        635        634        744        745        756        755  
       624        625        636        635        745        746        757        756  
       625        626        637        636        746        747        758        757  
       626        627        638        637        747        748        759        758  
       628        629        640        639        749        750        761        760  
       629        630        641        640        750        751        762        761  
       630        631        642        641        751        752        763        762  
       631        632        643        642        752        753        764        763  
       632        633        644        643        753        754        765        764  
       633        634        645        644        754        755        766        765  
       634        635        646        645        755        756        767        766  
       635        636        647        646        756        757        768        767  
       636        637        648        647        757        758        769        768  
       637        638        649        648        758        759        770        769  
       639        640        651        650        760        761        772        771  
       640        641        652        651        761        762        773        772  
       641        642        653        652        762        763        774        773  
       642        643        654        653        763        764        775        774  
       643        644        655        654        764        765        776        775  
       644        645        656        655        765        766        777        776  
       645        646        657        656        766        767        778        777  
       646        647        658        657        767        768        779        778  
       647        648        659        658        768        769        780        779  
       648        649        660        659        769        770        781        780  
       650        651        662        661        771        772        783        782  
       651        652        663        662        772        773        784        783  
       652        653        664        663        773        774        785        784  
       653        654        665        664        774        775        786        785  
       654        655        666        665        775        776        787        786  
       655        656        667        666        776        777        788        787  
       656        657        668        667        777        778        789        788  
       657        658        669        668        778        779        790        789  
       658        659        670        669        779        780        791        790  
       659        660        671        670        780        781        792        791  
       661        662        673        672        782        783        794        793  
       662        663        674        673        783        784        795        794  
       663        664        675        674        784        785        796        795  
       664        665        676        675        785        786        797        796  
       665        666        677        676        786        787        798        797  
       666        667        678        677        787        788        799        798  
       667        668        679        678        788        789        800        799  
       668        669        680        679        789        790        801        800  
       669        670        681        680        790        791        802        801  
       670        671        682        681        791        792        803        802  
       672        673        684        683        793        794        805        804  
       673        674        685        684        794        795        806        805  
       674        675        686        685        795        796        807        806  
       675        676        687        686        796        797        808        807  
       676        677        688        687        797        798        809        808  
       677        678        689        688        798        799        810        809  
       678        679        690        689        799        800        811        810  
       679        680        691        690        800        801        812        811  
       680        681        692        691        801        802        813        812  
       681        682        693        692        802        803        814        813  
       683        684        695        694        804        805        816        815  
       684        685        696        695        805        806        817        816  
       685        686        697        696        806        807        818        817  
       686        687        698        697        807        808        819        818  
       687        688        699        698        808        809        820        819  
       688        689        700        699        809        810        821        820  
       689        690        701        700        810        811        822        821  
       690        691        702        701        811        812        823        822  
       691        692        703        702        812        813        824        823  
       692        693        704        703        813        814        825        824  
       694        695        706        705        815        816        827        826  
       695        696        707        706        816        817        828        827  
       696        697        708        707        817        818        829        828  
       697        698        709        708        818        819        830        829  
       698        699        710        709        819        820        831        830  
       699        700        711        710        820        821        832        831  
       700        701        712        711        821        822        833        832  
       701        702        713        712        822        823        834        833  
       702        703        714        713        823        824        835        834  
       703        704        715        714        824        825        836        835  
       705        706        717        716        826        827        838        837  
       706        707        718        717        827        828        839        838  
       707        708        719        718        828        829        840        839  
       708        709        720        719        829        830        841        840  
       709        710        721        720        830        831        842        841  
       710        711        722        721        831        832        843        842  
       711        712        723        722        832        833        844        843  
       712        713        724        723        833        834        845        844  
       713        714        725        724        834        835        846        845  
       714        715        726        725        835        836        847        846  
       727        728        739        738        848        849        860        859  
       728        729        740        739        849        850        861        860  
       729        730        741        740        850        851        862        861  
       730        731        742        741        851        852        863        862  
       731        732        743        742        852        853        864        863  
       732        733        744        743        853        854        865        864  
       733        734        745        744        854        855        866        865  
       734        735        746        745        855        856        867        866  
       735        736        747        746        856        857        868        867  
       736        737        748        747        857        858        869        868  
       738        739        750        749        859        860        871        870  
       739        740        751        750        860        861        872        871  
       740        741        752        751        861        862        873        872  
       741        742        753        752        862        863        874        873  
       742        743        754        753        863        864        875        874  
       743        744        755        754        864        865        876        875  
       744        745        756        755        865        866        877        876  
       745        746        757        756        866        867        878        877  
       746        747        758        757        867        868        879        878  
       747        748        759        758        868        869        880        879  
       749        750        761        760        870        871        882        881  
       750        751        762        761        871        872        883        882  
       751        752        763        762        872        873        884        883  
       752        753        764        763        873        874        885        884  
       753        754        765        764        874        875        886        885  
       754        755        766        765        875        876        887        886  
       755        756        767        766        876        877        888        887  
       756        757        768        767        877        878        889        888  
       757        758        769        768        878        879        890        889  
       758        759        770        769        879        880        891        890  
       760        761        772        771        881        882        893        892  
       761        762        773        772        882        883        894        893  
       762        763        774        773        883        884        895        894  
       763        764        775        774        884        885        896        895  
       764        765        776        775        885        886        897        896  
       765        766        777        776        886        887        898        897  
       766        767        778        777        887        888        899        898  
       767        768        779        778        888        889        900        899  
       768        769        780        779        889        890        901        900  
       769        770        781        780        890        891        902        901  
       771        772        783        782        892        893        904        903  
       772        773        784        783        893        894        905        904  
       773        774        785        784        894        895        906        905  
       774        775        786        785        895        896        907        906  
       775        776        787        786        896        897        908        907  
       776        777        788        787        897        898        909        908  
       777        778        789        788        898        899        910        909  
       778        779        790        789        899        900        911        910  
       779        780        791        790        900        901        912        911  
       780        781        792        791        901        902        913        912  
       782        783        794        793        903        904        915        914  
       783        784        795        794        904        905        916        915  
       784        785        796        795        905        906        917        916  
       785        786        797        796        906        907        918        917  
       786        787        798        797        907        908        919        918  
       787        788        799        798        908        909        920        919  
       788        789        800        799        909        910        921        920  
       789        790        801        800        910        911        922        921  
       790        791        802        801        911        912        923        922  
       791        792        803        802        912        913        924        923  
       793        794        805        804        914        915        926        925  
       794        795        806        805        915        916        927        926  
       795        796        807        806        916        917        928        927  
       796        797        808        807        917        918        929        928  
       797        798        809        808        918        919        930        929  
       798        799        810        809        919        920        931        930  
       799        800        811        810        920        921        932        931  
       800        801        812        811        921        922        933        932  
       801        802        813        812        922        923        934        933  
       802        803        814        813        923        924        935        934  
       804        805        816        815        925        926        937        936  
       805        806        817        816        926        927        938        937  
       806        807        818        817        927        928        939        938  
       807        808        819        818        928        929        940        939  
       808        809        820        819        929        930        941        940  
       809        810        821        820        930        931        942        941  
       810        811        822        821        931        932        943        942  
       811        812        823        822        932        933        944        943  
       812        813        824        823        933        934        945        944  
       813        814        825        824        934        935        946        945  
       815        816        827        826        936        937        948        947  
       816        817        828        827        937        938        949        948  
       817        818        829        828        938        939        950        949  
       818        819        830        829        939        940        951        950  
       819        820        831        830        940        941        952        951  
       820        821        832        831        941        942        953        952  
       821        822        833        832        942        943        954        953  
       822        823        834        833        943        944        955        954  
       823        824        835        834        944        945        956        955  
       824        825        836        835        945        946        957        956  
       826        827        838        837        947        948        959        958  
       827        828        839        838        948        949        960        959  
       828        829        840        839        949        950        961        960  
       829        830        841        840        950        951        962        961  
       830        831        842        841        951        952        963        962  
       831        832        843        842        952        953        964        963  
       832        833        844        843        953        954        965        964  
       833        834        845        844        954        955        966        965  
       834        835        846        845        955        956        967        966  
       835        836        847        846        956        957        968        967  
       848        849        860        859        969        970        981        980  
       849        850        861        860        970        971        982        981  
       850        851        862        861        971        972        983        982  
       851        852        863        862        972        973        984        983  
       852        853        864        863        973        974        985        984  
       853        854        865        864        974        975        986        985  
       854        855        866        865        975        976        987        986  
       855        856        867        866        976        977        988        987  
       856        857        868        867        977        978        989        988  
       857        858        869        868        978        979        990        989  
       859        860        871        870        980        981        992        991  
       860        861        872        871        981        982        993        992  
       861        862        873        872        982        983        994        993  
       862        863        874        873        983        984        995        994  
       863        864        875        874        984        985        996        995  
       864        865        876        875        985        986        997        996  
       865        866        877        876        986        987        998        997  
       866        867        878        877        987        988        999        998  
       867        868        879        878        988        989       1000        999  
       868        869        880        879        989        990       1001       1000  
       870        871        882        881        991        992       1003       1002  
       871        872        883        882        992        993       1004       1003  
       872        873        884        883        993        994       1005       1004  
       873        874        885        884        994        995       1006       1005  
       874        875        886        885        995        996       1007       1006  
       875        876        887        886        996        997       1008       1007  
       876        877        888        887        997        998       1009       1008  
       877        878        889        888        998        999       1010       1009  
       878        879        890        889        999       1000       1011       1010  
       879        880        891        890       1000       1001       1012       1011  
       881        882        893        892       1002       1003       1014       1013  
       882        883        894        893       1003       1004       1015       1014  
       883        884        895        894       1004       1005       1016       1015  
       884        885        896        895       1005       1006       1017       1016  
       885        886        897        896       1006       1007       1018       1017  
       886        887        898        897       1007       1008       1019       1018  
       887        888        899        898       1008       1009       1020       1019  
       888        889        900        899       1009       1010       1021       1020  
       889        890        901        900       1010       1011       1022       1021  
       890        891        902        901       1011       1012       1023       1022  
       892        893        904        903       1013       1014       1025       1024  
       893        894        905        904       1014       1015       1026       1025  
       894        895        906        905       1015       1016       1027       1026  
       895        896        907        906       1016       1017       1028       1027  
       896        897        908        907       1017       1018       1029       1028  
       897        898        909        908       1018       1019       1030       1029  
       898        899        910        909       1019       1020       1031       1030  
       899        900        911        910       1020       1021       1032       1031  
       900        901        912        911       1021       1022       1033       1032  
       901        902        913        912       1022       1023       1034       1033  
       903        904        915        914       1024       1025       1036       1035  
       904        905        916        915       1025       1026       1037       1036  
       905        906        917        916       1026       1027       1038       1037  
       906        907        918        917       1027       1028       1039       1038  
       907        908        919        918       1028       1029       1040       1039  
       908        909        920        919       1029       1030       1041       1040  
       909        910        921        920       1030       1031       1042       1041  
       910        911        922        921       1031       1032       1043       1042  
       911        912        923        922       1032       1033       1044       1043  
       912        913        924        923       1033       1034       1045       1044  
       914        915        926        925       1035       1036       1047       1046  
       915        916        927        926       1036       1037       1048       1047  
       916        917        928        927       1037       1038       1049       1048  
       917        918        929        928       1038       1039       1050       1049  
       918        919        930        929       1039       1040       1051       1050  
       919        920        931        930       1040       1041       1052       1051  
       920        921        932        931       1041       1042       1053       1052  
       921        922        933        932       1042       1043       1054       1053  
       922        923        934        933       1043       1044       1055       1054  
       923        924        935        934       1044       1045       1056       1055  
       925        926        937        936       1046       1047       1058       1057  
       926        927        938        937       1047       1048       1059       1058  
       927        928        939        938       1048       1049       1060       1059  
       928        929        940        939       1049       1050       1061       1060  
       929        930        941        940       1050       1051       1062       1061  
       930        931        942        941       1051       1052       1063       1062  
       931        932        943        942       1052       1053       1064       1063  
       932        933        944        943       1053       1054       1065       1064  
       933        934        945        944       1054       1055       1066       1065  
       934        935        946        945       1055       1056       1067       1066  
       936        937        948        947       1057       1058       1069       1068  
       937        938        949        948       1058       1059       1070       1069  
       938        939        950        949       1059       1060       1071       1070  
       939        940        951        950       1060       1061       1072       1071  
       940        941        952        951       1061       1062       1073       1072  
       941        942        953        952       1062       1063       1074       1073  
       942        943        954        953       1063       1064       1075       1074  
       943        944        955        954       1064       1065       1076       1075  
       944        945        956        955       1065       1066       1077       1076  
       945        946        957        956       1066       1067       1078       1077  
       947        948        959        958       1068       1069       1080       1079  
       948        949        960        959       1069       1070       1081       1080  
       949        950        961        960       1070       1071       1082       1081  
       950        951        962        961       1071       1072       1083       1082  
       951        952        963        962       1072       1073       1084       1083  
       952        953        964        963       1073       1074       1085       1084  
       953        954        965        964       1074       1075       1086       1085  
       954        955        966        965       1075       1076       1087       1086  
       955        956        967        966       1076       1077       1088       1087  
       956        957        968        967       1077       1078       1089       1088  
       969        970        981        980       1090       1091       1102       1101  
       970        971        982        981       1091       1092       1103       1102  
       971        972        983        982       1092       1093       1104       1103  
       972        973        984        983       1093       1094       1105       1104  
       973        974        985        984       1094       1095       1106       1105  
       974        975        986        985       1095       1096       1107       1106  
       975        976        987        986       1096       1097       1108       1107  
       976        977        988        987       1097       1098       1109       1108  
       977        978        989        988       1098       1099       1110       1109  
       978        979        990        989       1099       1100       1111       1110  
       980        981        992        991       1101       1102       1113       1112  
       981        982        993        992       1102       1103       1114       1113  
       982        983        994        993       1103       1104       1115       1114  
       983        984        995        994       1104       1105       1116       1115  
       984        985        996        995       1105       1106       1117       1116  
       985        986        997        996       1106       1107       1118       1117  
       986        987        998        997       1107       1108       1119       1118  
       987        988        999        998       1108       1109       1120       1119  
       988        989       1000        999       1109       1110       1121       1120  
       989        990       1001       1000       1110       1111       1122       1121  
       991        992       1003       1002       1112       1113       1124       1123  
       992        993       1004       1003       1113       1114       1125       1124  
       993        994       1005       1004       1114       1115       1126       1125  
       994        995       1006       1005       1115       1116       1127       1126  
       995        996       1007       1006       1116       1117       1128       1127  
       996        997       1008       1007       1117       1118       1129       1128  
       997        998       1009       1008       1118       1119       1130       1129  
       998        999       1010       1009       1119       1120       1131       1130  
       999       1000       1011       1010       1120       1121       1132       1131  
      1000       1001       1012       1011       1121       1122       1133       1132  
      1002       1003       1014       1013       1123       1124       1135       1134  
      1003       1004       1015       1014       1124       1125       1136       1135  
      1004       1005       1016       1015       1125       1126       1137       1136  
      1005       1006       1017       1016       1126       1127       1138       1137  
      1006       1007       1018       1017       1127       1128       1139       1138  
      1007       1008       1019       1018       1128       1129       1140       1139  
      1008       1009       1020       1019       1129       1130       1141       1140  
      1009       1010       1021       1020       1130       1131       1142       1141  
      1010       1011       1022       1021       1131       1132       1143       1142  
      1011       1012       1023       1022       1132       1133       1144       1143  
      1013       1014       1025       1024       1134       1135       1146       1145  
      1014       1015       1026       1025       1135       1136       1147       1146  
      1015       1016       1027       1026       1136       1137       1148       1147  
      1016       1017       1028       1027       1137       1138       1149       1148  
      1017       1018       1029       1028       1138       1139       1150       1149  
      1018       1019       1030       1029       1139       1140       1151       1150  
      1019       1020       1031       1030       1140       1141       1152       1151  
      1020       1021       1032       1031       1141       1142       1153       1152  
      1021       1022       1033       1032       1142       1143       1154       1153  
      1022       1023       1034       1033       1143       1144       1155       1154  
      1024       1025       1036       1035       1145       1146       1157       1156  
      1025       1026       1037       1036       1146       1147       1158       1157  
      1026       1027       1038       1037       1147       1148       1159       1158  
      1027       1028       1039       1038       1148       1149       1160       1159  
      1028       1029       1040       1039       1149       1150       1161       1160  
      1029       1030       1041       1040       1150       1151       1162       1161  
      1030       1031       1042       1041       1151       1152       1163       1162  
      1031       1032       1043       1042       1152       1153       1164       1163  
      1032       1033       1044       1043       1153       1154       1165       1164  
      1033       1034       1045       1044       1154       1155       1166       1165  
      1035       1036       1047       1046       1156       1157       1168       1167  
      1036       1037       1048       1047       1157       1158       1169       1168  
      1037       1038       1049       1048       1158       1159       1170       1169  
      1038       1039       1050       1049       1159       1160       1171       1170  
      1039       1040       1051       1050       1160       1161       1172       1171  
      1040       1041       1052       1051       1161       1162       1173       1172  
      1041       1042       1053       1052       1162       1163       1174       1173  
      1042       1043       1054       1053       1163       1164       1175       1174  
      1043       1044       1055       1054       1164       1165       1176       1175  
      1044       1045       1056       1055       1165       1166       1177       1176  
      1046       1047       1058       1057       1167       1168       1179       1178  
      1047       1048       1059       1058       1168       1169       1180       1179  
      1048       1049       1060       1059       1169       1170       1181       1180  
      1049       1050       1061       1060       1170       1171       1182       1181  
      1050       1051       1062       1061       1171       1172       1183       1182  
      1051       1052       1063       1062       1172       1173       1184       1183  
      1052       1053       1064       1063       1173       1174       1185       1184  
      1053       1054       1065       1064       1174       1175       1186       1185  
      1054       1055       1066       1065       1175       1176       1187       1186  
      1055       1056       1067       1066       1176       1177       1188       1187  
      1057       1058       1069       1068       1178       1179       1190       1189  
      1058       1059       1070       1069       1179       1180       1191       1190  
      1059       1060       1071       1070       1180       1181       1192       1191  
      1060       1061       1072       1071       1181       1182       1193       1192  
      1061       1062       1073       1072       1182       1183       1194       1193  
      1062       1063       1074       1073       1183       1184       1195       1194  
      1063       1064       1075       1074       1184       1185       1196       1195  
      1064       1065       1076       1075       1185       1186       1197       1196  
      1065       1066       1077       1076       1186       1187       1198       1197  
      1066       1067       1078       1077       1187       1188       1199       1198  
      1068       1069       1080       1079       1189       1190       1201       1200  
      1069       1070       1081       1080       1190       1191       1202       1201  
      1070       1071       1082       1081       1191       1192       1203       1202  
      1071       1072       1083       1082       1192       1193       1204       1203  
      1072       1073       1084       1083       1193       1194       1205       1204  
      1073       1074       1085       1084       1194       1195       1206       1205  
      1074       1075       1086       1085       1195       1196       1207       1206  
      1075       1076       1087       1086       1196       1197       1208       1207  
      1076       1077       1088       1087       1197       1198       1209       1208  
      1077       1078       1089       1088       1198       1199       1210       1209  
      1090       1091       1102       1101       1211       1212       1223       1222  
      1091       1092       1103       1102       1212       1213       1224       1223  
      1092       1093       1104       1103       1213       1214       1225       1224  
      1093       1094       1105       1104       1214       1215       1226       1225  
      1094       1095       1106       1105       1215       1216       1227       1226  
      1095       1096       1107       1106       1216       1217       1228       1227  
      1096       1097       1108       1107       1217       1218       1229       1228  
      1097       1098       1109       1108       1218       1219       1230       1229  
      1098       1099       1110       1109       1219       1220       1231       1230  
      1099       1100       1111       1110       1220       1221       1232       1231  
      1101       1102       1113       1112       1222       1223       1234       1233  
      1102       1103       1114       1113       1223       1224       1235       1234  
      1103       1104       1115       1114       1224       1225       1236       1235  
      1104       1105       1116       1115       1225       1226       1237       1236  
      1105       1106       1117       1116       1226       1227       1238       1237  
      1106       1107       1118       1117       1227       1228       1239       1238  
      1107       1108       1119       1118       1228       1229       1240       1239  
      1108       1109       1120       1119       1229       1230       1241       1240  
      1109       1110       1121       1120       1230       1231       1242       1241  
      1110       1111       1122       1121       1231       1232       1243       1242  
      1112       1113       1124       1123       1233       1234       1245       1244  
      1113       1114       1125       1124       1234       1235       1246       1245  
      1114       1115       1126       1125       1235       1236       1247       1246  
      1115       1116       1127       1126       1236       1237       1248       1247  
      1116       1117       1128       1127       1237       1238       1249       1248  
      1117       1118       1129       1128       1238       1239       1250       1249  
      1118       1119       1130       1129       1239       1240       1251       1250  
      1119       1120       1131       1130       1240       1241       1252       1251  
      1120       1121       1132       1131       1241       1242       1253       1252  
      1121       1122       1133       1132       1242       1243       1254       1253  
      1123       1124       1135       1134       1244       1245       1256       1255  
      1124       1125       1136       1135       1245       1246       1257       1256  
      1125       1126       1137       1136       1246       1247       1258       1257  
      1126       1127       1138       1137       1247       1248       1259       1258  
      1127       1128       1139       1138       1248       1249       1260       1259  
      1128       1129       1140       1139       1249       1250       1261       1260  
      1129       1130       1141       1140       1250       1251       1262       1261  
      1130       1131       1142       1141       1251       1252       1263       1262  
      1131       1132       1143       1142       1252       1253       1264       1263  
      1132       1133       1144       1143       1253       1254       1265       1264  
      1134       1135       1146       1145       1255       1256       1267       1266  
      1135       1136       1147       1146       1256       1257       1268       1267  
      1136       1137       1148       1147       1257       1258       1269       1268  
      1137       1138       1149       1148       1258       1259       1270       1269  
      1138       1139       1150       1149       1259       1260       1271       1270  
      1139       1140       1151       1150       1260       1261       1272       1271  
      1140       1141       1152       1151       1261       1262       1273       1272  
      1141       1142       1153       1152       1262       1263       1274       1273  
      1142       1143       1154       1153       1263       1264       1275       1274  
      1143       1144       1155       1154       1264       1265       1276       1275  
      1145       1146       1157       1156       1266       1267       1278       1277  
      1146       1147       1158       1157       1267       1268       1279       1278  
      1147       1148       1159       1158       1268       1269       1280       1279  
      1148       1149       1160       1159       1269       1270       1281       1280  
      1149       1150       1161       1160       1270       1271       1282       1281  
      1150       1151       1162       1161       1271       1272       1283       1282  
      1151       1152       1163       1162       1272       1273       1284       1283  
      1152       1153       1164       1163       1273       1274       1285       1284  
      1153       1154       1165       1164       1274       1275       1286       1285  
      1154       1155       1166       1165       1275       1276       1287       1286  
      1156       1157       1168       1167       1277       1278       1289       1288  
      1157       1158       1169       1168       1278       1279       1290       1289  
      1158       1159       1170       1169       1279       1280       1291       1290  
      1159       1160       1171       1170       1280       1281       1292       1291  
      1160       1161       1172       1171       1281       1282       1293       1292  
      1161       1162       1173       1172       1282       1283       1294       1293  
      1162       1163       1174       1173       1283       1284       1295       1294  
      1163       1164       1175       1174       1284       1285       1296       1295  
      1164       1165       1176       1175       1285       1286       1297       1296  
      1165       1166       1177       1176       1286       1287       1298       1297  
      1167       1168       1179       1178       1288       1289       1300       1299  
      1168       1169       1180       1179       1289       1290       1301       1300  
      1169       1170       1181       1180       1290       1291       1302       1301  
      1170       1171       1182       1181       1291       1292       1303       1302  
      1171       1172       1183       1182       1292       1293       1304       1303  
      1172       1173       1184       1183       1293       1294       1305       1304  
      1173       1174       1185       1184       1294       1295       1306       1305  
      1174       1175       1186       1185       1295       1296       1307       1306  
      1175       1176       1187       1186       1296       1297       1308       1307  
      1176       1177       1188       1187       1297       1298       1309       1308  
      1178       1179       1190       1189       1299       1300       1311       1310  
      1179       1180       1191       1190       1300       1301       1312       1311  
      1180       1181       1192       1191       1301       1302       1313       1312  
      1181       1182       1193       1192       1302       1303       1314       1313  
      1182       1183       1194       1193       1303       1304       1315       1314  
      1183       1184       1195       1194       1304       1305       1316       1315  
      1184       1185       1196       1195       1305       1306       1317       1316  
      1185       1186       1197       1196       1306       1307       1318       1317  
      1186       1187       1198       1197       1307       1308       1319       1318  
      1187       1188       1199       1198       1308       1309       1320       1319  
      1189       1190       1201       1200       1310       1311       1322       1321  
      1190       1191       1202       1201       1311       1312       1323       1322  
      1191       1192       1203       1202       1312       1313       1324       1323  
      1192       1193       1204       1203       1313       1314       1325       1324  
      1193       1194       1205       1204       1314       1315       1326       1325  
      1194       1195       1206       1205       1315       1316       1327       1326  
      1195       1196       1207       1206       1316       1317       1328       1327  
      1196       1197       1208       1207       1317       1318       1329       1328  
      1197       1198       1209       1208       1318       1319       1330       1329  
      1198       1199       1210       1209       1319       1320       1331       1330  
      1211       1212       1223       1222       1332       1333       1344       1343  
      1212       1213       1224       1223       1333       1334       1345       1344  
      1213       1214       1225       1224       1334       1335       1346       1345  
      1214       1215       1226       1225       1335       1336       1347       1346  
      1215       1216       1227       1226       1336       1337       1348       1347  
      1216       1217       1228       1227       1337       1338       1349       1348  
      1217       1218       1229       1228       1338       1339       1350       1349  
      1218       1219       1230       1229       1339       1340       1351       1350  
      1219       1220       1231       1230       1340       1341       1352       1351  
      1220       1221       1232       1231       1341       1342       1353       1352  
      1222       1223       1234       1233       1343       1344       1355       1354  
      1223       1224       1235       1234       1344       1345       1356       1355  
      1224       1225       1236       1235       1345       1346       1357       1356  
      1225       1226       1237       1236       1346       1347       1358       1357  
      1226       1227       1238       1237       1347       1348       1359       1358  
      1227       1228       1239       1238       1348       1349       1360       1359  
      1228       1229       1240       1239       1349       1350       1361       1360  
      1229       1230       1241       1240       1350       1351       1362       1361  
      1230       1231       1242       1241       1351       1352       1363       1362  
      1231       1232       1243       1242       1352       1353       1364       1363  
      1233       1234       1245       1244       1354       1355       1366       1365  
      1234       1235       1246       1245       1355       1356       1367       1366  
      1235       1236       1247       1246       1356       1357       1368       1367  
      1236       1237       1248       1247       1357       1358       1369       1368  
      1237       1238       1249       1248       1358       1359       1370       1369  
      1238       1239       1250       1249       1359       1360       1371       1370  
      1239       1240       1251       1250       1360       1361       1372       1371  
      1240       1241       1252       1251       1361       1362       1373       1372  
      1241       1242       1253       1252       1362       1363       1374       1373  
      1242       1243       1254       1253       1363       1364       1375       1374  
      1244       1245       1256       1255       1365       1366       1377       1376  
      1245       1246       1257       1256       1366       1367       1378       1377  
      1246       1247       1258       1257       1367       1368       1379       1378  
      1247       1248       1259       1258       1368       1369       1380       1379  
      1248       1249       1260       1259       1369       1370       1381       1380  
      1249       1250       1261       1260       1370       1371       1382       1381  
      1250       1251       1262       1261       1371       1372       1383       1382  
      1251       1252       1263       1262       1372       1373       1384       1383  
      1252       1253       1264       1263       1373       1374       1385       1384  
      1253       1254       1265       1264       1374       1375       1386       1385  
      1255       1256       1267       1266       1376       1377       1388       1387  
      1256       1257       1268       1267       1377       1378       1389       1388  
      1257       1258       1269       1268       1378       1379       1390       1389  
      1258       1259       1270       1269       1379       1380       1391       1390  
      1259       1260       1271       1270       1380       1381       1392       1391  
      1260       1261       1272       1271       1381       1382       1393       1392  
      1261       1262       1273       1272       1382       1383       1394       1393  
      1262       1263       1274       1273       1383       1384       1395       1394  
      1263       1264       1275       1274       1384       1385       1396       1395  
      1264       1265       1276       1275       1385       1386       1397       1396  
      1266       1267       1278       1277       1387       1388       1399       1398  
      1267       1268       1279       1278       1388       1389       1400       1399  
      1268       1269       1280       1279       1389       1390       1401       1400  
      1269       1270       1281       1280       1390       1391       1402       1401  
      1270       1271       1282       1281       1391       1392       1403       1402  
      1271       1272       1283       1282       1392       1393       1404       1403  
      1272       1273       1284       1283       1393       1394       1405       1404  
      1273       1274       1285       1284       1394       1395       1406       1405  
      1274       1275       1286       1285       1395       1396       1407       1406  
      1275       1276       1287       1286       1396       1397       1408       1407  
      1277       1278       1289       1288       1398       1399       1410       1409  
      1278       1279       1290       1289       1399       1400       1411       1410  
      1279       1280       1291       1290       1400       1401       1412       1411  
      1280       1281       1292       1291       1401       1402       1413       1412  
      1281       1282       1293       1292       1402       1403       1414       1413  
      1282       1283       1294       1293       1403       1404       1415       1414  
      1283       1284       1295       1294       1404       1405       1416       1415  
      1284       1285       1296       1295       1405       1406       1417       1416  
      1285       1286       1297       1296       1406       1407       1418       1417  
      1286       1287       1298       1297       1407       1408       1419       1418  
      1288       1289       1300       1299       1409       1410       1421       1420  
      1289       1290       1301       1300       1410       1411       1422       1421  
      1290       1291       1302       1301       1411       1412       1423       1422  
      1291       1292       1303       1302       1412       1413       1424       1423  
      1292       1293       1304       1303       1413       1414       1425       1424  
      1293       1294       1305       1304       1414       1415       1426       1425  
      1294       1295       1306       1305       1415       1416       1427       1426  
      1295       1296       1307       1306       1416       1417       1428       1427  
      1296       1297       1308       1307       1417       1418       1429       1428  
      1297       1298       1309       1308       1418       1419       1430       1429  
      1299       1300       1311       1310       1420       1421       1432       1431  
      1300       1301       1312       1311       1421       1422       1433       1432  
      1301       1302       1313       1312       1422       1423       1434       1433  
      1302       1303       1314       1313       1423       1424       1435       1434  
      1303       1304       1315       1314       1424       1425       1436       1435  
      1304       1305       1316       1315       1425       1426       1437       1436  
      1305       1306       1317       1316       1426       1427       1438       1437  
      1306       1307       1318       1317       1427       1428       1439       1438  
      1307       1308       1319       1318       1428       1429       1440       1439  
      1308       1309       1320       1319       1429       1430       1441       1440  
      1310       1311       1322       1321       1431       1432       1443       1442  
      1311       1312       1323       1322       1432       1433       1444       1443  
      1312       1313       1324       1323       1433       1434       1445       1444  
      1313       1314       1325       1324       1434       1435       1446       1445  
      1314       1315       1326       1325       1435       1436       1447       1446  
      1315       1316       1327       1326       1436       1437       1448       1447  
      1316       1317       1328       1327       1437       1438       1449       1448  
      1317       1318       1329       1328       1438       1439       1450       1449  
      1318       1319       1330       1329       1439       1440       1451       1450  
      1319       1320       1331       1330       1440       1441       1452       1451  
      1332       1333       1344       1343       1453       1454       1465       1464  
      1333       1334       1345       1344       1454       1455       1466       1465  
      1334       1335       1346       1345       1455       1456       1467       1466  
      1335       1336       1347       1346       1456       1457       1468       1467  
      1336       1337       1348       1347       1457       1458       1469       1468  
      1337       1338       1349       1348       1458       1459       1470       1469  
      1338       1339       1350       1349       1459       1460       1471       1470  
      1339       1340       1351       1350       1460       1461       1472       1471  
      1340       1341       1352       1351       1461       1462       1473       1472  
      1341       1342       1353       1352       1462       1463       1474       1473  
      1343       1344       1355       1354       1464       1465       1476       1475  
      1344       1345       1356       1355       1465       1466       1477       1476  
      1345       1346       1357       1356       1466       1467       1478       1477  
      1346       1347       1358       1357       1467       1468       1479       1478  
      1347       1348       1359       1358       1468       1469       1480       1479  
      1348       1349       1360       1359       1469       1470       1481       1480  
      1349       1350       1361       1360       1470       1471       1482       1481  
      1350       1351       1362       1361       1471       1472       1483       1482  
      1351       1352       1363       1362       1472       1473       1484       1483  
      1352       1353       1364       1363       1473       1474       1485       1484  
      1354       1355       1366       1365       1475       1476       1487       1486  
      1355       1356       1367       1366       1476       1477       1488       1487  
      1356       1357       1368       1367       1477       1478       1489       1488  
      1357       1358       1369       1368       1478       1479       1490       1489  
      1358       1359       1370       1369       1479       1480       1491       1490  
      1359       1360       1371       1370       1480       1481       1492       1491  
      1360       1361       1372       1371       1481       1482       1493       1492  
      1361       1362       1373       1372       1482       1483       1494       1493  
      1362       1363       1374       1373       1483       1484       1495       1494  
      1363       1364       1375       1374       1484       1485       1496       1495  
      1365       1366       1377       1376       1486       1487       1498       1497  
      1366       1367       1378       1377       1487       1488       1499       1498  
      1367       1368       1379       1378       1488       1489       1500       1499  
      1368       1369       1380       1379       1489       1490       1501       1500  
      1369       1370       1381       1380       1490       1491       1502       1501  
      1370       1371       1382       1381       1491       1492       1503       1502  
      1371       1372       1383       1382       1492       1493       1504       1503  
      1372       1373       1384       1383       1493       1494       1505       1504  
      1373       1374       1385       1384       1494       1495       1506       1505  
      1374       1375       1386       1385       1495       1496       1507       1506  
      1376       1377       1388       1387       1497       1498       1509       1508  
      1377       1378       1389       1388       1498       1499       1510       1509  
      1378       1379       1390       1389       1499       1500       1511       1510  
      1379       1380       1391       1390       1500       1501       1512       1511  
      1380       1381       1392       1391       1501       1502       1513       1512  
      1381       1382       1393       1392       1502       1503       1514       1513  
      1382       1383       1394       1393       1503       1504       1515       1514  
      1383       1384       1395       1394       1504       1505       1516       1515  
      1384       1385       1396       1395       1505       1506       1517       1516  
      1385       1386       1397       1396       1506       1507       1518       1517  
      1387       1388       1399       1398       1508       1509       1520       1519  
      1388       1389       1400       1399       1509       1510       1521       1520  
      1389       1390       1401       1400       1510       1511       1522       1521  
      1390       1391       1402       1401       1511       1512       1523       1522  
      1391       1392       1403       1402       1512       1513       1524       1523  
      1392       1393       1404       1403       1513       1514       1525       1524  
      1393       1394       1405       1404       1514       1515       1526       1525  
      1394       1395       1406       1405       1515       1516       1527       1526  
      1395       1396       1407       1406       1516       1517       1528       1527  
      1396       1397       1408       1407       1517       1518       1529       1528  
      1398       1399       1410       1409       1519       1520       1531       1530  
      1399       1400       1411       1410       1520       1521       1532       1531  
      1400       1401       1412       1411       1521       1522       1533       1532  
      1401       1402       1413       1412       1522       1523       1534       1533  
      1402       1403       1414       1413       1523       1524       1535       1534  
      1403       1404       1415       1414       1524       1525       1536       1535  
      1404       1405       1416       1415       1525       1526       1537       1536  
      1405       1406       1417       1416       1526       1527       1538       1537  
      1406       1407       1418       1417       1527       1528       1539       1538  
      1407       1408       1419       1418       1528       1529       1540       1539  
      1409       1410       1421       1420       1530       1531       1542       1541  
      1410       1411       1422       1421       1531       1532       1543       1542  
      1411       1412       1423       1422       1532       1533       1544       1543  
      1412       1413       1424       1423       1533       1534       1545       1544  
      1413       1414       1425       1424       1534       1535       1546       1545  
      1414       1415       1426       1425       1535       1536       1547       1546  
      1415       1416       1427       1426       1536       1537       1548       1547  
      1416       1417       1428       1427       1537       1538       1549       1548  
      1417       1418       1429       1428       1538       1539       1550       1549  
      1418       1419       1430       1429       1539       1540       1551       1550  
      1420       1421       1432       1431       1541       1542       1553       1552  
      1421       1422       1433       1432       1542       1543       1554       1553  
      1422       1423       1434       1433       1543       1544       1555       1554  
      1423       1424       1435       1434       1544       1545       1556       1555  
      1424       1425       1436       1435       1545       1546       1557       1556  
      1425       1426       1437       1436       1546       1547       1558       1557  
      1426       1427       1438       1437       1547       1548       1559       1558  
      1427       1428       1439       1438       1548       1549       1560       1559  
      1428       1429       1440       1439       1549       1550       1561       1560  
      1429       1430       1441       1440       1550       1551       1562       1561  
      1431       1432       1443       1442       1552       1553       1564       1563  
      1432       1433       1444       1443       1553       1554       1565       1564  
      1433       1434       1445       1444       1554       1555       1566       1565  
      1434       1435       1446       1445       1555       1556       1567       1566  
      1435       1436       1447       1446       1556       1557       1568       1567  
      1436       1437       1448       1447       1557       1558       1569       1568  
      1437       1438       1449       1448       1558       1559       1570       1569  
      1438       1439       1450       1449       1559       1560       1571       1570  
      1439       1440       1451       1450       1560       1561       1572       1571  
      1440       1441       1452       1451       1561       1562       1573       1572  
      1453       1454       1465       1464       1574       1575       1586       1585  
      1454       1455       1466       1465       1575       1576       1587       1586  
      1455       1456       1467       1466       1576       1577       1588       1587  
      1456       1457       1468       1467       1577       1578       1589       1588  
      1457       1458       1469       1468       1578       1579       1590       1589  
      1458       1459       1470       1469       1579       1580       1591       1590  
      1459       1460       1471       1470       1580       1581       1592       1591  
      1460       1461       1472       1471       1581       1582       1593       1592  
      1461       1462       1473       1472       1582       1583       1594       1593  
      1462       1463       1474       1473       1583       1584       1595       1594  
      1464       1465       1476       1475       1585       1586       1597       1596  
      1465       1466       1477       1476       1586       1587       1598       1597  
      1466       1467       1478       1477       1587       1588       1599       1598  
      1467       1468       1479       1478       1588       1589       1600       1599  
      1468       1469       1480       1479       1589       1590       1601       1600  
      1469       1470       1481       1480       1590       1591       1602       1601  
      1470       1471       1482       1481       1591       1592       1603       1602  
      1471       1472       1483       1482       1592       1593       1604       1603  
      1472       1473       1484       1483       1593       1594       1605       1604  
      1473       1474       1485       1484       1594       1595       1606       1605  
      1475       1476       1487       1486       1596       1597       1608       1607  
      1476       1477       1488       1487       1597       1598       1609       1608  
      1477       1478       1489       1488       1598       1599       1610       1609  
      1478       1479       1490       1489       1599       1600       1611       1610  
      1479       1480       1491       1490       1600       1601       1612       1611  
      1480       1481       1492       1491       1601       1602       1613       1612  
      1481       1482       1493       1492       1602       1603       1614       1613  
      1482       1483       1494       1493       1603       1604       1615       1614  
      1483       1484       1495       1494       1604       1605       1616       1615  
      1484       1485       1496       1495       1605       1606       1617       1616  
      1486       1487       1498       1497       1607       1608       1619       1618  
      1487       1488       1499       1498       1608       1609       1620       1619  
      1488       1489       1500       1499       1609       1610       1621       1620  
      1489       1490       1501       1500       1610       1611       1622       1621  
      1490       1491       1502       1501       1611       1612       1623       1622  
      1491       1492       1503       1502       1612       1613       1624       1623  
      1492       1493       1504       1503       1613       1614       1625       1624  
      1493       1494       1505       1504       1614       1615       1626       1625  
      1494       1495       1506       1505       1615       1616       1627       1626  
      1495       1496       1507       1506       1616       1617       1628       1627  
      1497       1498       1509       1508       1618       1619       1630       1629  
      1498       1499       1510       1509       1619       1620       1631       1630  
      1499       1500       1511       1510       1620       1621       1632       1631  
      1500       1501       1512       1511       1621       1622       1633       1632  
      1501       1502       1513       1512       1622       1623       1634       1633  
      1502       1503       1514       1513       1623       1624       1635       1634  
      1503       1504       1515       1514       1624       1625       1636       1635  
      1504       1505       1516       1515       1625       1626       1637       1636  
      1505       1506       1517       1516       1626       1627       1638       1637  
      1506       1507       1518       1517       1627       1628       1639       1638  
      1508       1509       1520       1519       1629       1630       1641       1640  
      1509       1510       1521       1520       1630       1631       1642       1641  
      1510       1511       1522       1521       1631       1632       1643       1642  
      1511       1512       1523       1522       1632       1633       1644       1643  
      1512       1513       1524       1523       1633       1634       1645       1644  
      1513       1514       1525       1524       1634       1635       1646       1645  
      1514       1515       1526       1525       1635       1636       1647       1646  
      1515       1516       1527       1526       1636       1637       1648       1647  
      1516       1517       1528       1527       1637       1638       1649       1648  
      1517       1518       1529       1528       1638       1639       1650       1649  
      1519       1520       1531       1530       1640       1641       1652       1651  
      1520       1521       1532       1531       1641       1642       1653       1652  
      1521       1522       1533       1532       1642       1643       1654       1653  
      1522       1523       1534       1533       1643       1644       1655       1654  
      1523       1524       1535       1534       1644       1645       1656       1655  
      1524       1525       1536       1535       1645       1646       1657       1656  
      1525       1526       1537       1536       1646       1647       1658       1657  
      1526       1527       1538       1537       1647       1648       1659       1658  
      1527       1528       1539       1538       1648       1649       1660       1659  
      1528       1529       1540       1539       1649       1650       1661       1660  
      1530       1531       1542       1541       1651       1652       1663       1662  
      1531       1532       1543       1542       1652       1653       1664       1663  
      1532       1533       1544       1543       1653       1654       1665       1664  
      1533       1534       1545       1544       1654       1655       1666       1665  
      1534       1535       1546       1545       1655       1656       1667       1666  
      1535       1536       1547       1546       1656       1657       1668       1667  
      1536       1537       1548       1547       1657       1658       1669       1668  
      1537       1538       1549       1548       1658       1659       1670       1669  
      1538       1539       1550       1549       1659       1660       1671       1670  
      1539       1540       1551       1550       1660       1661       1672       1671  
      1541       1542       1553       1552       1662       1663       1674       1673  
      1542       1543       1554       1553       1663       1664       1675       1674  
      1543       1544       1555       1554       1664       1665       1676       1675  
      1544       1545       1556       1555       1665       1666       1677       1676  
      1545       1546       1557       1556       1666       1667       1678       1677  
      1546       1547       1558       1557       1667       1668       1679       1678  
      1547       1548       1559       1558       1668       1669       1680       1679  
      1548       1549       1560       1559       1669       1670       1681       1680  
      1549       1550       1561       1560       1670       1671       1682       1681  
      1550       1551       1562       1561       1671       1672       1683       1682  
      1552       1553       1564       1563       1673       1674       1685       1684  
      1553       1554       1565       1564       1674       1675       1686       1685  
      1554       1555       1566       1565       1675       1676       1687       1686  
      1555       1556       1567       1566       1676       1677       1688       1687  
      1556       1557       1568       1567       1677       1678       1689       1688  
      1557       1558       1569       1568       1678       1679       1690       1689  
      1558       1559       1570       1569       1679       1680       1691       1690  
      1559       1560       1571       1570       1680       1681       1692       1691  
      1560       1561       1572       1571       1681       1682       1693       1692  
      1561       1562       1573       1572       1682       1683       1694       1693  
      1574       1575       1586       1585       1695       1696       1707       1706  
      1575       1576       1587       1586       1696       1697       1708       1707  
      1576       1577       1588       1587       1697       1698       1709       1708  
      1577       1578       1589       1588       1698       1699       1710       1709  
      1578       1579       1590       1589       1699       1700       1711       1710  
      1579       1580       1591       1590       1700       1701       1712       1711  
      1580       1581       1592       1591       1701       1702       1713       1712  
      1581       1582       1593       1592       1702       1703       1714       1713  
      1582       1583       1594       1593       1703       1704       1715       1714  
      1583       1584       1595       1594       1704       1705       1716       1715  
      1585       1586       1597       1596       1706       1707       1718       1717  
      1586       1587       1598       1597       1707       1708       1719       1718  
      1587       1588       1599       1598       1708       1709       1720       1719  
      1588       1589       1600       1599       1709       1710       1721       1720  
      1589       1590       1601       1600       1710       1711       1722       1721  
      1590       1591       1602       1601       1711       1712       1723       1722  
      1591       1592       1603       1602       1712       1713       1724       1723  
      1592       1593       1604       1603       1713       1714       1725       1724  
      1593       1594       1605       1604       1714       1715       1726       1725  
      1594       1595       1606       1605       1715       1716       1727       1726  
      1596       1597       1608       1607       1717       1718       1729       1728  
      1597       1598       1609       1608       1718       1719       1730       1729  
      1598       1599       1610       1609       1719       1720       1731       1730  
      1599       1600       1611       1610       1720       1721       1732       1731  
      1600       1601       1612       1611       1721       1722       1733       1732  
      1601       1602       1613       1612       1722       1723       1734       1733  
      1602       1603       1614       1613       1723       1724       1735       1734  
      1603       1604       1615       1614       1724       1725       1736       1735  
      1604       1605       1616       1615       1725       1726       1737       1736  
      1605       1606       1617       1616       1726       1727       1738       1737  
      1607       1608       1619       1618       1728       1729       1740       1739  
      1608       1609       1620       1619       1729       1730       1741       1740  
      1609       1610       1621       1620       1730       1731       1742       1741  
      1610       1611       1622       1621       1731       1732       1743       1742  
      1611       1612       1623       1622       1732       1733       1744       1743  
      1612       1613       1624       1623       1733       1734       1745       1744  
      1613       1614       1625       1624       1734       1735       1746       1745  
      1614       1615       1626       1625       1735       1736       1747       1746  
      1615       1616       1627       1626       1736       1737       1748       1747  
      1616       1617       1628       1627       1737       1738       1749       1748  
      1618       1619       1630       1629       1739       1740       1751       1750  
      1619       1620       1631       1630       1740       1741       1752       1751  
      1620       1621       1632       1631       1741       1742       1753       1752  
      1621       1622       1633       1632       1742       1743       1754       1753  
      1622       1623       1634       1633       1743       1744       1755       1754  
      1623       1624       1635       1634       1744       1745       1756       1755  
      1624       1625       1636       1635       1745       1746       1757       1756  
      1625       1626       1637       1636       1746       1747       1758       1757  
      1626       1627       1638       1637       1747       1748       1759       1758  
      1627       1628       1639       1638       1748       1749       1760       1759  
      1629       1630       1641       1640       1750       1751       1762       1761  
      1630       1631       1642       1641       1751       1752       1763       1762  
      1631       1632       1643       1642       1752       1753       1764       1763  
      1632       1633       1644       1643       1753       1754       1765       1764  
      1633       1634       1645       1644       1754       1755       1766       1765  
      1634       1635       1646       1645       1755       1756       1767       1766  
      1635       1636       1647       1646       1756       1757       1768       1767  
      1636       1637       1648       1647       1757       1758       1769       1768  
      1637       1638       1649       1648       1758       1759       1770       1769  
      1638       1639       1650       1649       1759       1760       1771       1770  
      1640       1641       1652       1651       1761       1762       1773       1772  
      1641       1642       1653       1652       1762       1763       1774       1773  
      1642       1643       1654       1653       1763       1764       1775       1774  
      1643       1644       1655       1654       1764       1765       1776       1775  
      1644       1645       1656       1655       1765       1766       1777       1776  
      1645       1646       1657       1656       1766       1767       1778       1777  
      1646       1647       1658       1657       1767       1768       1779       1778  
      1647       1648       1659       1658       1768       1769       1780       1779  
      1648       1649       1660       1659       1769       1770       1781       1780  
      1649       1650       1661       1660       1770       1771       1782       1781  
      1651       1652       1663       1662       1772       1773       1784       1783  
      1652       1653       1664       1663       1773       1774       1785       1784  
      1653       1654       1665       1664       1774       1775       1786       1785  
      1654       1655       1666       1665       1775       1776       1787       1786  
      1655       1656       1667       1666       1776       1777       1788       1787  
      1656       1657       1668       1667       1777       1778       1789       1788  
      1657       1658       1669       1668       1778       1779       1790       1789  
      1658       1659       1670       1669       1779       1780       1791       1790  
      1659       1660       1671       1670       1780       1781       1792       1791  
      1660       1661       1672       1671       1781       1782       1793       1792  
      1662       1663       1674       1673       1783       1784       1795       1794  
      1663       1664       1675       1674       1784       1785       1796       1795  
      1664       1665       1676       1675       1785       1786       1797       1796  
      1665       1666       1677       1676       1786       1787       1798       1797  
      1666       1667       1678       1677       1787       1788       1799       1798  
      1667       1668       1679       1678       1788       1789       1800       1799  
      1668       1669       1680       1679       1789       1790       1801       1800  
      1669       1670       1681       1680       1790       1791       1802       1801  
      1670       1671       1682       1681       1791       1792       1803       1802  
      1671       1672       1683       1682       1792       1793       1804       1803  
      1673       1674       1685       1684       1794       1795       1806       1805  
      1674       1675       1686       1685       1795       1796       1807       1806  
      1675       1676       1687       1686       1796       1797       1808       1807  
      1676       1677       1688       1687       1797       1798       1809       1808  
      1677       1678       1689       1688       1798       1799       1810       1809  
      1678       1679       1690       1689       1799       1800       1811       1810  
      1679       1680       1691       1690       1800       1801       1812       1811  
      1680       1681       1692       1691       1801       1802       1813       1812  
      1681       1682       1693       1692       1802       1803       1814       1813  
      1682       1683       1694       1693       1803       1804       1815       1814  
      1695       1696       1707       1706       1816       1817       1828       1827  
      1696       1697       1708       1707       1817       1818       1829       1828  
      1697       1698       1709       1708       1818       1819       1830       1829  
      1698       1699       1710       1709       1819       1820       1831       1830  
      1699       1700       1711       1710       1820       1821       1832       1831  
      1700       1701       1712       1711       1821       1822       1833       1832  
      1701       1702       1713       1712       1822       1823       1834       1833  
      1702       1703       1714       1713       1823       1824       1835       1834  
      1703       1704       1715       1714       1824       1825       1836       1835  
      1704       1705       1716       1715       1825       1826       1837       1836  
      1706       1707       1718       1717       1827       1828       1839       1838  
      1707       1708       1719       1718       1828       1829       1840       1839  
      1708       1709       1720       1719       1829       1830       1841       1840  
      1709       1710       1721       1720       1830       1831       1842       1841  
      1710       1711       1722       1721       1831       1832       1843       1842  
      1711       1712       1723       1722       1832       1833       1844       1843  
      1712       1713       1724       1723       1833       1834       1845       1844  
      1713       1714       1725       1724       1834       1835       1846       1845  
      1714       1715       1726       1725       1835       1836       1847       1846  
      1715       1716       1727       1726       1836       1837       1848       1847  
      1717       1718       1729       1728       1838       1839       1850       1849  
      1718       1719       1730       1729       1839       1840       1851       1850  
      1719       1720       1731       1730       1840       1841       1852       1851  
      1720       1721       1732       1731       1841       1842       1853       1852  
      1721       1722       1733       1732       1842       1843       1854       1853  
      1722       1723       1734       1733       1843       1844       1855       1854  
      1723       1724       1735       1734       1844       1845       1856       1855  
      1724       1725       1736       1735       1845       1846       1857       1856  
      1725       1726       1737       1736       1846       1847       1858       1857  
      1726       1727       1738       1737       1847       1848       1859       1858  
      1728       1729       1740       1739       1849       1850       1861       1860  
      1729       1730       1741       1740       1850       1851       1862       1861  
      1730       1731       1742       1741       1851       1852       1863       1862  
      1731       1732       1743       1742       1852       1853       1864       1863  
      1732       1733       1744       1743       1853       1854       1865       1864  
      1733       1734       1745       1744       1854       1855       1866       1865  
      1734       1735       1746       1745       1855       1856       1867       1866  
      1735       1736       1747       1746       1856       1857       1868       1867  
      1736       1737       1748       1747       1857       1858       1869       1868  
      1737       1738       1749       1748       1858       1859       1870       1869  
      1739       1740       1751       1750       1860       1861       1872       1871  
      1740       1741       1752       1751       1861       1862       1873       1872  
      1741       1742       1753       1752       1862       1863       1874       1873  
      1742       1743       1754       1753       1863       1864       1875       1874  
      1743       1744       1755       1754       1864       1865       1876       1875  
      1744       1745       1756       1755       1865       1866       1877       1876  
      1745       1746       1757       1756       1866       1867       1878       1877  
      1746       1747       1758       1757       1867       1868       1879       1878  
      1747       1748       1759       1758       1868       1869       1880       1879  
      1748       1749       1760       1759       1869       1870       1881       1880  
      1750       1751       1762       1761       1871       1872       1883       1882  
      1751       1752       1763       1762       1872       1873       1884       1883  
      1752       1753       1764       1763       1873       1874       1885       1884  
      1753       1754       1765       1764       1874       1875       1886       1885  
      1754       1755       1766       1765       1875       1876       1887       1886  
      1755       1756       1767       1766       1876       1877       1888       1887  
      1756       1757       1768       1767       1877       1878       1889       1888  
      1757       1758       1769       1768       1878       1879       1890       1889  
      1758       1759       1770       1769       1879       1880       1891       1890  
      1759       1760       1771       1770       1880       1881       1892       1891  
      1761       1762       1773       1772       1882       1883       1894       1893  
      1762       1763       1774       1773       1883       1884       1895       1894  
      1763       1764       1775       1774       1884       1885       1896       1895  
      1764       1765       1776       1775       1885       1886       1897       1896  
      1765       1766       1777       1776       1886       1887       1898       1897  
      1766       1767       1778       1777       1887       1888       1899       1898  
      1767       1768       1779       1778       1888       1889       1900       1899  
      1768       1769       1780       1779       1889       1890       1901       1900  
      1769       1770       1781       1780       1890       1891       1902       1901  
      1770       1771       1782       1781       1891       1892       1903       1902  
      1772       1773       1784       1783       1893       1894       1905       1904  
      1773       1774       1785       1784       1894       1895       1906       1905  
      1774       1775       1786       1785       1895       1896       1907       1906  
      1775       1776       1787       1786       1896       1897       1908       1907  
      1776       1777       1788       1787       1897       1898       1909       1908  
      1777       1778       1789       1788       1898       1899       1910       1909  
      1778       1779       1790       1789       1899       1900       1911       1910  
      1779       1780       1791       1790       1900       1901       1912       1911  
      1780       1781       1792       1791       1901       1902       1913       1912  
      1781       1782       1793       1792       1902       1903       1914       1913  
      1783       1784       1795       1794       1904       1905       1916       1915  
      1784       1785       1796       1795       1905       1906       1917       1916  
      1785       1786       1797       1796       1906       1907       1918       1917  
      1786       1787       1798       1797       1907       1908       1919       1918  
      1787       1788       1799       1798       1908       1909       1920       1919  
      1788       1789       1800       1799       1909       1910       1921       1920  
      1789       1790       1801       1800       1910       1911       1922       1921  
      1790       1791       1802       1801       1911       1912       1923       1922  
      1791       1792       1803       1802       1912       1913       1924       1923  
      1792       1793       1804       1803       1913       1914       1925       1924  
      1794       1795       1806       1805       1915       1916       1927       1926  
      1795       1796       1807       1806       1916       1917       1928       1927  
      1796       1797       1808       1807       1917       1918       1929       1928  
      1797       1798       1809       1808       1918       1919       1930       1929  
      1798       1799       1810       1809       1919       1920       1931       1930  
      1799       1800       1811       1810       1920       1921       1932       1931  
      1800       1801       1812       1811       1921       1922       1933       1932  
      1801       1802       1813       1812       1922       1923       1934       1933  
      1802       1803       1814       1813       1923       1924       1935       1934  
      1803       1804       1815       1814       1924       1925       1936       1935  
      1816       1817       1828       1827       1937       1938       1949       1948  
      1817       1818       1829       1828       1938       1939       1950       1949  
      1818       1819       1830       1829       1939       1940       1951       1950  
      1819       1820       1831       1830       1940       1941       1952       1951  
      1820       1821       1832       1831       1941       1942       1953       1952  
      1821       1822       1833       1832       1942       1943       1954       1953  
      1822       1823       1834       1833       1943       1944       1955       1954  
      1823       1824       1835       1834       1944       1945       1956       1955  
      1824       1825       1836       1835       1945       1946       1957       1956  
      1825       1826       1837       1836       1946       1947       1958       1957  
      1827       1828       1839       1838       1948       1949       1960       1959  
      1828       1829       1840       1839       1949       1950       1961       1960  
      1829       1830       1841       1840       1950       1951       1962       1961  
      1830       1831       1842       1841       1951       1952       1963       1962  
      1831       1832       1843       1842       1952       1953       1964       1963  
      1832       1833       1844       1843       1953       1954       1965       1964  
      1833       1834       1845       1844       1954       1955       1966       1965  
      1834       1835       1846       1845       1955       1956       1967       1966  
      1835       1836       1847       1846       1956       1957       1968       1967  
      1836       1837       1848       1847       1957       1958       1969       1968  
      1838       1839       1850       1849       1959       1960       1971       1970  
      1839       1840       1851       1850       1960       1961       1972       1971  
      1840       1841       1852       1851       1961       1962       1973       1972  
      1841       1842       1853       1852       1962       1963       1974       1973  
      1842       1843       1854       1853       1963       1964       1975       1974  
      1843       1844       1855       1854       1964       1965       1976       1975  
      1844       1845       1856       1855       1965       1966       1977       1976  
      1845       1846       1857       1856       1966       1967       1978       1977  
      1846       1847       1858       1857       1967       1968       1979       1978  
      1847       1848       1859       1858       1968       1969       1980       1979  
      1849       1850       1861       1860       1970       1971       1982       1981  
      1850       1851       1862       1861       1971       1972       1983       1982  
      1851       1852       1863       1862       1972       1973       1984       1983  
      1852       1853       1864       1863       1973       1974       1985       1984  
      1853       1854       1865       1864       1974       1975       1986       1985  
      1854       1855       1866       1865       1975       1976       1987       1986  
      1855       1856       1867       1866       1976       1977       1988       1987  
      1856       1857       1868       1867       1977       1978       1989       1988  
      1857       1858       1869       1868       1978       1979       1990       1989  
      1858       1859       1870       1869       1979       1980       1991       1990  
      1860       1861       1872       1871       1981       1982       1993       1992  
      1861       1862       1873       1872       1982       1983       1994       1993  
      1862       1863       1874       1873       1983       1984       1995       1994  
      1863       1864       1875       1874       1984       1985       1996       1995  
      1864       1865       1876       1875       1985       1986       1997       1996  
      1865       1866       1877       1876       1986       1987       1998       1997  
      1866       1867       1878       1877       1987       1988       1999       1998  
      1867       1868       1879       1878       1988       1989       2000       1999  
      1868       1869       1880       1879       1989       1990       2001       2000  
      1869       1870       1881       1880       1990       1991       2002       2001  
      1871       1872       1883       1882       1992       1993       2004       2003  
      1872       1873       1884       1883       1993       1994       2005       2004  
      1873       1874       1885       1884       1994       1995       2006       2005  
      1874       1875       1886       1885       1995       1996       2007       2006  
      1875       1876       1887       1886       1996       1997       2008       2007  
      1876       1877       1888       1887       1997       1998       2009       2008  
      1877       1878       1889       1888       1998       1999       2010       2009  
      1878       1879       1890       1889       1999       2000       2011       2010  
      1879       1880       1891       1890       2000       2001       2012       2011  
      1880       1881       1892       1891       2001       2002       2013       2012  
      1882       1883       1894       1893       2003       2004       2015       2014  
      1883       1884       1895       1894       2004       2005       2016       2015  
      1884       1885       1896       1895       2005       2006       2017       2016  
      1885       1886       1897       1896       2006       2007       2018       2017  
      1886       1887       1898       1897       2007       2008       2019       2018  
      1887       1888       1899       1898       2008       2009       2020       2019  
      1888       1889       1900       1899       2009       2010       2021       2020  
      1889       1890       1901       1900       2010       2011       2022       2021  
      1890       1891       1902       1901       2011       2012       2023       2022  
      1891       1892       1903       1902       2012       2013       2024       2023  
      1893       1894       1905       1904       2014       2015       2026       2025  
      1894       1895       1906       1905       2015       2016       2027       2026  
      1895       1896       1907       1906       2016       2017       2028       2027  
      1896       1897       1908       1907       2017       2018       2029       2028  
      1897       1898       1909       1908       2018       2019       2030       2029  
      1898       1899       1910       1909       2019       2020       2031       2030  
      1899       1900       1911       1910       2020       2021       2032       2031  
      1900       1901       1912       1911       2021       2022       2033       2032  
      1901       1902       1913       1912       2022       2023       2034       2033  
      1902       1903       1914       1913       2023       2024       2035       2034  
      1904       1905       1916       1915       2025       2026       2037       2036  
      1905       1906       1917       1916       2026       2027       2038       2037  
      1906       1907       1918       1917       2027       2028       2039       2038  
      1907       1908       1919       1918       2028       2029       2040       2039  
      1908       1909       1920       1919       2029       2030       2041       2040  
      1909       1910       1921       1920       2030       2031       2042       2041  
      1910       1911       1922       1921       2031       2032       2043       2042  
      1911       1912       1923       1922       2032       2033       2044       2043  
      1912       1913       1924       1923       2033       2034       2045       2044  
      1913       1914       1925       1924       2034       2035       2046       2045  
      1915       1916       1927       1926       2036       2037       2048       2047  
      1916       1917       1928       1927       2037       2038       2049       2048  
      1917       1918       1929       1928       2038       2039       2050       2049  
      1918       1919       1930       1929       2039       2040       2051       2050  
      1919       1920       1931       1930       2040       2041       2052       2051  
      1920       1921       1932       1931       2041       2042       2053       2052  
      1921       1922       1933       1932       2042       2043       2054       2053  
      1922       1923       1934       1933       2043       2044       2055       2054  
      1923       1924       1935       1934       2044       2045       2056       2055  
      1924       1925       1936       1935       2045       2046       2057       2056  
      1937       1938       1949       1948       2058       2059       2070       2069  
      1938       1939       1950       1949       2059       2060       2071       2070  
      1939       1940       1951       1950       2060       2061       2072       2071  
      1940       1941       1952       1951       2061       2062       2073       2072  
      1941       1942       1953       1952       2062       2063       2074       2073  
      1942       1943       1954       1953       2063       2064       2075       2074  
      1943       1944       1955       1954       2064       2065       2076       2075  
      1944       1945       1956       1955       2065       2066       2077       2076  
      1945       1946       1957       1956       2066       2067       2078       2077  
      1946       1947       1958       1957       2067       2068       2079       2078  
      1948       1949       1960       1959       2069       2070       2081       2080  
      1949       1950       1961       1960       2070       2071       2082       2081  
      1950       1951       1962       1961       2071       2072       2083       2082  
      1951       1952       1963       1962       2072       2073       2084       2083  
      1952       1953       1964       1963       2073       2074       2085       2084  
      1953       1954       1965       1964       2074       2075       2086       2085  
      1954       1955       1966       1965       2075       2076       2087       2086  
      1955       1956       1967       1966       2076       2077       2088       2087  
      1956       1957       1968       1967       2077       2078       2089       2088  
      1957       1958       1969       1968       2078       2079       2090       2089  
      1959       1960       1971       1970       2080       2081       2092       2091  
      1960       1961       1972       1971       2081       2082       2093       2092  
      1961       1962       1973       1972       2082       2083       2094       2093  
      1962       1963       1974       1973       2083       2084       2095       2094  
      1963       1964       1975       1974       2084       2085       2096       2095  
      1964       1965       1976       1975       2085       2086       2097       2096  
      1965       1966       1977       1976       2086       2087       2098       2097  
      1966       1967       1978       1977       2087       2088       2099       2098  
      1967       1968       1979       1978       2088       2089       2100       2099  
      1968       1969       1980       1979       2089       2090       2101       2100  
      1970       1971       1982       1981       2091       2092       2103       2102  
      1971       1972       1983       1982       2092       2093       2104       2103  
      1972       1973       1984       1983       2093       2094       2105       2104  
      1973       1974       1985       1984       2094       2095       2106       2105  
      1974       1975       1986       1985       2095       2096       2107       2106  
      1975       1976       1987       1986       2096       2097       2108       2107  
      1976       1977       1988       1987       2097       2098       2109       2108  
      1977       1978       1989       1988       2098       2099       2110       2109  
      1978       1979       1990       1989       2099       2100       2111       2110  
      1979       1980       1991       1990       2100       2101       2112       2111  
      1981       1982       1993       1992       2102       2103       2114       2113  
      1982       1983       1994       1993       2103       2104       2115       2114  
      1983       1984       1995       1994       2104       2105       2116       2115  
      1984       1985       1996       1995       2105       2106       2117       2116  
      1985       1986       1997       1996       2106       2107       2118       2117  
      1986       1987       1998       1997       2107       2108       2119       2118  
      1987       1988       1999       1998       2108       2109       2120       2119  
      1988       1989       2000       1999       2109       2110       2121       2120  
      1989       1990       2001       2000       2110       2111       2122       2121  
      1990       1991       2002       2001       2111       2112       2123       2122  
      1992       1993       2004       2003       2113       2114       2125       2124  
      1993       1994       2005       2004       2114       2115       2126       2125  
      1994       1995       2006       2005       2115       2116       2127       2126  
      1995       1996       2007       2006       2116       2117       2128       2127  
      1996       1997       2008       2007       2117       2118       2129       2128  
      1997       1998       2009       2008       2118       2119       2130       2129  
      1998       1999       2010       2009       2119       2120       2131       2130  
      1999       2000       2011       2010       2120       2121       2132       2131  
      2000       2001       2012       2011       2121       2122       2133       2132  
      2001       2002       2013       2012       2122       2123       2134       2133  
      2003       2004       2015       2014       2124       2125       2136       2135  
      2004       2005       2016       2015       2125       2126       2137       2136  
      2005       2006       2017       2016       2126       2127       2138       2137  
      2006       2007       2018       2017       2127       2128       2139       2138  
      2007       2008       2019       2018       2128       2129       2140       2139  
      2008       2009       2020       2019       2129       2130       2141       2140  
      2009       2010       2021       2020       2130       2131       2142       2141  
      2010       2011       2022       2021       2131       2132       2143       2142  
      2011       2012       2023       2022       2132       2133       2144       2143  
      2012       2013       2024       2023       2133       2134       2145       2144  
      2014       2015       2026       2025       2135       2136       2147       2146  
      2015       2016       2027       2026       2136       2137       2148       2147  
      2016       2017       2028       2027       2137       2138       2149       2148  
      2017       2018       2029       2028       2138       2139       2150       2149  
      2018       2019       2030       2029       2139       2140       2151       2150  
      2019       2020       2031       2030       2140       2141       2152       2151  
      2020       2021       2032       2031       2141       2142       2153       2152  
      2021       2022       2033       2032       2142       2143       2154       2153  
      2022       2023       2034       2033       2143       2144       2155       2154  
      2023       2024       2035       2034       2144       2145       2156       2155  
      2025       2026       2037       2036       2146       2147       2158       2157  
      2026       2027       2038       2037       2147       2148       2159       2158  
      2027       2028       2039       2038       2148       2149       2160       2159  
      2028       2029       2040       2039       2149       2150       2161       2160  
      2029       2030       2041       2040       2150       2151       2162       2161  
      2030       2031       2042       2041       2151       2152       2163       2162  
      2031       2032       2043       2042       2152       2153       2164       2163  
      2032       2033       2044       2043       2153       2154       2165       2164  
      2033       2034       2045       2044       2154       2155       2166       2165  
      2034       2035       2046       2045       2155       2156       2167       2166  
      2036       2037       2048       2047       2157       2158       2169       2168  
      2037       2038       2049       2048       2158       2159       2170       2169  
      2038       2039       2050       2049       2159       2160       2171       2170  
      2039       2040       2051       2050       2160       2161       2172       2171  
      2040       2041       2052       2051       2161       2162       2173       2172  
      2041       2042       2053       2052       2162       2163       2174       2173  
      2042       2043       2054       2053       2163       2164       2175       2174  
      2043       2044       2055       2054       2164       2165       2176       2175  
      2044       2045       2056       2055       2165       2166       2177       2176  
      2045       2046       2057       2056       2166       2167       2178       2177  
      2058       2059       2070       2069       2179       2180       2191       2190  
      2059       2060       2071       2070       2180       2181       2192       2191  
      2060       2061       2072       2071       2181       2182       2193       2192  
      2061       2062       2073       2072       2182       2183       2194       2193  
      2062       2063       2074       2073       2183       2184       2195       2194  
      2063       2064       2075       2074       2184       2185       2196       2195  
      2064       2065       2076       2075       2185       2186       2197       2196  
      2065       2066       2077       2076       2186       2187       2198       2197  
      2066       2067       2078       2077       2187       2188       2199       2198  
      2067       2068       2079       2078       2188       2189       2200       2199  
      2069       2070       2081       2080       2190       2191       2202       2201  
      2070       2071       2082       2081       2191       2192       2203       2202  
      2071       2072       2083       2082       2192       2193       2204       2203  
      2072       2073       2084       2083       2193       2194       2205       2204  
      2073       2074       2085       2084       2194       2195       2206       2205  
      2074       2075       2086       2085       2195       2196       2207       2206  
      2075       2076       2087       2086       2196       2197       2208       2207  
      2076       2077       2088       2087       2197       2198       2209       2208  
      2077       2078       2089       2088       2198       2199       2210       2209  
      2078       2079       2090       2089       2199       2200       2211       2210  
      2080       2081       2092       2091       2201       2202       2213       2212  
      2081       2082       2093       2092       2202       2203       2214       2213  
      2082       2083       2094       2093       2203       2204       2215       2214  
      2083       2084       2095       2094       2204       2205       2216       2215  
      2084       2085       2096       2095       2205       2206       2217       2216  
      2085       2086       2097       2096       2206       2207       2218       2217  
      2086       2087       2098       2097       2207       2208       2219       2218  
      2087       2088       2099       2098       2208       2209       2220       2219  
      2088       2089       2100       2099       2209       2210       2221       2220  
      2089       2090       2101       2100       2210       2211       2222       2221  
      2091       2092       2103       2102       2212       2213       2224       2223  
      2092       2093       2104       2103       2213       2214       2225       2224  
      2093       2094       2105       2104       2214       2215       2226       2225  
      2094       2095       2106       2105       2215       2216       2227       2226  
      2095       2096       2107       2106       2216       2217       2228       2227  
      2096       2097       2108       2107       2217       2218       2229       2228  
      2097       2098       2109       2108       2218       2219       2230       2229  
      2098       2099       2110       2109       2219       2220       2231       2230  
      2099       2100       2111       2110       2220       2221       2232       2231  
      2100       2101       2112       2111       2221       2222       2233       2232  
      2102       2103       2114       2113       2223       2224       2235       2234  
      2103       2104       2115       2114       2224       2225       2236       2235  
      2104       2105       2116       2115       2225       2226       2237       2236  
      2105       2106       2117       2116       2226       2227       2238       2237  
      2106       2107       2118       2117       2227       2228       2239       2238  
      2107       2108       2119       2118       2228       2229       2240       2239  
      2108       2109       2120       2119       2229       2230       2241       2240  
      2109       2110       2121       2120       2230       2231       2242       2241  
      2110       2111       2122       2121       2231       2232       2243       2242  
      2111       2112       2123       2122       2232       2233       2244       2243  
      2113       2114       2125       2124       2234       2235       2246       2245  
      2114       2115       2126       2125       2235       2236       2247       2246  
      2115       2116       2127       2126       2236       2237       2248       2247  
      2116       2117       2128       2127       2237       2238       2249       2248  
      2117       2118       2129       2128       2238       2239       2250       2249  
      2118       2119       2130       2129       2239       2240       2251       2250  
      2119       2120       2131       2130       2240       2241       2252       2251  
      2120       2121       2132       2131       2241       2242       2253       2252  
      2121       2122       2133       2132       2242       2243       2254       2253  
      2122       2123       2134       2133       2243       2244       2255       2254  
      2124       2125       2136       2135       2245       2246       2257       2256  
      2125       2126       2137       2136       2246       2247       2258       2257  
      2126       2127       2138       2137       2247       2248       2259       2258  
      2127       2128       2139       2138       2248       2249       2260       2259  
      2128       2129       2140       2139       2249       2250       2261       2260  
      2129       2130       2141       2140       2250       2251       2262       2261  
      2130       2131       2142       2141       2251       2252       2263       2262  
      2131       2132       2143       2142       2252       2253       2264       2263  
      2132       2133       2144       2143       2253       2254       2265       2264  
      2133       2134       2145       2144       2254       2255       2266       2265  
      2135       2136       2147       2146       2256       2257       2268       2267  
      2136       2137       2148       2147       2257       2258       2269       2268  
      2137       2138       2149       2148       2258       2259       2270       2269  
      2138       2139       2150       2149       2259       2260       2271       2270  
      2139       2140       2151       2150       2260       2261       2272       2271  
      2140       2141       2152       2151       2261       2262       2273       2272  
      2141       2142       2153       2152       2262       2263       2274       2273  
      2142       2143       2154       2153       2263       2264       2275       2274  
      2143       2144       2155       2154       2264       2265       2276       2275  
      2144       2145       2156       2155       2265       2266       2277       2276  
      2146       2147       2158       2157       2267       2268       2279       2278  
      2147       2148       2159       2158       2268       2269       2280       2279  
      2148       2149       2160       2159       2269       2270       2281       2280  
      2149       2150       2161       2160       2270       2271       2282       2281  
      2150       2151       2162       2161       2271       2272       2283       2282  
      2151       2152       2163       2162       2272       2273       2284       2283  
      2152       2153       2164       2163       2273       2274       2285       2284  
      2153       2154       2165       2164       2274       2275       2286       2285  
      2154       2155       2166       2165       2275       2276       2287       2286  
      2155       2156       2167       2166       2276       2277       2288       2287  
      2157       2158       2169       2168       2278       2279       2290       2289  
      2158       2159       2170       2169       2279       2280       2291       2290  
      2159       2160       2171       2170       2280       2281       2292       2291  
      2160       2161       2172       2171       2281       2282       2293       2292  
      2161       2162       2173       2172       2282       2283       2294       2293  
      2162       2163       2174       2173       2283       2284       2295       2294  
      2163       2164       2175       2174       2284       2285       2296       2295  
      2164       2165       2176       2175       2285       2286       2297       2296  
      2165       2166       2177       2176       2286       2287       2298       2297  
      2166       2167       2178       2177       2287       2288       2299       2298  
      2179       2180       2191       2190       2300       2301       2312       2311  
      2180       2181       2192       2191       2301       2302       2313       2312  
      2181       2182       2193       2192       2302       2303       2314       2313  
      2182       2183       2194       2193       2303       2304       2315       2314  
      2183       2184       2195       2194       2304       2305       2316       2315  
      2184       2185       2196       2195       2305       2306       2317       2316  
      2185       2186       2197       2196       2306       2307       2318       2317  
      2186       2187       2198       2197       2307       2308       2319       2318  
      2187       2188       2199       2198       2308       2309       2320       2319  
      2188       2189       2200       2199       2309       2310       2321       2320  
      2190       2191       2202       2201       2311       2312       2323       2322  
      2191       2192       2203       2202       2312       2313       2324       2323  
      2192       2193       2204       2203       2313       2314       2325       2324  
      2193       2194       2205       2204       2314       2315       2326       2325  
      2194       2195       2206       2205       2315       2316       2327       2326  
      2195       2196       2207       2206       2316       2317       2328       2327  
      2196       2197       2208       2207       2317       2318       2329       2328  
      2197       2198       2209       2208       2318       2319       2330       2329  
      2198       2199       2210       2209       2319       2320       2331       2330  
      2199       2200       2211       2210       2320       2321       2332       2331  
      2201       2202       2213       2212       2322       2323       2334       2333  
      2202       2203       2214       2213       2323       2324       2335       2334  
      2203       2204       2215       2214       2324       2325       2336       2335  
      2204       2205       2216       2215       2325       2326       2337       2336  
      2205       2206       2217       2216       2326       2327       2338       2337  
      2206       2207       2218       2217       2327       2328       2339       2338  
      2207       2208       2219       2218       2328       2329       2340       2339  
      2208       2209       2220       2219       2329       2330       2341       2340  
      2209       2210       2221       2220       2330       2331       2342       2341  
      2210       2211       2222       2221       2331       2332       2343       2342  
      2212       2213       2224       2223       2333       2334       2345       2344  
      2213       2214       2225       2224       2334       2335       2346       2345  
      2214       2215       2226       2225       2335       2336       2347       2346  
      2215       2216       2227       2226       2336       2337       2348       2347  
      2216       2217       2228       2227       2337       2338       2349       2348  
      2217       2218       2229       2228       2338       2339       2350       2349  
      2218       2219       2230       2229       2339       2340       2351       2350  
      2219       2220       2231       2230       2340       2341       2352       2351  
      2220       2221       2232       2231       2341       2342       2353       2352  
      2221       2222       2233       2232       2342       2343       2354       2353  
      2223       2224       2235       2234       2344       2345       2356       2355  
      2224       2225       2236       2235       2345       2346       2357       2356  
      2225       2226       2237       2236       2346       2347       2358       2357  
      2226       2227       2238       2237       2347       2348       2359       2358  
      2227       2228       2239       2238       2348       2349       2360       2359  
      2228       2229       2240       2239       2349       2350       2361       2360  
      2229       2230       2241       2240       2350       2351       2362       2361  
      2230       2231       2242       2241       2351       2352       2363       2362  
      2231       2232       2243       2242       2352       2353       2364       2363  
      2232       2233       2244       2243       2353       2354       2365       2364  
      2234       2235       2246       2245       2355       2356       2367       2366  
      2235       2236       2247       2246       2356       2357       2368       2367  
      2236       2237       2248       2247       2357       2358       2369       2368  
      2237       2238       2249       2248       2358       2359       2370       2369  
      2238       2239       2250       2249       2359       2360       2371       2370  
      2239       2240       2251       2250       2360       2361       2372       2371  
      2240       2241       2252       2251       2361       2362       2373       2372  
      2241       2242       2253       2252       2362       2363       2374       2373  
      2242       2243       2254       2253       2363       2364       2375       2374  
      2243       2244       2255       2254       2364       2365       2376       2375  
      2245       2246       2257       2256       2366       2367       2378       2377  
      2246       2247       2258       2257       2367       2368       2379       2378  
      2247       2248       2259       2258       2368       2369       2380       2379  
      2248       2249       2260       2259       2369       2370       2381       2380  
      2249       2250       2261       2260       2370       2371       2382       2381  
      2250       2251       2262       2261       2371       2372       2383       2382  
      2251       2252       2263       2262       2372       2373       2384       2383  
      2252       2253       2264       2263       2373       2374       2385       2384  
      2253       2254       2265       2264       2374       2375       2386       2385  
      2254       2255       2266       2265       2375       2376       2387       2386  
      2256       2257       2268       2267       2377       2378       2389       2388  
      2257       2258       2269       2268       2378       2379       2390       2389  
      2258       2259       2270       2269       2379       2380       2391       2390  
      2259       2260       2271       2270       2380       2381       2392       2391  
      2260       2261       2272       2271       2381       2382       2393       2392  
      2261       2262       2273       2272       2382       2383       2394       2393  
      2262       2263       2274       2273       2383       2384       2395       2394  
      2263       2264       2275       2274       2384       2385       2396       2395  
      2264       2265       2276       2275       2385       2386       2397       2396  
      2265       2266       2277       2276       2386       2387       2398       2397  
      2267       2268       2279       2278       2388       2389       2400       2399  
      2268       2269       2280       2279       2389       2390       2401       2400  
      2269       2270       2281       2280       2390       2391       2402       2401  
      2270       2271       2282       2281       2391       2392       2403       2402  
      2271       2272       2283       2282       2392       2393       2404       2403  
      2272       2273       2284       2283       2393       2394       2405       2404  
      2273       2274       2285       2284       2394       2395       2406       2405  
      2274       2275       2286       2285       2395       2396       2407       2406  
      2275       2276       2287       2286       2396       2397       2408       2407  
      2276       2277       2288       2287       2397       2398       2409       2408  
      2278       2279       2290       2289       2399       2400       2411       2410  
      2279       2280       2291       2290       2400       2401       2412       2411  
      2280       2281       2292       2291       2401       2402       2413       2412  
      2281       2282       2293       2292       2402       2403       2414       2413  
      2282       2283       2294       2293       2403       2404       2415       2414  
      2283       2284       2295       2294       2404       2405       2416       2415  
      2284       2285       2296       2295       2405       2406       2417       2416  
      2285       2286       2297       2296       2406       2407       2418       2417  
      2286       2287       2298       2297       2407       2408       2419       2418  
      2287       2288       2299       2298       2408       2409       2420       2419  
      2300       2301       2312       2311       2421       2422       2433       2432  
      2301       2302       2313       2312       2422       2423       2434       2433  
      2302       2303       2314       2313       2423       2424       2435       2434  
      2303       2304       2315       2314       2424       2425       2436       2435  
      2304       2305       2316       2315       2425       2426       2437       2436  
      2305       2306       2317       2316       2426       2427       2438       2437  
      2306       2307       2318       2317       2427       2428       2439       2438  
      2307       2308       2319       2318       2428       2429       2440       2439  
      2308       2309       2320       2319       2429       2430       2441       2440  
      2309       2310       2321       2320       2430       2431       2442       2441  
      2311       2312       2323       2322       2432       2433       2444       2443  
      2312       2313       2324       2323       2433       2434       2445       2444  
      2313       2314       2325       2324       2434       2435       2446       2445  
      2314       2315       2326       2325       2435       2436       2447       2446  
      2315       2316       2327       2326       2436       2437       2448       2447  
      2316       2317       2328       2327       2437       2438       2449       2448  
      2317       2318       2329       2328       2438       2439       2450       2449  
      2318       2319       2330       2329       2439       2440       2451       2450  
      2319       2320       2331       2330       2440       2441       2452       2451  
      2320       2321       2332       2331       2441       2442       2453       2452  
      2322       2323       2334       2333       2443       2444       2455       2454  
      2323       2324       2335       2334       2444       2445       2456       2455  
      2324       2325       2336       2335       2445       2446       2457       2456  
      2325       2326       2337       2336       2446       2447       2458       2457  
      2326       2327       2338       2337       2447       2448       2459       2458  
      2327       2328       2339       2338       2448       2449       2460       2459  
      2328       2329       2340       2339       2449       2450       2461       2460  
      2329       2330       2341       2340       2450       2451       2462       2461  
      2330       2331       2342       2341       2451       2452       2463       2462  
      2331       2332       2343       2342       2452       2453       2464       2463  
      2333       2334       2345       2344       2454       2455       2466       2465  
      2334       2335       2346       2345       2455       2456       2467       2466  
      2335       2336       2347       2346       2456       2457       2468       2467  
      2336       2337       2348       2347       2457       2458       2469       2468  
      2337       2338       2349       2348       2458       2459       2470       2469  
      2338       2339       2350       2349       2459       2460       2471       2470  
      2339       2340       2351       2350       2460       2461       2472       2471  
      2340       2341       2352       2351       2461       2462       2473       2472  
      2341       2342       2353       2352       2462       2463       2474       2473  
      2342       2343       2354       2353       2463       2464       2475       2474  
      2344       2345       2356       2355       2465       2466       2477       2476  
      2345       2346       2357       2356       2466       2467       2478       2477  
      2346       2347       2358       2357       2467       2468       2479       2478  
      2347       2348       2359       2358       2468       2469       2480       2479  
      2348       2349       2360       2359       2469       2470       2481       2480  
      2349       2350       2361       2360       2470       2471       2482       2481  
      2350       2351       2362       2361       2471       2472       2483       2482  
      2351       2352       2363       2362       2472       2473       2484       2483  
      2352       2353       2364       2363       2473       2474       2485       2484  
      2353       2354       2365       2364       2474       2475       2486       2485  
      2355       2356       2367       2366       2476       2477       2488       2487  
      2356       2357       2368       2367       2477       2478       2489       2488  
      2357       2358       2369       2368       2478       2479       2490       2489  
      2358       2359       2370       2369       2479       2480       2491       2490  
      2359       2360       2371       2370       2480       2481       2492       2491  
      2360       2361       2372       2371       2481       2482       2493       2492  
      2361       2362       2373       2372       2482       2483       2494       2493  
      2362       2363       2374       2373       2483       2484       2495       2494  
      2363       2364       2375       2374       2484       2485       2496       2495  
      2364       2365       2376       2375       2485       2486       2497       2496  
      2366       2367       2378       2377       2487       2488       2499       2498  
      2367       2368       2379       2378       2488       2489       2500       2499  
      2368       2369       2380       2379       2489       2490       2501       2500  
      2369       2370       2381       2380       2490       2491       2502       2501  
      2370       2371       2382       2381       2491       2492       2503       2502  
      2371       2372       2383       2382       2492       2493       2504       2503  
      2372       2373       2384       2383       2493       2494       2505       2504  
      2373       2374       2385       2384       2494       2495       2506       2505  
      2374       2375       2386       2385       2495       2496       2507       2506  
      2375       2376       2387       2386       2496       2497       2508       2507  
      2377       2378       2389       2388       2498       2499       2510       2509  
      2378       2379       2390       2389       2499       2500       2511       2510  
      2379       2380       2391       2390       2500       2501       2512       2511  
      2380       2381       2392       2391       2501       2502       2513       2512  
      2381       2382       2393       2392       2502       2503       2514       2513  
      2382       2383       2394       2393       2503       2504       2515       2514  
      2383       2384       2395       2394       2504       2505       2516       2515  
      2384       2385       2396       2395       2505       2506       2517       2516  
      2385       2386       2397       2396       2506       2507       2518       2517  
      2386       2387       2398       2397       2507       2508       2519       2518  
      2388       2389       2400       2399       2509       2510       2521       2520  
      2389       2390       2401       2400       2510       2511       2522       2521  
      2390       2391       2402       2401       2511       2512       2523       2522  
      2391       2392       2403       2402       2512       2513       2524       2523  
      2392       2393       2404       2403       2513       2514       2525       2524  
      2393       2394       2405       2404       2514       2515       2526       2525  
      2394       2395       2406       2405       2515       2516       2527       2526  
      2395       2396       2407       2406       2516       2517       2528       2527  
      2396       2397       2408       2407       2517       2518       2529       2528  
      2397       2398       2409       2408       2518       2519       2530       2529  
      2399       2400       2411       2410       2520       2521       2532       2531  
      2400       2401       2412       2411       2521       2522       2533       2532  
      2401       2402       2413       2412       2522       2523       2534       2533  
      2402       2403       2414       2413       2523       2524       2535       2534  
      2403       2404       2415       2414       2524       2525       2536       2535  
      2404       2405       2416       2415       2525       2526       2537       2536  
      2405       2406       2417       2416       2526       2527       2538       2537  
      2406       2407       2418       2417       2527       2528       2539       2538  
      2407       2408       2419       2418       2528       2529       2540       2539  
      2408       2409       2420       2419       2529       2530       2541       2540  
      2421       2422       2433       2432       2542       2543       2554       2553  
      2422       2423       2434       2433       2543       2544       2555       2554  
      2423       2424       2435       2434       2544       2545       2556       2555  
      2424       2425       2436       2435       2545       2546       2557       2556  
      2425       2426       2437       2436       2546       2547       2558       2557  
      2426       2427       2438       2437       2547       2548       2559       2558  
      2427       2428       2439       2438       2548       2549       2560       2559  
      2428       2429       2440       2439       2549       2550       2561       2560  
      2429       2430       2441       2440       2550       2551       2562       2561  
      2430       2431       2442       2441       2551       2552       2563       2562  
      2432       2433       2444       2443       2553       2554       2565       2564  
      2433       2434       2445       2444       2554       2555       2566       2565  
      2434       2435       2446       2445       2555       2556       2567       2566  
      2435       2436       2447       2446       2556       2557       2568       2567  
      2436       2437       2448       2447       2557       2558       2569       2568  
      2437       2438       2449       2448       2558       2559       2570       2569  
      2438       2439       2450       2449       2559       2560       2571       2570  
      2439       2440       2451       2450       2560       2561       2572       2571  
      2440       2441       2452       2451       2561       2562       2573       2572  
      2441       2442       2453       2452       2562       2563       2574       2573  
      2443       2444       2455       2454       2564       2565       2576       2575  
      2444       2445       2456       2455       2565       2566       2577       2576  
      2445       2446       2457       2456       2566       2567       2578       2577  
      2446       2447       2458       2457       2567       2568       2579       2578  
      2447       2448       2459       2458       2568       2569       2580       2579  
      2448       2449       2460       2459       2569       2570       2581       2580  
      2449       2450       2461       2460       2570       2571       2582       2581  
      2450       2451       2462       2461       2571       2572       2583       2582  
      2451       2452       2463       2462       2572       2573       2584       2583  
      2452       2453       2464       2463       2573       2574       2585       2584  
      2454       2455       2466       2465       2575       2576       2587       2586  
      2455       2456       2467       2466       2576       2577       2588       2587  
      2456       2457       2468       2467       2577       2578       2589       2588  
      2457       2458       2469       2468       2578       2579       2590       2589  
      2458       2459       2470       2469       2579       2580       2591       2590  
      2459       2460       2471       2470       2580       2581       2592       2591  
      2460       2461       2472       2471       2581       2582       2593       2592  
      2461       2462       2473       2472       2582       2583       2594       2593  
      2462       2463       2474       2473       2583       2584       2595       2594  
      2463       2464       2475       2474       2584       2585       2596       2595  
      2465       2466       2477       2476       2586       2587       2598       2597  
      2466       2467       2478       2477       2587       2588       2599       2598  
      2467       2468       2479       2478       2588       2589       2600       2599  
      2468       2469       2480       2479       2589       2590       2601       2600  
      2469       2470       2481       2480       2590       2591       2602       2601  
      2470       2471       2482       2481       2591       2592       2603       2602  
      2471       2472       2483       2482       2592       2593       2604       2603  
      2472       2473       2484       2483       2593       2594       2605       2604  
      2473       2474       2485       2484       2594       2595       2606       2605  
      2474       2475       2486       2485       2595       2596       2607       2606  
      2476       2477       2488       2487       2597       2598       2609       2608  
      2477       2478       2489       2488       2598       2599       2610       2609  
      2478       2479       2490       2489       2599       2600       2611       2610  
      2479       2480       2491       2490       2600       2601       2612       2611  
      2480       2481       2492       2491       2601       2602       2613       2612  
      2481       2482       2493       2492       2602       2603       2614       2613  
      2482       2483       2494       2493       2603       2604       2615       2614  
      2483       2484       2495       2494       2604       2605       2616       2615  
      2484       2485       2496       2495       2605       2606       2617       2616  
      2485       2486       2497       2496       2606       2607       2618       2617  
      2487       2488       2499       2498       2608       2609       2620       2619  
      2488       2489       2500       2499       2609       2610       2621       2620  
      2489       2490       2501       2500       2610       2611       2622       2621  
      2490       2491       2502       2501       2611       2612       2623       2622  
      2491       2492       2503       2502       2612       2613       2624       2623  
      2492       2493       2504       2503       2613       2614       2625       2624  
      2493       2494       2505       2504       2614       2615       2626       2625  
      2494       2495       2506       2505       2615       2616       2627       2626  
      2495       2496       2507       2506       2616       2617       2628       2627  
      2496       2497       2508       2507       2617       2618       2629       2628  
      2498       2499       2510       2509       2619       2620       2631       2630  
      2499       2500       2511       2510       2620       2621       2632       2631  
      2500       2501       2512       2511       2621       2622       2633       2632  
      2501       2502       2513       2512       2622       2623       2634       2633  
      2502       2503       2514       2513       2623       2624       2635       2634  
      2503       2504       2515       2514       2624       2625       2636       2635  
      2504       2505       2516       2515       2625       2626       2637       2636  
      2505       2506       2517       2516       2626       2627       2638       2637  
      2506       2507       2518       2517       2627       2628       2639       2638  
      2507       2508       2519       2518       2628       2629       2640       2639  
      2509       2510       2521       2520       2630       2631       2642       2641  
      2510       2511       2522       2521       2631       2632       2643       2642  
      2511       2512       2523       2522       2632       2633       2644       2643  
      2512       2513       2524       2523       2633       2634       2645       2644  
      2513       2514       2525       2524       2634       2635       2646       2645  
      2514       2515       2526       2525       2635       2636       2647       2646  
      2515       2516       2527       2526       2636       2637       2648       2647  
      2516       2517       2528       2527       2637       2638       2649       2648  
      2517       2518       2529       2528       2638       2639       2650       2649  
      2518       2519       2530       2529       2639       2640       2651       2650  
      2520       2521       2532       2531       2641       2642       2653       2652  
      2521       2522       2533       2532       2642       2643       2654       2653  
      2522       2523       2534       2533       2643       2644       2655       2654  
      2523       2524       2535       2534       2644       2645       2656       2655  
      2524       2525       2536       2535       2645       2646       2657       2656  
      2525       2526       2537       2536       2646       2647       2658       2657  
      2526       2527       2538       2537       2647       2648       2659       2658  
      2527       2528       2539       2538       2648       2649       2660       2659  
      2528       2529       2540       2539       2649       2650       2661       2660  
      2529       2530       2541       2540       2650       2651       2662       2661  
      2542       2543       2554       2553       2663       2664       2675       2674  
      2543       2544       2555       2554       2664       2665       2676       2675  
      2544       2545       2556       2555       2665       2666       2677       2676  
      2545       2546       2557       2556       2666       2667       2678       2677  
      2546       2547       2558       2557       2667       2668       2679       2678  
      2547       2548       2559       2558       2668       2669       2680       2679  
      2548       2549       2560       2559       2669       2670       2681       2680  
      2549       2550       2561       2560       2670       2671       2682       2681  
      2550       2551       2562       2561       2671       2672       2683       2682  
      2551       2552       2563       2562       2672       2673       2684       2683  
      2553       2554       2565       2564       2674       2675       2686       2685  
      2554       2555       2566       2565       2675       2676       2687       2686  
      2555       2556       2567       2566       2676       2677       2688       2687  
      2556       2557       2568       2567       2677       2678       2689       2688  
      2557       2558       2569       2568       2678       2679       2690       2689  
      2558       2559       2570       2569       2679       2680       2691       2690  
      2559       2560       2571       2570       2680       2681       2692       2691  
      2560       2561       2572       2571       2681       2682       2693       2692  
      2561       2562       2573       2572       2682       2683       2694       2693  
      2562       2563       2574       2573       2683       2684       2695       2694  
      2564       2565       2576       2575       2685       2686       2697       2696  
      2565       2566       2577       2576       2686       2687       2698       2697  
      2566       2567       2578       2577       2687       2688       2699       2698  
      2567       2568       2579       2578       2688       2689       2700       2699  
      2568       2569       2580       2579       2689       2690       2701       2700  
      2569       2570       2581       2580       2690       2691       2702       2701  
      2570       2571       2582       2581       2691       2692       2703       2702  
      2571       2572       2583       2582       2692       2693       2704       2703  
      2572       2573       2584       2583       2693       2694       2705       2704  
      2573       2574       2585       2584       2694       2695       2706       2705  
      2575       2576       2587       2586       2696       2697       2708       2707  
      2576       2577       2588       2587       2697       2698       2709       2708  
      2577       2578       2589       2588       2698       2699       2710       2709  
      2578       2579       2590       2589       2699       2700       2711       2710  
      2579       2580       2591       2590       2700       2701       2712       2711  
      2580       2581       2592       2591       2701       2702       2713       2712  
      2581       2582       2593       2592       2702       2703       2714       2713  
      2582       2583       2594       2593       2703       2704       2715       2714  
      2583       2584       2595       2594       2704       2705       2716       2715  
      2584       2585       2596       2595       2705       2706       2717       2716  
      2586       2587       2598       2597       2707       2708       2719       2718  
      2587       2588       2599       2598       2708       2709       2720       2719  
      2588       2589       2600       2599       2709       2710       2721       2720  
      2589       2590       2601       2600       2710       2711       2722       2721  
      2590       2591       2602       2601       2711       2712       2723       2722  
      2591       2592       2603       2602       2712       2713       2724       2723  
      2592       2593       2604       2603       2713       2714       2725       2724  
      2593       2594       2605       2604       2714       2715       2726       2725  
      2594       2595       2606       2605       2715       2716       2727       2726  
      2595       2596       2607       2606       2716       2717       2728       2727  
      2597       2598       2609       2608       2718       2719       2730       2729  
      2598       2599       2610       2609       2719       2720       2731       2730  
      2599       2600       2611       2610       2720       2721       2732       2731  
      2600       2601       2612       2611       2721       2722       2733       2732  
      2601       2602       2613       2612       2722       2723       2734       2733  
      2602       2603       2614       2613       2723       2724       2735       2734  
      2603       2604       2615       2614       2724       2725       2736       2735  
      2604       2605       2616       2615       2725       2726       2737       2736  
      2605       2606       2617       2616       2726       2727       2738       2737  
      2606       2607       2618       2617       2727       2728       2739       2738  
      2608       2609       2620       2619       2729       2730       2741       2740  
      2609       2610       2621       2620       2730       2731       2742       2741  
      2610       2611       2622       2621       2731       2732       2743       2742  
      2611       2612       2623       2622       2732       2733       2744       2743  
      2612       2613       2624       2623       2733       2734       2745       2744  
      2613       2614       2625       2624       2734       2735       2746       2745  
      2614       2615       2626       2625       2735       2736       2747       2746  
      2615       2616       2627       2626       2736       2737       2748       2747  
      2616       2617       2628       2627       2737       2738       2749       2748  
      2617       2618       2629       2628       2738       2739       2750       2749  
      2619       2620       2631       2630       2740       2741       2752       2751  
      2620       2621       2632       2631       2741       2742       2753       2752  
      2621       2622       2633       2632       2742       2743       2754       2753  
      2622       2623       2634       2633       2743       2744       2755       2754  
      2623       2624       2635       2634       2744       2745       2756       2755  
      2624       2625       2636       2635       2745       2746       2757       2756  
      2625       2626       2637       2636       2746       2747       2758       2757  
      2626       2627       2638       2637       2747       2748       2759       2758  
      2627       2628       2639       2638       2748       2749       2760       2759  
      2628       2629       2640       2639       2749       2750       2761       2760  
      2630       2631       2642       2641       2751       2752       2763       2762  
      2631       2632       2643       2642       2752       2753       2764       2763  
      2632       2633       2644       2643       2753       2754       2765       2764  
      2633       2634       2645       2644       2754       2755       2766       2765  
      2634       2635       2646       2645       2755       2756       2767       2766  
      2635       2636       2647       2646       2756       2757       2768       2767  
      2636       2637       2648       2647       2757       2758       2769       2768  
      2637       2638       2649       2648       2758       2759       2770       2769  
      2638       2639       2650       2649       2759       2760       2771       2770  
      2639       2640       2651       2650       2760       2761       2772       2771  
      2641       2642       2653       2652       2762       2763       2774       2773  
      2642       2643       2654       2653       2763       2764       2775       2774  
      2643       2644       2655       2654       2764       2765       2776       2775  
      2644       2645       2656       2655       2765       2766       2777       2776  
      2645       2646       2657       2656       2766       2767       2778       2777  
      2646       2647       2658       2657       2767       2768       2779       2778  
      2647       2648       2659       2658       2768       2769       2780       2779  
      2648       2649       2660       2659       2769       2770       2781       2780  
      2649       2650       2661       2660       2770       2771       2782       2781  
      2650       2651       2662       2661       2771       2772       2783       2782  
      2663       2664       2675       2674       2784       2785       2796       2795  
      2664       2665       2676       2675       2785       2786       2797       2796  
      2665       2666       2677       2676       2786       2787       2798       2797  
      2666       2667       2678       2677       2787       2788       2799       2798  
      2667       2668       2679       2678       2788       2789       2800       2799  
      2668       2669       2680       2679       2789       2790       2801       2800  
      2669       2670       2681       2680       2790       2791       2802       2801  
      2670       2671       2682       2681       2791       2792       2803       2802  
      2671       2672       2683       2682       2792       2793       2804       2803  
      2672       2673       2684       2683       2793       2794       2805       2804  
      2674       2675       2686       2685       2795       2796       2807       2806  
      2675       2676       2687       2686       2796       2797       2808       2807  
      2676       2677       2688       2687       2797       2798       2809       2808  
      2677       2678       2689       2688       2798       2799       2810       2809  
      2678       2679       2690       2689       2799       2800       2811       2810  
      2679       2680       2691       2690       2800       2801       2812       2811  
      2680       2681       2692       2691       2801       2802       2813       2812  
      2681       2682       2693       2692       2802       2803       2814       2813  
      2682       2683       2694       2693       2803       2804       2815       2814  
      2683       2684       2695       2694       2804       2805       2816       2815  
      2685       2686       2697       2696       2806       2807       2818       2817  
      2686       2687       2698       2697       2807       2808       2819       2818  
      2687       2688       2699       2698       2808       2809       2820       2819  
      2688       2689       2700       2699       2809       2810       2821       2820  
      2689       2690       2701       2700       2810       2811       2822       2821  
      2690       2691       2702       2701       2811       2812       2823       2822  
      2691       2692       2703       2702       2812       2813       2824       2823  
      2692       2693       2704       2703       2813       2814       2825       2824  
      2693       2694       2705       2704       2814       2815       2826       2825  
      2694       2695       2706       2705       2815       2816       2827       2826  
      2696       2697       2708       2707       2817       2818       2829       2828  
      2697       2698       2709       2708       2818       2819       2830       2829  
      2698       2699       2710       2709       2819       2820       2831       2830  
      2699       2700       2711       2710       2820       2821       2832       2831  
      2700       2701       2712       2711       2821       2822       2833       2832  
      2701       2702       2713       2712       2822       2823       2834       2833  
      2702       2703       2714       2713       2823       2824       2835       2834  
      2703       2704       2715       2714       2824       2825       2836       2835  
      2704       2705       2716       2715       2825       2826       2837       2836  
      2705       2706       2717       2716       2826       2827       2838       2837  
      2707       2708       2719       2718       2828       2829       2840       2839  
      2708       2709       2720       2719       2829       2830       2841       2840  
      2709       2710       2721       2720       2830       2831       2842       2841  
      2710       2711       2722       2721       2831       2832       2843       2842  
      2711       2712       2723       2722       2832       2833       2844       2843  
      2712       2713       2724       2723       2833       2834       2845       2844  
      2713       2714       2725       2724       2834       2835       2846       2845  
      2714       2715       2726       2725       2835       2836       2847       2846  
      2715       2716       2727       2726       2836       2837       2848       2847  
      2716       2717       2728       2727       2837       2838       2849       2848  
      2718       2719       2730       2729       2839       2840       2851       2850  
      2719       2720       2731       2730       2840       2841       2852       2851  
      2720       2721       2732       2731       2841       2842       2853       2852  
      2721       2722       2733       2732       2842       2843       2854       2853  
      2722       2723       2734       2733       2843       2844       2855       2854  
      2723       2724       2735       2734       2844       2845       2856       2855  
      2724       2725       2736       2735       2845       2846       2857       2856  
      2725       2726       2737       2736       2846       2847       2858       2857  
      2726       2727       2738       2737       2847       2848       2859       2858  
      2727       2728       2739       2738       2848       2849       2860       2859  
      2729       2730       2741       2740       2850       2851       2862       2861  
      2730       2731       2742       2741       2851       2852       2863       2862  
      2731       2732       2743       2742       2852       2853       2864       2863  
      2732       2733       2744       2743       2853       2854       2865       2864  
      2733       2734       2745       2744       2854       2855       2866       2865  
      2734       2735       2746       2745       2855       2856       2867       2866  
      2735       2736       2747       2746       2856       2857       2868       2867  
      2736       2737       2748       2747       2857       2858       2869       2868  
      2737       2738       2749       2748       2858       2859       2870       2869  
      2738       2739       2750       2749       2859       2860       2871       2870  
      2740       2741       2752       2751       2861       2862       2873       2872  
      2741       2742       2753       2752       2862       2863       2874       2873  
      2742       2743       2754       2753       2863       2864       2875       2874  
      2743       2744       2755       2754       2864       2865       2876       2875  
      2744       2745       2756       2755       2865       2866       2877       2876  
      2745       2746       2757       2756       2866       2867       2878       2877  
      2746       2747       2758       2757       2867       2868       2879       2878  
      2747       2748       2759       2758       2868       2869       2880       2879  
      2748       2749       2760       2759       2869       2870       2881       2880  
      2749       2750       2761       2760       2870       2871       2882       2881  
      2751       2752       2763       2762       2872       2873       2884       2883  
      2752       2753       2764       2763       2873       2874       2885       2884  
      2753       2754       2765       2764       2874       2875       2886       2885  
      2754       2755       2766       2765       2875       2876       2887       2886  
      2755       2756       2767       2766       2876       2877       2888       2887  
      2756       2757       2768       2767       2877       2878       2889       2888  
      2757       2758       2769       2768       2878       2879       2890       2889  
      2758       2759       2770       2769       2879       2880       2891       2890  
      2759       2760       2771       2770       2880       2881       2892       2891  
      2760       2761       2772       2771       2881       2882       2893       2892  
      2762       2763       2774       2773       2883       2884       2895       2894  
      2763       2764       2775       2774       2884       2885       2896       2895  
      2764       2765       2776       2775       2885       2886       2897       2896  
      2765       2766       2777       2776       2886       2887       2898       2897  
      2766       2767       2778       2777       2887       2888       2899       2898  
      2767       2768       2779       2778       2888       2889       2900       2899  
      2768       2769       2780       2779       2889       2890       2901       2900  
      2769       2770       2781       2780       2890       2891       2902       2901  
      2770       2771       2782       2781       2891       2892       2903       2902  
      2771       2772       2783       2782       2892       2893       2904       2903  
      2784       2785       2796       2795       2905       2906       2917       2916  
      2785       2786       2797       2796       2906       2907       2918       2917  
      2786       2787       2798       2797       2907       2908       2919       2918  
      2787       2788       2799       2798       2908       2909       2920       2919  
      2788       2789       2800       2799       2909       2910       2921       2920  
      2789       2790       2801       2800       2910       2911       2922       2921  
      2790       2791       2802       2801       2911       2912       2923       2922  
      2791       2792       2803       2802       2912       2913       2924       2923  
      2792       2793       2804       2803       2913       2914       2925       2924  
      2793       2794       2805       2804       2914       2915       2926       2925  
      2795       2796       2807       2806       2916       2917       2928       2927  
      2796       2797       2808       2807       2917       2918       2929       2928  
      2797       2798       2809       2808       2918       2919       2930       2929  
      2798       2799       2810       2809       2919       2920       2931       2930  
      2799       2800       2811       2810       2920       2921       2932       2931  
      2800       2801       2812       2811       2921       2922       2933       2932  
      2801       2802       2813       2812       2922       2923       2934       2933  
      2802       2803       2814       2813       2923       2924       2935       2934  
      2803       2804       2815       2814       2924       2925       2936       2935  
      2804       2805       2816       2815       2925       2926       2937       2936  
      2806       2807       2818       2817       2927       2928       2939       2938  
      2807       2808       2819       2818       2928       2929       2940       2939  
      2808       2809       2820       2819       2929       2930       2941       2940  
      2809       2810       2821       2820       2930       2931       2942       2941  
      2810       2811       2822       2821       2931       2932       2943       2942  
      2811       2812       2823       2822       2932       2933       2944       2943  
      2812       2813       2824       2823       2933       2934       2945       2944  
      2813       2814       2825       2824       2934       2935       2946       2945  
      2814       2815       2826       2825       2935       2936       2947       2946  
      2815       2816       2827       2826       2936       2937       2948       2947  
      2817       2818       2829       2828       2938       2939       2950       2949  
      2818       2819       2830       2829       2939       2940       2951       2950  
      2819       2820       2831       2830       2940       2941       2952       2951  
      2820       2821       2832       2831       2941       2942       2953       2952  
      2821       2822       2833       2832       2942       2943       2954       2953  
      2822       2823       2834       2833       2943       2944       2955       2954  
      2823       2824       2835       2834       2944       2945       2956       2955  
      2824       2825       2836       2835       2945       2946       2957       2956  
      2825       2826       2837       2836       2946       2947       2958       2957  
      2826       2827       2838       2837       2947       2948       2959       2958  
      2828       2829       2840       2839       2949       2950       2961       2960  
      2829       2830       2841       2840       2950       2951       2962       2961  
      2830       2831       2842       2841       2951       2952       2963       2962  
      2831       2832       2843       2842       2952       2953       2964       2963  
      2832       2833       2844       2843       2953       2954       2965       2964  
      2833       2834       2845       2844       2954       2955       2966       2965  
      2834       2835       2846       2845       2955       2956       2967       2966  
      2835       2836       2847       2846       2956       2957       2968       2967  
      2836       2837       2848       2847       2957       2958       2969       2968  
      2837       2838       2849       2848       2958       2959       2970       2969  
      2839       2840       2851       2850       2960       2961       2972       2971  
      2840       2841       2852       2851       2961       2962       2973       2972  
      2841       2842       2853       2852       2962       2963       2974       2973  
      2842       2843       2854       2853       2963       2964       2975       2974  
      2843       2844       2855       2854       2964       2965       2976       2975  
      2844       2845       2856       2855       2965       2966       2977       2976  
      2845       2846       2857       2856       2966       2967       2978       2977  
      2846       2847       2858       2857       2967       2968       2979       2978  
      2847       2848       2859       2858       2968       2969       2980       2979  
      2848       2849       2860       2859       2969       2970       2981       2980  
      2850       2851       2862       2861       2971       2972       2983       2982  
      2851       2852       2863       2862       2972       2973       2984       2983  
      2852       2853       2864       2863       2973       2974       2985       2984  
      2853       2854       2865       2864       2974       2975       2986       2985  
      2854       2855       2866       2865       2975       2976       2987       2986  
      2855       2856       2867       2866       2976       2977       2988       2987  
      2856       2857       2868       2867       2977       2978       2989       2988  
      2857       2858       2869       2868       2978       2979       2990       2989  
      2858       2859       2870       2869       2979       2980       2991       2990  
      2859       2860       2871       2870       2980       2981       2992       2991  
      2861       2862       2873       2872       2982       2983       2994       2993  
      2862       2863       2874       2873       2983       2984       2995       2994  
      2863       2864       2875       2874       2984       2985       2996       2995  
      2864       2865       2876       2875       2985       2986       2997       2996  
      2865       2866       2877       2876       2986       2987       2998       2997  
      2866       2867       2878       2877       2987       2988       2999       2998  
      2867       2868       2879       2878       2988       2989       3000       2999  
      2868       2869       2880       2879       2989       2990       3001       3000  
      2869       2870       2881       2880       2990       2991       3002       3001  
      2870       2871       2882       2881       2991       2992       3003       3002  
      2872       2873       2884       2883       2993       2994       3005       3004  
      2873       2874       2885       2884       2994       2995       3006       3005  
      2874       2875       2886       2885       2995       2996       3007       3006  
      2875       2876       2887       2886       2996       2997       3008       3007  
      2876       2877       2888       2887       2997       2998       3009       3008  
      2877       2878       2889       2888       2998       2999       3010       3009  
      2878       2879       2890       2889       2999       3000       3011       3010  
      2879       2880       2891       2890       3000       3001       3012       3011  
      2880       2881       2892       2891       3001       3002       3013       3012  
      2881       2882       2893       2892       3002       3003       3014       3013  
      2883       2884       2895       2894       3004       3005       3016       3015  
      2884       2885       2896       2895       3005       3006       3017       3016  
      2885       2886       2897       2896       3006       3007       3018       3017  
      2886       2887       2898       2897       3007       3008       3019       3018  
      2887       2888       2899       2898       3008       3009       3020       3019  
      2888       2889       2900       2899       3009       3010       3021       3020  
      2889       2890       2901       2900       3010       3011       3022       3021  
      2890       2891       2902       2901       3011       3012       3023       3022  
      2891       2892       2903       2902       3012       3013       3024       3023  
      2892       2893       2904       2903       3013       3014       3025       3024  
      2905       2906       2917       2916       3026       3027       3038       3037  
      2906       2907       2918       2917       3027       3028       3039       3038  
      2907       2908       2919       2918       3028       3029       3040       3039  
      2908       2909       2920       2919       3029       3030       3041       3040  
      2909       2910       2921       2920       3030       3031       3042       3041  
      2910       2911       2922       2921       3031       3032       3043       3042  
      2911       2912       2923       2922       3032       3033       3044       3043  
      2912       2913       2924       2923       3033       3034       3045       3044  
      2913       2914       2925       2924       3034       3035       3046       3045  
      2914       2915       2926       2925       3035       3036       3047       3046  
      2916       2917       2928       2927       3037       3038       3049       3048  
      2917       2918       2929       2928       3038       3039       3050       3049  
      2918       2919       2930       2929       3039       3040       3051       3050  
      2919       2920       2931       2930       3040       3041       3052       3051  
      2920       2921       2932       2931       3041       3042       3053       3052  
      2921       2922       2933       2932       3042       3043       3054       3053  
      2922       2923       2934       2933       3043       3044       3055       3054  
      2923       2924       2935       2934       3044       3045       3056       3055  
      2924       2925       2936       2935       3045       3046       3057       3056  
      2925       2926       2937       2936       3046       3047       3058       3057  
      2927       2928       2939       2938       3048       3049       3060       3059  
      2928       2929       2940       2939       3049       3050       3061       3060  
      2929       2930       2941       2940       3050       3051       3062       3061  
      2930       2931       2942       2941       3051       3052       3063       3062  
      2931       2932       2943       2942       3052       3053       3064       3063  
      2932       2933       2944       2943       3053       3054       3065       3064  
      2933       2934       2945       2944       3054       3055       3066       3065  
      2934       2935       2946       2945       3055       3056       3067       3066  
      2935       2936       2947       2946       3056       3057       3068       3067  
      2936       2937       2948       2947       3057       3058       3069       3068  
      2938       2939       2950       2949       3059       3060       3071       3070  
      2939       2940       2951       2950       3060       3061       3072       3071  
      2940       2941       2952       2951       3061       3062       3073       3072  
      2941       2942       2953       2952       3062       3063       3074       3073  
      2942       2943       2954       2953       3063       3064       3075       3074  
      2943       2944       2955       2954       3064       3065       3076       3075  
      2944       2945       2956       2955       3065       3066       3077       3076  
      2945       2946       2957       2956       3066       3067       3078       3077  
      2946       2947       2958       2957       3067       3068       3079       3078  
      2947       2948       2959       2958       3068       3069       3080       3079  
      2949       2950       2961       2960       3070       3071       3082       3081  
      2950       2951       2962       2961       3071       3072       3083       3082  
      2951       2952       2963       2962       3072       3073       3084       3083  
      2952       2953       2964       2963       3073       3074       3085       3084  
      2953       2954       2965       2964       3074       3075       3086       3085  
      2954       2955       2966       2965       3075       3076       3087       3086  
      2955       2956       2967       2966       3076       3077       3088       3087  
      2956       2957       2968       2967       3077       3078       3089       3088  
      2957       2958       2969       2968       3078       3079       3090       3089  
      2958       2959       2970       2969       3079       3080       3091       3090  
      2960       2961       2972       2971       3081       3082       3093       3092  
      2961       2962       2973       2972       3082       3083       3094       3093  
      2962       2963       2974       2973       3083       3084       3095       3094  
      2963       2964       2975       2974       3084       3085       3096       3095  
      2964       2965       2976       2975       3085       3086       3097       3096  
      2965       2966       2977       2976       3086       3087       3098       3097  
      2966       2967       2978       2977       3087       3088       3099       3098  
      2967       2968       2979       2978       3088       3089       3100       3099  
      2968       2969       2980       2979       3089       3090       3101       3100  
      2969       2970       2981       2980       3090       3091       3102       3101  
      2971       2972       2983       2982       3092       3093       3104       3103  
      2972       2973       2984       2983       3093       3094       3105       3104  
      2973       2974       2985       2984       3094       3095       3106       3105  
      2974       2975       2986       2985       3095       3096       3107       3106  
      2975       2976       2987       2986       3096       3097       3108       3107  
      2976       2977       2988       2987       3097       3098       3109       3108  
      2977       2978       2989       2988       3098       3099       3110       3109  
      2978       2979       2990       2989       3099       3100       3111       3110  
      2979       2980       2991       2990       3100       3101       3112       3111  
      2980       2981       2992       2991       3101       3102       3113       3112  
      2982       2983       2994       2993       3103       3104       3115       3114  
      2983       2984       2995       2994       3104       3105       3116       3115  
      2984       2985       2996       2995       3105       3106       3117       3116  
      2985       2986       2997       2996       3106       3107       3118       3117  
      2986       2987       2998       2997       3107       3108       3119       3118  
      2987       2988       2999       2998       3108       3109       3120       3119  
      2988       2989       3000       2999       3109       3110       3121       3120  
      2989       2990       3001       3000       3110       3111       3122       3121  
      2990       2991       3002       3001       3111       3112       3123       3122  
      2991       2992       3003       3002       3112       3113       3124       3123  
      2993       2994       3005       3004       3114       3115       3126       3125  
      2994       2995       3006       3005       3115       3116       3127       3126  
      2995       2996       3007       3006       3116       3117       3128       3127  
      2996       2997       3008       3007       3117       3118       3129       3128  
      2997       2998       3009       3008       3118       3119       3130       3129  
      2998       2999       3010       3009       3119       3120       3131       3130  
      2999       3000       3011       3010       3120       3121       3132       3131  
      3000       3001       3012       3011       3121       3122       3133       3132  
      3001       3002       3013       3012       3122       3123       3134       3133  
      3002       3003       3014       3013       3123       3124       3135       3134  
      3004       3005       3016       3015       3125       3126       3137       3136  
      3005       3006       3017       3016       3126       3127       3138       3137  
      3006       3007       3018       3017       3127       3128       3139       3138  
      3007       3008       3019       3018       3128       3129       3140       3139  
      3008       3009       3020       3019       3129       3130       3141       3140  
      3009       3010       3021       3020       3130       3131       3142       3141  
      3010       3011       3022       3021       3131       3132       3143       3142  
      3011       3012       3023       3022       3132       3133       3144       3143  
      3012       3013       3024       3023       3133       3134       3145       3144  
      3013       3014       3025       3024       3134       3135       3146       3145  
      3026       3027       3038       3037       3147       3148       3159       3158  
      3027       3028       3039       3038       3148       3149       3160       3159  
      3028       3029       3040       3039       3149       3150       3161       3160  
      3029       3030       3041       3040       3150       3151       3162       3161  
      3030       3031       3042       3041       3151       3152       3163       3162  
      3031       3032       3043       3042       3152       3153       3164       3163  
      3032       3033       3044       3043       3153       3154       3165       3164  
      3033       3034       3045       3044       3154       3155       3166       3165  
      3034       3035       3046       3045       3155       3156       3167       3166  
      3035       3036       3047       3046       3156       3157       3168       3167  
      3037       3038       3049       3048       3158       3159       3170       3169  
      3038       3039       3050       3049       3159       3160       3171       3170  
      3039       3040       3051       3050       3160       3161       3172       3171  
      3040       3041       3052       3051       3161       3162       3173       3172  
      3041       3042       3053       3052       3162       3163       3174       3173  
      3042       3043       3054       3053       3163       3164       3175       3174  
      3043       3044       3055       3054       3164       3165       3176       3175  
      3044       3045       3056       3055       3165       3166       3177       3176  
      3045       3046       3057       3056       3166       3167       3178       3177  
      3046       3047       3058       3057       3167       3168       3179       3178  
      3048       3049       3060       3059       3169       3170       3181       3180  
      3049       3050       3061       3060       3170       3171       3182       3181  
      3050       3051       3062       3061       3171       3172       3183       3182  
      3051       3052       3063       3062       3172       3173       3184       3183  
      3052       3053       3064       3063       3173       3174       3185       3184  
      3053       3054       3065       3064       3174       3175       3186       3185  
      3054       3055       3066       3065       3175       3176       3187       3186  
      3055       3056       3067       3066       3176       3177       3188       3187  
      3056       3057       3068       3067       3177       3178       3189       3188  
      3057       3058       3069       3068       3178       3179       3190       3189  
      3059       3060       3071       3070       3180       3181       3192       3191  
      3060       3061       3072       3071       3181       3182       3193       3192  
      3061       3062       3073       3072       3182       3183       3194       3193  
      3062       3063       3074       3073       3183       3184       3195       3194  
      3063       3064       3075       3074       3184       3185       3196       3195  
      3064       3065       3076       3075       3185       3186       3197       3196  
      3065       3066       3077       3076       3186       3187       3198       3197  
      3066       3067       3078       3077       3187       3188       3199       3198  
      3067       3068       3079       3078       3188       3189       3200       3199  
      3068       3069       3080       3079       3189       3190       3201       3200  
      3070       3071       3082       3081       3191       3192       3203       3202  
      3071       3072       3083       3082       3192       3193       3204       3203  
      3072       3073       3084       3083       3193       3194       3205       3204  
      3073       3074       3085       3084       3194       3195       3206       3205  
      3074       3075       3086       3085       3195       3196       3207       3206  
      3075       3076       3087       3086       3196       3197       3208       3207  
      3076       3077       3088       3087       3197       3198       3209       3208  
      3077       3078       3089       3088       3198       3199       3210       3209  
      3078       3079       3090       3089       3199       3200       3211       3210  
      3079       3080       3091       3090       3200       3201       3212       3211  
      3081       3082       3093       3092       3202       3203       3214       3213  
      3082       3083       3094       3093       3203       3204       3215       3214  
      3083       3084       3095       3094       3204       3205       3216       3215  
      3084       3085       3096       3095       3205       3206       3217       3216  
      3085       3086       3097       3096       3206       3207       3218       3217  
      3086       3087       3098       3097       3207       3208       3219       3218  
      3087       3088       3099       3098       3208       3209       3220       3219  
      3088       3089       3100       3099       3209       3210       3221       3220  
      3089       3090       3101       3100       3210       3211       3222       3221  
      3090       3091       3102       3101       3211       3212       3223       3222  
      3092       3093       3104       3103       3213       3214       3225       3224  
      3093       3094       3105       3104       3214       3215       3226       3225  
      3094       3095       3106       3105       3215       3216       3227       3226  
      3095       3096       3107       3106       3216       3217       3228       3227  
      3096       3097       3108       3107       3217       3218       3229       3228  
      3097       3098       3109       3108       3218       3219       3230       3229  
      3098       3099       3110       3109       3219       3220       3231       3230  
      3099       3100       3111       3110       3220       3221       3232       3231  
      3100       3101       3112       3111       3221       3222       3233       3232  
      3101       3102       3113       3112       3222       3223       3234       3233  
      3103       3104       3115       3114       3224       3225       3236       3235  
      3104       3105       3116       3115       3225       3226       3237       3236  
      3105       3106       3117       3116       3226       3227       3238       3237  
      3106       3107       3118       3117       3227       3228       3239       3238  
      3107       3108       3119       3118       3228       3229       3240       3239  
      3108       3109       3120       3119       3229       3230       3241       3240  
      3109       3110       3121       3120       3230       3231       3242       3241  
      3110       3111       3122       3121       3231       3232       3243       3242  
      3111       3112       3123       3122       3232       3233       3244       3243  
      3112       3113       3124       3123       3233       3234       3245       3244  
      3114       3115       3126       3125       3235       3236       3247       3246  
      3115       3116       3127       3126       3236       3237       3248       3247  
      3116       3117       3128       3127       3237       3238       3249       3248  
      3117       3118       3129       3128       3238       3239       3250       3249  
      3118       3119       3130       3129       3239       3240       3251       3250  
      3119       3120       3131       3130       3240       3241       3252       3251  
      3120       3121       3132       3131       3241       3242       3253       3252  
      3121       3122       3133       3132       3242       3243       3254       3253  
      3122       3123       3134       3133       3243       3244       3255       3254  
      3123       3124       3135       3134       3244       3245       3256       3255  
      3125       3126       3137       3136       3246       3247       3258       3257  
      3126       3127       3138       3137       3247       3248       3259       3258  
      3127       3128       3139       3138       3248       3249       3260       3259  
      3128       3129       3140       3139       3249       3250       3261       3260  
      3129       3130       3141       3140       3250       3251       3262       3261  
      3130       3131       3142       3141       3251       3252       3263       3262  
      3131       3132       3143       3142       3252       3253       3264       3263  
      3132       3133       3144       3143       3253       3254       3265       3264  
      3133       3134       3145       3144       3254       3255       3266       3265  
      3134       3135       3146       3145       3255       3256       3267       3266  
      3147       3148       3159       3158       3268       3269       3280       3279  
      3148       3149       3160       3159       3269       3270       3281       3280  
      3149       3150       3161       3160       3270       3271       3282       3281  
      3150       3151       3162       3161       3271       3272       3283       3282  
      3151       3152       3163       3162       3272       3273       3284       3283  
      3152       3153       3164       3163       3273       3274       3285       3284  
      3153       3154       3165       3164       3274       3275       3286       3285  
      3154       3155       3166       3165       3275       3276       3287       3286  
      3155       3156       3167       3166       3276       3277       3288       3287  
      3156       3157       3168       3167       3277       3278       3289       3288  
      3158       3159       3170       3169       3279       3280       3291       3290  
      3159       3160       3171       3170       3280       3281       3292       3291  
      3160       3161       3172       3171       3281       3282       3293       3292  
      3161       3162       3173       3172       3282       3283       3294       3293  
      3162       3163       3174       3173       3283       3284       3295       3294  
      3163       3164       3175       3174       3284       3285       3296       3295  
      3164       3165       3176       3175       3285       3286       3297       3296  
      3165       3166       3177       3176       3286       3287       3298       3297  
      3166       3167       3178       3177       3287       3288       3299       3298  
      3167       3168       3179       3178       3288       3289       3300       3299  
      3169       3170       3181       3180       3290       3291       3302       3301  
      3170       3171       3182       3181       3291       3292       3303       3302  
      3171       3172       3183       3182       3292       3293       3304       3303  
      3172       3173       3184       3183       3293       3294       3305       3304  
      3173       3174       3185       3184       3294       3295       3306       3305  
      3174       3175       3186       3185       3295       3296       3307       3306  
      3175       3176       3187       3186       3296       3297       3308       3307  
      3176       3177       3188       3187       3297       3298       3309       3308  
      3177       3178       3189       3188       3298       3299       3310       3309  
      3178       3179       3190       3189       3299       3300       3311       3310  
      3180       3181       3192       3191       3301       3302       3313       3312  
      3181       3182       3193       3192       3302       3303       3314       3313  
      3182       3183       3194       3193       3303       3304       3315       3314  
      3183       3184       3195       3194       3304       3305       3316       3315  
      3184       3185       3196       3195       3305       3306       3317       3316  
      3185       3186       3197       3196       3306       3307       3318       3317  
      3186       3187       3198       3197       3307       3308       3319       3318  
      3187       3188       3199       3198       3308       3309       3320       3319  
      3188       3189       3200       3199       3309       3310       3321       3320  
      3189       3190       3201       3200       3310       3311       3322       3321  
      3191       3192       3203       3202       3312       3313       3324       3323  
      3192       3193       3204       3203       3313       3314       3325       3324  
      3193       3194       3205       3204       3314       3315       3326       3325  
      3194       3195       3206       3205       3315       3316       3327       3326  
      3195       3196       3207       3206       3316       3317       3328       3327  
      3196       3197       3208       3207       3317       3318       3329       3328  
      3197       3198       3209       3208       3318       3319       3330       3329  
      3198       3199       3210       3209       3319       3320       3331       3330  
      3199       3200       3211       3210       3320       3321       3332       3331  
      3200       3201       3212       3211       3321       3322       3333       3332  
      3202       3203       3214       3213       3323       3324       3335       3334  
      3203       3204       3215       3214       3324       3325       3336       3335  
      3204       3205       3216       3215       3325       3326       3337       3336  
      3205       3206       3217       3216       3326       3327       3338       3337  
      3206       3207       3218       3217       3327       3328       3339       3338  
      3207       3208       3219       3218       3328       3329       3340       3339  
      3208       3209       3220       3219       3329       3330       3341       3340  
      3209       3210       3221       3220       3330       3331       3342       3341  
      3210       3211       3222       3221       3331       3332       3343       3342  
      3211       3212       3223       3222       3332       3333       3344       3343  
      3213       3214       3225       3224       3334       3335       3346       3345  
      3214       3215       3226       3225       3335       3336       3347       3346  
      3215       3216       3227       3226       3336       3337       3348       3347  
      3216       3217       3228       3227       3337       3338       3349       3348  
      3217       3218       3229       3228       3338       3339       3350       3349  
      3218       3219       3230       3229       3339       3340       3351       3350  
      3219       3220       3231       3230       3340       3341       3352       3351  
      3220       3221       3232       3231       3341       3342       3353       3352  
      3221       3222       3233       3232       3342       3343       3354       3353  
      3222       3223       3234       3233       3343       3344       3355       3354  
      3224       3225       3236       3235       3345       3346       3357       3356  
      3225       3226       3237       3236       3346       3347       3358       3357  
      3226       3227       3238       3237       3347       3348       3359       3358  
      3227       3228       3239       3238       3348       3349       3360       3359  
      3228       3229       3240       3239       3349       3350       3361       3360  
      3229       3230       3241       3240       3350       3351       3362       3361  
      3230       3231       3242       3241       3351       3352       3363       3362  
      3231       3232       3243       3242       3352       3353       3364       3363  
      3232       3233       3244       3243       3353       3354       3365       3364  
      3233       3234       3245       3244       3354       3355       3366       3365  
      3235       3236       3247       3246       3356       3357       3368       3367  
      3236       3237       3248       3247       3357       3358       3369       3368  
      3237       3238       3249       3248       3358       3359       3370       3369  
      3238       3239       3250       3249       3359       3360       3371       3370  
      3239       3240       3251       3250       3360       3361       3372       3371  
      3240       3241       3252       3251       3361       3362       3373       3372  
      3241       3242       3253       3252       3362       3363       3374       3373  
      3242       3243       3254       3253       3363       3364       3375       3374  
      3243       3244       3255       3254       3364       3365       3376       3375  
      3244       3245       3256       3255       3365       3366       3377       3376  
      3246       3247       3258       3257       3367       3368       3379       3378  
      3247       3248       3259       3258       3368       3369       3380       3379  
      3248       3249       3260       3259       3369       3370       3381       3380  
      3249       3250       3261       3260       3370       3371       3382       3381  
      3250       3251       3262       3261       3371       3372       3383       3382  
      3251       3252       3263       3262       3372       3373       3384       3383  
      3252       3253       3264       3263       3373       3374       3385       3384  
      3253       3254       3265       3264       3374       3375       3386       3385  
      3254       3255       3266       3265       3375       3376       3387       3386  
      3255       3256       3267       3266       3376       3377       3388       3387  
      3268       3269       3280       3279       3389       3390       3401       3400  
      3269       3270       3281       3280       3390       3391       3402       3401  
      3270       3271       3282       3281       3391       3392       3403       3402  
      3271       3272       3283       3282       3392       3393       3404       3403  
      3272       3273       3284       3283       3393       3394       3405       3404  
      3273       3274       3285       3284       3394       3395       3406       3405  
      3274       3275       3286       3285       3395       3396       3407       3406  
      3275       3276       3287       3286       3396       3397       3408       3407  
      3276       3277       3288       3287       3397       3398       3409       3408  
      3277       3278       3289       3288       3398       3399       3410       3409  
      3279       3280       3291       3290       3400       3401       3412       3411  
      3280       3281       3292       3291       3401       3402       3413       3412  
      3281       3282       3293       3292       3402       3403       3414       3413  
      3282       3283       3294       3293       3403       3404       3415       3414  
      3283       3284       3295       3294       3404       3405       3416       3415  
      3284       3285       3296       3295       3405       3406       3417       3416  
      3285       3286       3297       3296       3406       3407       3418       3417  
      3286       3287       3298       3297       3407       3408       3419       3418  
      3287       3288       3299       3298       3408       3409       3420       3419  
      3288       3289       3300       3299       3409       3410       3421       3420  
      3290       3291       3302       3301       3411       3412       3423       3422  
      3291       3292       3303       3302       3412       3413       3424       3423  
      3292       3293       3304       3303       3413       3414       3425       3424  
      3293       3294       3305       3304       3414       3415       3426       3425  
      3294       3295       3306       3305       3415       3416       3427       3426  
      3295       3296       3307       3306       3416       3417       3428       3427  
      3296       3297       3308       3307       3417       3418       3429       3428  
      3297       3298       3309       3308       3418       3419       3430       3429  
      3298       3299       3310       3309       3419       3420       3431       3430  
      3299       3300       3311       3310       3420       3421       3432       3431  
      3301       3302       3313       3312       3422       3423       3434       3433  
      3302       3303       3314       3313       3423       3424       3435       3434  
      3303       3304       3315       3314       3424       3425       3436       3435  
      3304       3305       3316       3315       3425       3426       3437       3436  
      3305       3306       3317       3316       3426       3427       3438       3437  
      3306       3307       3318       3317       3427       3428       3439       3438  
      3307       3308       3319       3318       3428       3429       3440       3439  
      3308       3309       3320       3319       3429       3430       3441       3440  
      3309       3310       3321       3320       3430       3431       3442       3441  
      3310       3311       3322       3321       3431       3432       3443       3442  
      3312       3313       3324       3323       3433       3434       3445       3444  
      3313       3314       3325       3324       3434       3435       3446       3445  
      3314       3315       3326       3325       3435       3436       3447       3446  
      3315       3316       3327       3326       3436       3437       3448       3447  
      3316       3317       3328       3327       3437       3438       3449       3448  
      3317       3318       3329       3328       3438       3439       3450       3449  
      3318       3319       3330       3329       3439       3440       3451       3450  
      3319       3320       3331       3330       3440       3441       3452       3451  
      3320       3321       3332       3331       3441       3442       3453       3452  
      3321       3322       3333       3332       3442       3443       3454       3453  
      3323       3324       3335       3334       3444       3445       3456       3455  
      3324       3325       3336       3335       3445       3446       3457       3456  
      3325       3326       3337       3336       3446       3447       3458       3457  
      3326       3327       3338       3337       3447       3448       3459       3458  
      3327       3328       3339       3338       3448       3449       3460       3459  
      3328       3329       3340       3339       3449       3450       3461       3460  
      3329       3330       3341       3340       3450       3451       3462       3461  
      3330       3331       3342       3341       3451       3452       3463       3462  
      3331       3332       3343       3342       3452       3453       3464       3463  
      3332       3333       3344       3343       3453       3454       3465       3464  
      3334       3335       3346       3345       3455       3456       3467       3466  
      3335       3336       3347       3346       3456       3457       3468       3467  
      3336       3337       3348       3347       3457       3458       3469       3468  
      3337       3338       3349       3348       3458       3459       3470       3469  
      3338       3339       3350       3349       3459       3460       3471       3470  
      3339       3340       3351       3350       3460       3461       3472       3471  
      3340       3341       3352       3351       3461       3462       3473       3472  
      3341       3342       3353       3352       3462       3463       3474       3473  
      3342       3343       3354       3353       3463       3464       3475       3474  
      3343       3344       3355       3354       3464       3465       3476       3475  
      3345       3346       3357       3356       3466       3467       3478       3477  
      3346       3347       3358       3357       3467       3468       3479       3478  
      3347       3348       3359       3358       3468       3469       3480       3479  
      3348       3349       3360       3359       3469       3470       3481       3480  
      3349       3350       3361       3360       3470       3471       3482       3481  
      3350       3351       3362       3361       3471       3472       3483       3482  
      3351       3352       3363       3362       3472       3473       3484       3483  
      3352       3353       3364       3363       3473       3474       3485       3484  
      3353       3354       3365       3364       3474       3475       3486       3485  
      3354       3355       3366       3365       3475       3476       3487       3486  
      3356       3357       3368       3367       3477       3478       3489       3488  
      3357       3358       3369       3368       3478       3479       3490       3489  
      3358       3359       3370       3369       3479       3480       3491       3490  
      3359       3360       3371       3370       3480       3481       3492       3491  
      3360       3361       3372       3371       3481       3482       3493       3492  
      3361       3362       3373       3372       3482       3483       3494       3493  
      3362       3363       3374       3373       3483       3484       3495       3494  
      3363       3364       3375       3374       3484       3485       3496       3495  
      3364       3365       3376       3375       3485       3486       3497       3496  
      3365       3366       3377       3376       3486       3487       3498       3497  
      3367       3368       3379       3378       3488       3489       3500       3499  
      3368       3369       3380       3379       3489       3490       3501       3500  
      3369       3370       3381       3380       3490       3491       3502       3501  
      3370       3371       3382       3381       3491       3492       3503       3502  
      3371       3372       3383       3382       3492       3493       3504       3503  
      3372       3373       3384       3383       3493       3494       3505       3504  
      3373       3374       3385       3384       3494       3495       3506       3505  
      3374       3375       3386       3385       3495       3496       3507       3506  
      3375       3376       3387       3386       3496       3497       3508       3507  
      3376       3377       3388       3387       3497       3498       3509       3508  
      3389       3390       3401       3400       3510       3511       3522       3521  
      3390       3391       3402       3401       3511       3512       3523       3522  
      3391       3392       3403       3402       3512       3513       3524       3523  
      3392       3393       3404       3403       3513       3514       3525       3524  
      3393       3394       3405       3404       3514       3515       3526       3525  
      3394       3395       3406       3405       3515       3516       3527       3526  
      3395       3396       3407       3406       3516       3517       3528       3527  
      3396       3397       3408       3407       3517       3518       3529       3528  
      3397       3398       3409       3408       3518       3519       3530       3529  
      3398       3399       3410       3409       3519       3520       3531       3530  
      3400       3401       3412       3411       3521       3522       3533       3532  
      3401       3402       3413       3412       3522       3523       3534       3533  
      3402       3403       3414       3413       3523       3524       3535       3534  
      3403       3404       3415       3414       3524       3525       3536       3535  
      3404       3405       3416       3415       3525       3526       3537       3536  
      3405       3406       3417       3416       3526       3527       3538       3537  
      3406       3407       3418       3417       3527       3528       3539       3538  
      3407       3408       3419       3418       3528       3529       3540       3539  
      3408       3409       3420       3419       3529       3530       3541       3540  
      3409       3410       3421       3420       3530       3531       3542       3541  
      3411       3412       3423       3422       3532       3533       3544       3543  
      3412       3413       3424       3423       3533       3534       3545       3544  
      3413       3414       3425       3424       3534       3535       3546       3545  
      3414       3415       3426       3425       3535       3536       3547       3546  
      3415       3416       3427       3426       3536       3537       3548       3547  
      3416       3417       3428       3427       3537       3538       3549       3548  
      3417       3418       3429       3428       3538       3539       3550       3549  
      3418       3419       3430       3429       3539       3540       3551       3550  
      3419       3420       3431       3430       3540       3541       3552       3551  
      3420       3421       3432       3431       3541       3542       3553       3552  
      3422       3423       3434       3433       3543       3544       3555       3554  
      3423       3424       3435       3434       3544       3545       3556       3555  
      3424       3425       3436       3435       3545       3546       3557       3556  
      3425       3426       3437       3436       3546       3547       3558       3557  
      3426       3427       3438       3437       3547       3548       3559       3558  
      3427       3428       3439       3438       3548       3549       3560       3559  
      3428       3429       3440       3439       3549       3550       3561       3560  
      3429       3430       3441       3440       3550       3551       3562       3561  
      3430       3431       3442       3441       3551       3552       3563       3562  
      3431       3432       3443       3442       3552       3553       3564       3563  
      3433       3434       3445       3444       3554       3555       3566       3565  
      3434       3435       3446       3445       3555       3556       3567       3566  
      3435       3436       3447       3446       3556       3557       3568       3567  
      3436       3437       3448       3447       3557       3558       3569       3568  
      3437       3438       3449       3448       3558       3559       3570       3569  
      3438       3439       3450       3449       3559       3560       3571       3570  
      3439       3440       3451       3450       3560       3561       3572       3571  
      3440       3441       3452       3451       3561       3562       3573       3572  
      3441       3442       3453       3452       3562       3563       3574       3573  
      3442       3443       3454       3453       3563       3564       3575       3574  
      3444       3445       3456       3455       3565       3566       3577       3576  
      3445       3446       3457       3456       3566       3567       3578       3577  
      3446       3447       3458       3457       3567       3568       3579       3578  
      3447       3448       3459       3458       3568       3569       3580       3579  
      3448       3449       3460       3459       3569       3570       3581       3580  
      3449       3450       3461       3460       3570       3571       3582       3581  
      3450       3451       3462       3461       3571       3572       3583       3582  
      3451       3452       3463       3462       3572       3573       3584       3583  
      3452       3453       3464       3463       3573       3574       3585       3584  
      3453       3454       3465       3464       3574       3575       3586       3585  
      3455       3456       3467       3466       3576       3577       3588       3587  
      3456       3457       3468       3467       3577       3578       3589       3588  
      3457       3458       3469       3468       3578       3579       3590       3589  
      3458       3459       3470       3469       3579       3580       3591       3590  
      3459       3460       3471       3470       3580       3581       3592       3591  
      3460       3461       3472       3471       3581       3582       3593       3592  
      3461       3462       3473       3472       3582       3583       3594       3593  
      3462       3463       3474       3473       3583       3584       3595       3594  
      3463       3464       3475       3474       3584       3585       3596       3595  
      3464       3465       3476       3475       3585       3586       3597       3596  
      3466       3467       3478       3477       3587       3588       3599       3598  
      3467       3468       3479       3478       3588       3589       3600       3599  
      3468       3469       3480       3479       3589       3590       3601       3600  
      3469       3470       3481       3480       3590       3591       3602       3601  
      3470       3471       3482       3481       3591       3592       3603       3602  
      3471       3472       3483       3482       3592       3593       3604       3603  
      3472       3473       3484       3483       3593       3594       3605       3604  
      3473       3474       3485       3484       3594       3595       3606       3605  
      3474       3475       3486       3485       3595       3596       3607       3606  
      3475       3476       3487       3486       3596       3597       3608       3607  
      3477       3478       3489       3488       3598       3599       3610       3609  
      3478       3479       3490       3489       3599       3600       3611       3610  
      3479       3480       3491       3490       3600       3601       3612       3611  
      3480       3481       3492       3491       3601       3602       3613       3612  
      3481       3482       3493       3492       3602       3603       3614       3613  
      3482       3483       3494       3493       3603       3604       3615       3614  
      3483       3484       3495       3494       3604       3605       3616       3615  
      3484       3485       3496       3495       3605       3606       3617       3616  
      3485       3486       3497       3496       3606       3607       3618       3617  
      3486       3487       3498       3497       3607       3608       3619       3618  
      3488       3489       3500       3499       3609       3610       3621       3620  
      3489       3490       3501       3500       3610       3611       3622       3621  
      3490       3491       3502       3501       3611       3612       3623       3622  
      3491       3492       3503       3502       3612       3613       3624       3623  
      3492       3493       3504       3503       3613       3614       3625       3624  
      3493       3494       3505       3504       3614       3615       3626       3625  
      3494       3495       3506       3505       3615       3616       3627       3626  
      3495       3496       3507       3506       3616       3617       3628       3627  
      3496       3497       3508       3507       3617       3618       3629       3628  
      3497       3498       3509       3508       3618       3619       3630       3629  
      3510       3511       3522       3521       3631       3632       3643       3642  
      3511       3512       3523       3522       3632       3633       3644       3643  
      3512       3513       3524       3523       3633       3634       3645       3644  
      3513       3514       3525       3524       3634       3635       3646       3645  
      3514       3515       3526       3525       3635       3636       3647       3646  
      3515       3516       3527       3526       3636       3637       3648       3647  
      3516       3517       3528       3527       3637       3638       3649       3648  
      3517       3518       3529       3528       3638       3639       3650       3649  
      3518       3519       3530       3529       3639       3640       3651       3650  
      3519       3520       3531       3530       3640       3641       3652       3651  
      3521       3522       3533       3532       3642       3643       3654       3653  
      3522       3523       3534       3533       3643       3644       3655       3654  
      3523       3524       3535       3534       3644       3645       3656       3655  
      3524       3525       3536       3535       3645       3646       3657       3656  
      3525       3526       3537       3536       3646       3647       3658       3657  
      3526       3527       3538       3537       3647       3648       3659       3658  
      3527       3528       3539       3538       3648       3649       3660       3659  
      3528       3529       3540       3539       3649       3650       3661       3660  
      3529       3530       3541       3540       3650       3651       3662       3661  
      3530       3531       3542       3541       3651       3652       3663       3662  
      3532       3533       3544       3543       3653       3654       3665       3664  
      3533       3534       3545       3544       3654       3655       3666       3665  
      3534       3535       3546       3545       3655       3656       3667       3666  
      3535       3536       3547       3546       3656       3657       3668       3667  
      3536       3537       3548       3547       3657       3658       3669       3668  
      3537       3538       3549       3548       3658       3659       3670       3669  
      3538       3539       3550       3549       3659       3660       3671       3670  
      3539       3540       3551       3550       3660       3661       3672       3671  
      3540       3541       3552       3551       3661       3662       3673       3672  
      3541       3542       3553       3552       3662       3663       3674       3673  
      3543       3544       3555       3554       3664       3665       3676       3675  
      3544       3545       3556       3555       3665       3666       3677       3676  
      3545       3546       3557       3556       3666       3667       3678       3677  
      3546       3547       3558       3557       3667       3668       3679       3678  
      3547       3548       3559       3558       3668       3669       3680       3679  
      3548       3549       3560       3559       3669       3670       3681       3680  
      3549       3550       3561       3560       3670       3671       3682       3681  
      3550       3551       3562       3561       3671       3672       3683       3682  
      3551       3552       3563       3562       3672       3673       3684       3683  
      3552       3553       3564       3563       3673       3674       3685       3684  
      3554       3555       3566       3565       3675       3676       3687       3686  
      3555       3556       3567       3566       3676       3677       3688       3687  
      3556       3557       3568       3567       3677       3678       3689       3688  
      3557       3558       3569       3568       3678       3679       3690       3689  
      3558       3559       3570       3569       3679       3680       3691       3690  
      3559       3560       3571       3570       3680       3681       3692       3691  
      3560       3561       3572       3571       3681       3682       3693       3692  
      3561       3562       3573       3572       3682       3683       3694       3693  
      3562       3563       3574       3573       3683       3684       3695       3694  
      3563       3564       3575       3574       3684       3685       3696       3695  
      3565       3566       3577       3576       3686       3687       3698       3697  
      3566       3567       3578       3577       3687       3688       3699       3698  
      3567       3568       3579       3578       3688       3689       3700       3699  
      3568       3569       3580       3579       3689       3690       3701       3700  
      3569       3570       3581       3580       3690       3691       3702       3701  
      3570       3571       3582       3581       3691       3692       3703       3702  
      3571       3572       3583       3582       3692       3693       3704       3703  
      3572       3573       3584       3583       3693       3694       3705       3704  
      3573       3574       3585       3584       3694       3695       3706       3705  
      3574       3575       3586       3585       3695       3696       3707       3706  
      3576       3577       3588       3587       3697       3698       3709       3708  
      3577       3578       3589       3588       3698       3699       3710       3709  
      3578       3579       3590       3589       3699       3700       3711       3710  
      3579       3580       3591       3590       3700       3701       3712       3711  
      3580       3581       3592       3591       3701       3702       3713       3712  
      3581       3582       3593       3592       3702       3703       3714       3713  
      3582       3583       3594       3593       3703       3704       3715       3714  
      3583       3584       3595       3594       3704       3705       3716       3715  
      3584       3585       3596       3595       3705       3706       3717       3716  
      3585       3586       3597       3596       3706       3707       3718       3717  
      3587       3588       3599       3598       3708       3709       3720       3719  
      3588       3589       3600       3599       3709       3710       3721       3720  
      3589       3590       3601       3600       3710       3711       3722       3721  
      3590       3591       3602       3601       3711       3712       3723       3722  
      3591       3592       3603       3602       3712       3713       3724       3723  
      3592       3593       3604       3603       3713       3714       3725       3724  
      3593       3594       3605       3604       3714       3715       3726       3725  
      3594       3595       3606       3605       3715       3716       3727       3726  
      3595       3596       3607       3606       3716       3717       3728       3727  
      3596       3597       3608       3607       3717       3718       3729       3728  
      3598       3599       3610       3609       3719       3720       3731       3730  
      3599       3600       3611       3610       3720       3721       3732       3731  
      3600       3601       3612       3611       3721       3722       3733       3732  
      3601       3602       3613       3612       3722       3723       3734       3733  
      3602       3603       3614       3613       3723       3724       3735       3734  
      3603       3604       3615       3614       3724       3725       3736       3735  
      3604       3605       3616       3615       3725       3726       3737       3736  
      3605       3606       3617       3616       3726       3727       3738       3737  
      3606       3607       3618       3617       3727       3728       3739       3738  
      3607       3608       3619       3618       3728       3729       3740       3739  
      3609       3610       3621       3620       3730       3731       3742       3741  
      3610       3611       3622       3621       3731       3732       3743       3742  
      3611       3612       3623       3622       3732       3733       3744       3743  
      3612       3613       3624       3623       3733       3734       3745       3744  
      3613       3614       3625       3624       3734       3735       3746       3745  
      3614       3615       3626       3625       3735       3736       3747       3746  
      3615       3616       3627       3626       3736       3737       3748       3747  
      3616       3617       3628       3627       3737       3738       3749       3748  
      3617       3618       3629       3628       3738       3739       3750       3749  
      3618       3619       3630       3629       3739       3740       3751       3750  
      3631       3632       3643       3642       3752       3753       3764       3763  
      3632       3633       3644       3643       3753       3754       3765       3764  
      3633       3634       3645       3644       3754       3755       3766       3765  
      3634       3635       3646       3645       3755       3756       3767       3766  
      3635       3636       3647       3646       3756       3757       3768       3767  
      3636       3637       3648       3647       3757       3758       3769       3768  
      3637       3638       3649       3648       3758       3759       3770       3769  
      3638       3639       3650       3649       3759       3760       3771       3770  
      3639       3640       3651       3650       3760       3761       3772       3771  
      3640       3641       3652       3651       3761       3762       3773       3772  
      3642       3643       3654       3653       3763       3764       3775       3774  
      3643       3644       3655       3654       3764       3765       3776       3775  
      3644       3645       3656       3655       3765       3766       3777       3776  
      3645       3646       3657       3656       3766       3767       3778       3777  
      3646       3647       3658       3657       3767       3768       3779       3778  
      3647       3648       3659       3658       3768       3769       3780       3779  
      3648       3649       3660       3659       3769       3770       3781       3780  
      3649       3650       3661       3660       3770       3771       3782       3781  
      3650       3651       3662       3661       3771       3772       3783       3782  
      3651       3652       3663       3662       3772       3773       3784       3783  
      3653       3654       3665       3664       3774       3775       3786       3785  
      3654       3655       3666       3665       3775       3776       3787       3786  
      3655       3656       3667       3666       3776       3777       3788       3787  
      3656       3657       3668       3667       3777       3778       3789       3788  
      3657       3658       3669       3668       3778       3779       3790       3789  
      3658       3659       3670       3669       3779       3780       3791       3790  
      3659       3660       3671       3670       3780       3781       3792       3791  
      3660       3661       3672       3671       3781       3782       3793       3792  
      3661       3662       3673       3672       3782       3783       3794       3793  
      3662       3663       3674       3673       3783       3784       3795       3794  
      3664       3665       3676       3675       3785       3786       3797       3796  
      3665       3666       3677       3676       3786       3787       3798       3797  
      3666       3667       3678       3677       3787       3788       3799       3798  
      3667       3668       3679       3678       3788       3789       3800       3799  
      3668       3669       3680       3679       3789       3790       3801       3800  
      3669       3670       3681       3680       3790       3791       3802       3801  
      3670       3671       3682       3681       3791       3792       3803       3802  
      3671       3672       3683       3682       3792       3793       3804       3803  
      3672       3673       3684       3683       3793       3794       3805       3804  
      3673       3674       3685       3684       3794       3795       3806       3805  
      3675       3676       3687       3686       3796       3797       3808       3807  
      3676       3677       3688       3687       3797       3798       3809       3808  
      3677       3678       3689       3688       3798       3799       3810       3809  
      3678       3679       3690       3689       3799       3800       3811       3810  
      3679       3680       3691       3690       3800       3801       3812       3811  
      3680       3681       3692       3691       3801       3802       3813       3812  
      3681       3682       3693       3692       3802       3803       3814       3813  
      3682       3683       3694       3693       3803       3804       3815       3814  
      3683       3684       3695       3694       3804       3805       3816       3815  
      3684       3685       3696       3695       3805       3806       3817       3816  
      3686       3687       3698       3697       3807       3808       3819       3818  
      3687       3688       3699       3698       3808       3809       3820       3819  
      3688       3689       3700       3699       3809       3810       3821       3820  
      3689       3690       3701       3700       3810       3811       3822       3821  
      3690       3691       3702       3701       3811       3812       3823       3822  
      3691       3692       3703       3702       3812       3813       3824       3823  
      3692       3693       3704       3703       3813       3814       3825       3824  
      3693       3694       3705       3704       3814       3815       3826       3825  
      3694       3695       3706       3705       3815       3816       3827       3826  
      3695       3696       3707       3706       3816       3817       3828       3827  
      3697       3698       3709       3708       3818       3819       3830       3829  
      3698       3699       3710       3709       3819       3820       3831       3830  
      3699       3700       3711       3710       3820       3821       3832       3831  
      3700       3701       3712       3711       3821       3822       3833       3832  
      3701       3702       3713       3712       3822       3823       3834       3833  
      3702       3703       3714       3713       3823       3824       3835       3834  
      3703       3704       3715       3714       3824       3825       3836       3835  
      3704       3705       3716       3715       3825       3826       3837       3836  
      3705       3706       3717       3716       3826       3827       3838       3837  
      3706       3707       3718       3717       3827       3828       3839       3838  
      3708       3709       3720       3719       3829       3830       3841       3840  
      3709       3710       3721       3720       3830       3831       3842       3841  
      3710       3711       3722       3721       3831       3832       3843       3842  
      3711       3712       3723       3722       3832       3833       3844       3843  
      3712       3713       3724       3723       3833       3834       3845       3844  
      3713       3714       3725       3724       3834       3835       3846       3845  
      3714       3715       3726       3725       3835       3836       3847       3846  
      3715       3716       3727       3726       3836       3837       3848       3847  
      3716       3717       3728       3727       3837       3838       3849       3848  
      3717       3718       3729       3728       3838       3839       3850       3849  
      3719       3720       3731       3730       3840       3841       3852       3851  
      3720       3721       3732       3731       3841       3842       3853       3852  
      3721       3722       3733       3732       3842       3843       3854       3853  
      3722       3723       3734       3733       3843       3844       3855       3854  
      3723       3724       3735       3734       3844       3845       3856       3855  
      3724       3725       3736       3735       3845       3846       3857       3856  
      3725       3726       3737       3736       3846       3847       3858       3857  
      3726       3727       3738       3737       3847       3848       3859       3858  
      3727       3728       3739       3738       3848       3849       3860       3859  
      3728       3729       3740       3739       3849       3850       3861       3860  
      3730       3731       3742       3741       3851       3852       3863       3862  
      3731       3732       3743       3742       3852       3853       3864       3863  
      3732       3733       3744       3743       3853       3854       3865       3864  
      3733       3734       3745       3744       3854       3855       3866       3865  
      3734       3735       3746       3745       3855       3856       3867       3866  
      3735       3736       3747       3746       3856       3857       3868       3867  
      3736       3737       3748       3747       3857       3858       3869       3868  
      3737       3738       3749       3748       3858       3859       3870       3869  
      3738       3739       3750       3749       3859       3860       3871       3870  
      3739       3740       3751       3750       3860       3861       3872       3871  
      3752       3753       3764       3763       3873       3874       3885       3884  
      3753       3754       3765       3764       3874       3875       3886       3885  
      3754       3755       3766       3765       3875       3876       3887       3886  
      3755       3756       3767       3766       3876       3877       3888       3887  
      3756       3757       3768       3767       3877       3878       3889       3888  
      3757       3758       3769       3768       3878       3879       3890       3889  
      3758       3759       3770       3769       3879       3880       3891       3890  
      3759       3760       3771       3770       3880       3881       3892       3891  
      3760       3761       3772       3771       3881       3882       3893       3892  
      3761       3762       3773       3772       3882       3883       3894       3893  
      3763       3764       3775       3774       3884       3885       3896       3895  
      3764       3765       3776       3775       3885       3886       3897       3896  
      3765       3766       3777       3776       3886       3887       3898       3897  
      3766       3767       3778       3777       3887       3888       3899       3898  
      3767       3768       3779       3778       3888       3889       3900       3899  
      3768       3769       3780       3779       3889       3890       3901       3900  
      3769       3770       3781       3780       3890       3891       3902       3901  
      3770       3771       3782       3781       3891       3892       3903       3902  
      3771       3772       3783       3782       3892       3893       3904       3903  
      3772       3773       3784       3783       3893       3894       3905       3904  
      3774       3775       3786       3785       3895       3896       3907       3906  
      3775       3776       3787       3786       3896       3897       3908       3907  
      3776       3777       3788       3787       3897       3898       3909       3908  
      3777       3778       3789       3788       3898       3899       3910       3909  
      3778       3779       3790       3789       3899       3900       3911       3910  
      3779       3780       3791       3790       3900       3901       3912       3911  
      3780       3781       3792       3791       3901       3902       3913       3912  
      3781       3782       3793       3792       3902       3903       3914       3913  
      3782       3783       3794       3793       3903       3904       3915       3914  
      3783       3784       3795       3794       3904       3905       3916       3915  
      3785       3786       3797       3796       3906       3907       3918       3917  
      3786       3787       3798       3797       3907       3908       3919       3918  
      3787       3788       3799       3798       3908       3909       3920       3919  
      3788       3789       3800       3799       3909       3910       3921       3920  
      3789       3790       3801       3800       3910       3911       3922       3921  
      3790       3791       3802       3801       3911       3912       3923       3922  
      3791       3792       3803       3802       3912       3913       3924       3923  
      3792       3793       3804       3803       3913       3914       3925       3924  
      3793       3794       3805       3804       3914       3915       3926       3925  
      3794       3795       3806       3805       3915       3916       3927       3926  
      3796       3797       3808       3807       3917       3918       3929       3928  
      3797       3798       3809       3808       3918       3919       3930       3929  
      3798       3799       3810       3809       3919       3920       3931       3930  
      3799       3800       3811       3810       3920       3921       3932       3931  
      3800       3801       3812       3811       3921       3922       3933       3932  
      3801       3802       3813       3812       3922       3923       3934       3933  
      3802       3803       3814       3813       3923       3924       3935       3934  
      3803       3804       3815       3814       3924       3925       3936       3935  
      3804       3805       3816       3815       3925       3926       3937       3936  
      3805       3806       3817       3816       3926       3927       3938       3937  
      3807       3808       3819       3818       3928       3929       3940       3939  
      3808       3809       3820       3819       3929       3930       3941       3940  
      3809       3810       3821       3820       3930       3931       3942       3941  
      3810       3811       3822       3821       3931       3932       3943       3942  
      3811       3812       3823       3822       3932       3933       3944       3943  
      3812       3813       3824       3823       3933       3934       3945       3944  
      3813       3814       3825       3824       3934       3935       3946       3945  
      3814       3815       3826       3825       3935       3936       3947       3946  
      3815       3816       3827       3826       3936       3937       3948       3947  
      3816       3817       3828       3827       3937       3938       3949       3948  
      3818       3819       3830       3829       3939       3940       3951       3950  
      3819       3820       3831       3830       3940       3941       3952       3951  
      3820       3821       3832       3831       3941       3942       3953       3952  
      3821       3822       3833       3832       3942       3943       3954       3953  
      3822       3823       3834       3833       3943       3944       3955       3954  
      3823       3824       3835       3834       3944       3945       3956       3955  
      3824       3825       3836       3835       3945       3946       3957       3956  
      3825       3826       3837       3836       3946       3947       3958       3957  
      3826       3827       3838       3837       3947       3948       3959       3958  
      3827       3828       3839       3838       3948       3949       3960       3959  
      3829       3830       3841       3840       3950       3951       3962       3961  
      3830       3831       3842       3841       3951       3952       3963       3962  
      3831       3832       3843       3842       3952       3953       3964       3963  
      3832       3833       3844       3843       3953       3954       3965       3964  
      3833       3834       3845       3844       3954       3955       3966       3965  
      3834       3835       3846       3845       3955       3956       3967       3966  
      3835       3836       3847       3846       3956       3957       3968       3967  
      3836       3837       3848       3847       3957       3958       3969       3968  
      3837       3838       3849       3848       3958       3959       3970       3969  
      3838       3839       3850       3849       3959       3960       3971       3970  
      3840       3841       3852       3851       3961       3962       3973       3972  
      3841       3842       3853       3852       3962       3963       3974       3973  
      3842       3843       3854       3853       3963       3964       3975       3974  
      3843       3844       3855       3854       3964       3965       3976       3975  
      3844       3845       3856       3855       3965       3966       3977       3976  
      3845       3846       3857       3856       3966       3967       3978       3977  
      3846       3847       3858       3857       3967       3968       3979       3978  
      3847       3848       3859       3858       3968       3969       3980       3979  
      3848       3849       3860       3859       3969       3970       3981       3980  
      3849       3850       3861       3860       3970       3971       3982       3981  
      3851       3852       3863       3862       3972       3973       3984       3983  
      3852       3853       3864       3863       3973       3974       3985       3984  
      3853       3854       3865       3864       3974       3975       3986       3985  
      3854       3855       3866       3865       3975       3976       3987       3986  
      3855       3856       3867       3866       3976       3977       3988       3987  
      3856       3857       3868       3867       3977       3978       3989       3988  
      3857       3858       3869       3868       3978       3979       3990       3989  
      3858       3859       3870       3869       3979       3980       3991       3990  
      3859       3860       3871       3870       3980       3981       3992       3991  
      3860       3861       3872       3871       3981       3982       3993       3992  
      3873       3874       3885       3884       3994       3995       4006       4005  
      3874       3875       3886       3885       3995       3996       4007       4006  
      3875       3876       3887       3886       3996       3997       4008       4007  
      3876       3877       3888       3887       3997       3998       4009       4008  
      3877       3878       3889       3888       3998       3999       4010       4009  
      3878       3879       3890       3889       3999       4000       4011       4010  
      3879       3880       3891       3890       4000       4001       4012       4011  
      3880       3881       3892       3891       4001       4002       4013       4012  
      3881       3882       3893       3892       4002       4003       4014       4013  
      3882       3883       3894       3893       4003       4004       4015       4014  
      3884       3885       3896       3895       4005       4006       4017       4016  
      3885       3886       3897       3896       4006       4007       4018       4017  
      3886       3887       3898       3897       4007       4008       4019       4018  
      3887       3888       3899       3898       4008       4009       4020       4019  
      3888       3889       3900       3899       4009       4010       4021       4020  
      3889       3890       3901       3900       4010       4011       4022       4021  
      3890       3891       3902       3901       4011       4012       4023       4022  
      3891       3892       3903       3902       4012       4013       4024       4023  
      3892       3893       3904       3903       4013       4014       4025       4024  
      3893       3894       3905       3904       4014       4015       4026       4025  
      3895       3896       3907       3906       4016       4017       4028       4027  
      3896       3897       3908       3907       4017       4018       4029       4028  
      3897       3898       3909       3908       4018       4019       4030       4029  
      3898       3899       3910       3909       4019       4020       4031       4030  
      3899       3900       3911       3910       4020       4021       4032       4031  
      3900       3901       3912       3911       4021       4022       4033       4032  
      3901       3902       3913       3912       4022       4023       4034       4033  
      3902       3903       3914       3913       4023       4024       4035       4034  
      3903       3904       3915       3914       4024       4025       4036       4035  
      3904       3905       3916       3915       4025       4026       4037       4036  
      3906       3907       3918       3917       4027       4028       4039       4038  
      3907       3908       3919       3918       4028       4029       4040       4039  
      3908       3909       3920       3919       4029       4030       4041       4040  
      3909       3910       3921       3920       4030       4031       4042       4041  
      3910       3911       3922       3921       4031       4032       4043       4042  
      3911       3912       3923       3922       4032       4033       4044       4043  
      3912       3913       3924       3923       4033       4034       4045       4044  
      3913       3914       3925       3924       4034       4035       4046       4045  
      3914       3915       3926       3925       4035       4036       4047       4046  
      3915       3916       3927       3926       4036       4037       4048       4047  
      3917       3918       3929       3928       4038       4039       4050       4049  
      3918       3919       3930       3929       4039       4040       4051       4050  
      3919       3920       3931       3930       4040       4041       4052       4051  
      3920       3921       3932       3931       4041       4042       4053       4052  
      3921       3922       3933       3932       4042       4043       4054       4053  
      3922       3923       3934       3933       4043       4044       4055       4054  
      3923       3924       3935       3934       4044       4045       4056       4055  
      3924       3925       3936       3935       4045       4046       4057       4056  
      3925       3926       3937       3936       4046       4047       4058       4057  
      3926       3927       3938       3937       4047       4048       4059       4058  
      3928       3929       3940       3939       4049       4050       4061       4060  
      3929       3930       3941       3940       4050       4051       4062       4061  
      3930       3931       3942       3941       4051       4052       4063       4062  
      3931       3932       3943       3942       4052       4053       4064       4063  
      3932       3933       3944       3943       4053       4054       4065       4064  
      3933       3934       3945       3944       4054       4055       4066       4065  
      3934       3935       3946       3945       4055       4056       4067       4066  
      3935       3936       3947       3946       4056       4057       4068       4067  
      3936       3937       3948       3947       4057       4058       4069       4068  
      3937       3938       3949       3948       4058       4059       4070       4069  
      3939       3940       3951       3950       4060       4061       4072       4071  
      3940       3941       3952       3951       4061       4062       4073       4072  
      3941       3942       3953       3952       4062       4063       4074       4073  
      3942       3943       3954       3953       4063       4064       4075       4074  
      3943       3944       3955       3954       4064       4065       4076       4075  
      3944       3945       3956       3955       4065       4066       4077       4076  
      3945       3946       3957       3956       4066       4067       4078       4077  
      3946       3947       3958       3957       4067       4068       4079       4078  
      3947       3948       3959       3958       4068       4069       4080       4079  
      3948       3949       3960       3959       4069       4070       4081       4080  
      3950       3951       3962       3961       4071       4072       4083       4082  
      3951       3952       3963       3962       4072       4073       4084       4083  
      3952       3953       3964       3963       4073       4074       4085       4084  
      3953       3954       3965       3964       4074       4075       4086       4085  
      3954       3955       3966       3965       4075       4076       4087       4086  
      3955       3956       3967       3966       4076       4077       4088       4087  
      3956       3957       3968       3967       4077       4078       4089       4088  
      3957       3958       3969       3968       4078       4079       4090       4089  
      3958       3959       3970       3969       4079       4080       4091       4090  
      3959       3960       3971       3970       4080       4081       4092       4091  
      3961       3962       3973       3972       4082       4083       4094       4093  
      3962       3963       3974       3973       4083       4084       4095       4094  
      3963       3964       3975       3974       4084       4085       4096       4095  
      3964       3965       3976       3975       4085       4086       4097       4096  
      3965       3966       3977       3976       4086       4087       4098       4097  
      3966       3967       3978       3977       4087       4088       4099       4098  
      3967       3968       3979       3978       4088       4089       4100       4099  
      3968       3969       3980       3979       4089       4090       4101       4100  
      3969       3970       3981       3980       4090       4091       4102       4101  
      3970       3971       3982       3981       4091       4092       4103       4102  
      3972       3973       3984       3983       4093       4094       4105       4104  
      3973       3974       3985       3984       4094       4095       4106       4105  
      3974       3975       3986       3985       4095       4096       4107       4106  
      3975       3976       3987       3986       4096       4097       4108       4107  
      3976       3977       3988       3987       4097       4098       4109       4108  
      3977       3978       3989       3988       4098       4099       4110       4109  
      3978       3979       3990       3989       4099       4100       4111       4110  
      3979       3980       3991       3990       4100       4101       4112       4111  
      3980       3981       3992       3991       4101       4102       4113       4112  
      3981       3982       3993       3992       4102       4103       4114       4113  
      3994       3995       4006       4005       4115       4116       4127       4126  
      3995       3996       4007       4006       4116       4117       4128       4127  
      3996       3997       4008       4007       4117       4118       4129       4128  
      3997       3998       4009       4008       4118       4119       4130       4129  
      3998       3999       4010       4009       4119       4120       4131       4130  
      3999       4000       4011       4010       4120       4121       4132       4131  
      4000       4001       4012       4011       4121       4122       4133       4132  
      4001       4002       4013       4012       4122       4123       4134       4133  
      4002       4003       4014       4013       4123       4124       4135       4134  
      4003       4004       4015       4014       4124       4125       4136       4135  
      4005       4006       4017       4016       4126       4127       4138       4137  
      4006       4007       4018       4017       4127       4128       4139       4138  
      4007       4008       4019       4018       4128       4129       4140       4139  
      4008       4009       4020       4019       4129       4130       4141       4140  
      4009       4010       4021       4020       4130       4131       4142       4141  
      4010       4011       4022       4021       4131       4132       4143       4142  
      4011       4012       4023       4022       4132       4133       4144       4143  
      4012       4013       4024       4023       4133       4134       4145       4144  
      4013       4014       4025       4024       4134       4135       4146       4145  
      4014       4015       4026       4025       4135       4136       4147       4146  
      4016       4017       4028       4027       4137       4138       4149       4148  
      4017       4018       4029       4028       4138       4139       4150       4149  
      4018       4019       4030       4029       4139       4140       4151       4150  
      4019       4020       4031       4030       4140       4141       4152       4151  
      4020       4021       4032       4031       4141       4142       4153       4152  
      4021       4022       4033       4032       4142       4143       4154       4153  
      4022       4023       4034       4033       4143       4144       4155       4154  
      4023       4024       4035       4034       4144       4145       4156       4155  
      4024       4025       4036       4035       4145       4146       4157       4156  
      4025       4026       4037       4036       4146       4147       4158       4157  
      4027       4028       4039       4038       4148       4149       4160       4159  
      4028       4029       4040       4039       4149       4150       4161       4160  
      4029       4030       4041       4040       4150       4151       4162       4161  
      4030       4031       4042       4041       4151       4152       4163       4162  
      4031       4032       4043       4042       4152       4153       4164       4163  
      4032       4033       4044       4043       4153       4154       4165       4164  
      4033       4034       4045       4044       4154       4155       4166       4165  
      4034       4035       4046       4045       4155       4156       4167       4166  
      4035       4036       4047       4046       4156       4157       4168       4167  
      4036       4037       4048       4047       4157       4158       4169       4168  
      4038       4039       4050       4049       4159       4160       4171       4170  
      4039       4040       4051       4050       4160       4161       4172       4171  
      4040       4041       4052       4051       4161       4162       4173       4172  
      4041       4042       4053       4052       4162       4163       4174       4173  
      4042       4043       4054       4053       4163       4164       4175       4174  
      4043       4044       4055       4054       4164       4165       4176       4175  
      4044       4045       4056       4055       4165       4166       4177       4176  
      4045       4046       4057       4056       4166       4167       4178       4177  
      4046       4047       4058       4057       4167       4168       4179       4178  
      4047       4048       4059       4058       4168       4169       4180       4179  
      4049       4050       4061       4060       4170       4171       4182       4181  
      4050       4051       4062       4061       4171       4172       4183       4182  
      4051       4052       4063       4062       4172       4173       4184       4183  
      4052       4053       4064       4063       4173       4174       4185       4184  
      4053       4054       4065       4064       4174       4175       4186       4185  
      4054       4055       4066       4065       4175       4176       4187       4186  
      4055       4056       4067       4066       4176       4177       4188       4187  
      4056       4057       4068       4067       4177       4178       4189       4188  
      4057       4058       4069       4068       4178       4179       4190       4189  
      4058       4059       4070       4069       4179       4180       4191       4190  
      4060       4061       4072       4071       4181       4182       4193       4192  
      4061       4062       4073       4072       4182       4183       4194       4193  
      4062       4063       4074       4073       4183       4184       4195       4194  
      4063       4064       4075       4074       4184       4185       4196       4195  
      4064       4065       4076       4075       4185       4186       4197       4196  
      4065       4066       4077       4076       4186       4187       4198       4197  
      4066       4067       4078       4077       4187       4188       4199       4198  
      4067       4068       4079       4078       4188       4189       4200       4199  
      4068       4069       4080       4079       4189       4190       4201       4200  
      4069       4070       4081       4080       4190       4191       4202       4201  
      4071       4072       4083       4082       4192       4193       4204       4203  
      4072       4073       4084       4083       4193       4194       4205       4204  
      4073       4074       4085       4084       4194       4195       4206       4205  
      4074       4075       4086       4085       4195       4196       4207       4206  
      4075       4076       4087       4086       4196       4197       4208       4207  
      4076       4077       4088       4087       4197       4198       4209       4208  
      4077       4078       4089       4088       4198       4199       4210       4209  
      4078       4079       4090       4089       4199       4200       4211       4210  
      4079       4080       4091       4090       4200       4201       4212       4211  
      4080       4081       4092       4091       4201       4202       4213       4212  
      4082       4083       4094       4093       4203       4204       4215       4214  
      4083       4084       4095       4094       4204       4205       4216       4215  
      4084       4085       4096       4095       4205       4206       4217       4216  
      4085       4086       4097       4096       4206       4207       4218       4217  
      4086       4087       4098       4097       4207       4208       4219       4218  
      4087       4088       4099       4098       4208       4209       4220       4219  
      4088       4089       4100       4099       4209       4210       4221       4220  
      4089       4090       4101       4100       4210       4211       4222       4221  
      4090       4091       4102       4101       4211       4212       4223       4222  
      4091       4092       4103       4102       4212       4213       4224       4223  
      4093       4094       4105       4104       4214       4215       4226       4225  
      4094       4095       4106       4105       4215       4216       4227       4226  
      4095       4096       4107       4106       4216       4217       4228       4227  
      4096       4097       4108       4107       4217       4218       4229       4228  
      4097       4098       4109       4108       4218       4219       4230       4229  
      4098       4099       4110       4109       4219       4220       4231       4230  
      4099       4100       4111       4110       4220       4221       4232       4231  
      4100       4101       4112       4111       4221       4222       4233       4232  
      4101       4102       4113       4112       4222       4223       4234       4233  
      4102       4103       4114       4113       4223       4224       4235       4234  
      4115       4116       4127       4126       4236       4237       4248       4247  
      4116       4117       4128       4127       4237       4238       4249       4248  
      4117       4118       4129       4128       4238       4239       4250       4249  
      4118       4119       4130       4129       4239       4240       4251       4250  
      4119       4120       4131       4130       4240       4241       4252       4251  
      4120       4121       4132       4131       4241       4242       4253       4252  
      4121       4122       4133       4132       4242       4243       4254       4253  
      4122       4123       4134       4133       4243       4244       4255       4254  
      4123       4124       4135       4134       4244       4245       4256       4255  
      4124       4125       4136       4135       4245       4246       4257       4256  
      4126       4127       4138       4137       4247       4248       4259       4258  
      4127       4128       4139       4138       4248       4249       4260       4259  
      4128       4129       4140       4139       4249       4250       4261       4260  
      4129       4130       4141       4140       4250       4251       4262       4261  
      4130       4131       4142       4141       4251       4252       4263       4262  
      4131       4132       4143       4142       4252       4253       4264       4263  
      4132       4133       4144       4143       4253       4254       4265       4264  
      4133       4134       4145       4144       4254       4255       4266       4265  
      4134       4135       4146       4145       4255       4256       4267       4266  
      4135       4136       4147       4146       4256       4257       4268       4267  
      4137       4138       4149       4148       4258       4259       4270       4269  
      4138       4139       4150       4149       4259       4260       4271       4270  
      4139       4140       4151       4150       4260       4261       4272       4271  
      4140       4141       4152       4151       4261       4262       4273       4272  
      4141       4142       4153       4152       4262       4263       4274       4273  
      4142       4143       4154       4153       4263       4264       4275       4274  
      4143       4144       4155       4154       4264       4265       4276       4275  
      4144       4145       4156       4155       4265       4266       4277       4276  
      4145       4146       4157       4156       4266       4267       4278       4277  
      4146       4147       4158       4157       4267       4268       4279       4278  
      4148       4149       4160       4159       4269       4270       4281       4280  
      4149       4150       4161       4160       4270       4271       4282       4281  
      4150       4151       4162       4161       4271       4272       4283       4282  
      4151       4152       4163       4162       4272       4273       4284       4283  
      4152       4153       4164       4163       4273       4274       4285       4284  
      4153       4154       4165       4164       4274       4275       4286       4285  
      4154       4155       4166       4165       4275       4276       4287       4286  
      4155       4156       4167       4166       4276       4277       4288       4287  
      4156       4157       4168       4167       4277       4278       4289       4288  
      4157       4158       4169       4168       4278       4279       4290       4289  
      4159       4160       4171       4170       4280       4281       4292       4291  
      4160       4161       4172       4171       4281       4282       4293       4292  
      4161       4162       4173       4172       4282       4283       4294       4293  
      4162       4163       4174       4173       4283       4284       4295       4294  
      4163       4164       4175       4174       4284       4285       4296       4295  
      4164       4165       4176       4175       4285       4286       4297       4296  
      4165       4166       4177       4176       4286       4287       4298       4297  
      4166       4167       4178       4177       4287       4288       4299       4298  
      4167       4168       4179       4178       4288       4289       4300       4299  
      4168       4169       4180       4179       4289       4290       4301       4300  
      4170       4171       4182       4181       4291       4292       4303       4302  
      4171       4172       4183       4182       4292       4293       4304       4303  
      4172       4173       4184       4183       4293       4294       4305       4304  
      4173       4174       4185       4184       4294       4295       4306       4305  
      4174       4175       4186       4185       4295       4296       4307       4306  
      4175       4176       4187       4186       4296       4297       4308       4307  
      4176       4177       4188       4187       4297       4298       4309       4308  
      4177       4178       4189       4188       4298       4299       4310       4309  
      4178       4179       4190       4189       4299       4300       4311       4310  
      4179       4180       4191       4190       4300       4301       4312       4311  
      4181       4182       4193       4192       4302       4303       4314       4313  
      4182       4183       4194       4193       4303       4304       4315       4314  
      4183       4184       4195       4194       4304       4305       4316       4315  
      4184       4185       4196       4195       4305       4306       4317       4316  
      4185       4186       4197       4196       4306       4307       4318       4317  
      4186       4187       4198       4197       4307       4308       4319       4318  
      4187       4188       4199       4198       4308       4309       4320       4319  
      4188       4189       4200       4199       4309       4310       4321       4320  
      4189       4190       4201       4200       4310       4311       4322       4321  
      4190       4191       4202       4201       4311       4312       4323       4322  
      4192       4193       4204       4203       4313       4314       4325       4324  
      4193       4194       4205       4204       4314       4315       4326       4325  
      4194       4195       4206       4205       4315       4316       4327       4326  
      4195       4196       4207       4206       4316       4317       4328       4327  
      4196       4197       4208       4207       4317       4318       4329       4328  
      4197       4198       4209       4208       4318       4319       4330       4329  
      4198       4199       4210       4209       4319       4320       4331       4330  
      4199       4200       4211       4210       4320       4321       4332       4331  
      4200       4201       4212       4211       4321       4322       4333       4332  
      4201       4202       4213       4212       4322       4323       4334       4333  
      4203       4204       4215       4214       4324       4325       4336       4335  
      4204       4205       4216       4215       4325       4326       4337       4336  
      4205       4206       4217       4216       4326       4327       4338       4337  
      4206       4207       4218       4217       4327       4328       4339       4338  
      4207       4208       4219       4218       4328       4329       4340       4339  
      4208       4209       4220       4219       4329       4330       4341       4340  
      4209       4210       4221       4220       4330       4331       4342       4341  
      4210       4211       4222       4221       4331       4332       4343       4342  
      4211       4212       4223       4222       4332       4333       4344       4343  
      4212       4213       4224       4223       4333       4334       4345       4344  
      4214       4215       4226       4225       4335       4336       4347       4346  
      4215       4216       4227       4226       4336       4337       4348       4347  
      4216       4217       4228       4227       4337       4338       4349       4348  
      4217       4218       4229       4228       4338       4339       4350       4349  
      4218       4219       4230       4229       4339       4340       4351       4350  
      4219       4220       4231       4230       4340       4341       4352       4351  
      4220       4221       4232       4231       4341       4342       4353       4352  
      4221       4222       4233       4232       4342       4343       4354       4353  
      4222       4223       4234       4233       4343       4344       4355       4354  
      4223       4224       4235       4234       4344       4345       4356       4355  
      4236       4237       4248       4247       4357       4358       4369       4368  
      4237       4238       4249       4248       4358       4359       4370       4369  
      4238       4239       4250       4249       4359       4360       4371       4370  
      4239       4240       4251       4250       4360       4361       4372       4371  
      4240       4241       4252       4251       4361       4362       4373       4372  
      4241       4242       4253       4252       4362       4363       4374       4373  
      4242       4243       4254       4253       4363       4364       4375       4374  
      4243       4244       4255       4254       4364       4365       4376       4375  
      4244       4245       4256       4255       4365       4366       4377       4376  
      4245       4246       4257       4256       4366       4367       4378       4377  
      4247       4248       4259       4258       4368       4369       4380       4379  
      4248       4249       4260       4259       4369       4370       4381       4380  
      4249       4250       4261       4260       4370       4371       4382       4381  
      4250       4251       4262       4261       4371       4372       4383       4382  
      4251       4252       4263       4262       4372       4373       4384       4383  
      4252       4253       4264       4263       4373       4374       4385       4384  
      4253       4254       4265       4264       4374       4375       4386       4385  
      4254       4255       4266       4265       4375       4376       4387       4386  
      4255       4256       4267       4266       4376       4377       4388       4387  
      4256       4257       4268       4267       4377       4378       4389       4388  
      4258       4259       4270       4269       4379       4380       4391       4390  
      4259       4260       4271       4270       4380       4381       4392       4391  
      4260       4261       4272       4271       4381       4382       4393       4392  
      4261       4262       4273       4272       4382       4383       4394       4393  
      4262       4263       4274       4273       4383       4384       4395       4394  
      4263       4264       4275       4274       4384       4385       4396       4395  
      4264       4265       4276       4275       4385       4386       4397       4396  
      4265       4266       4277       4276       4386       4387       4398       4397  
      4266       4267       4278       4277       4387       4388       4399       4398  
      4267       4268       4279       4278       4388       4389       4400       4399  
      4269       4270       4281       4280       4390       4391       4402       4401  
      4270       4271       4282       4281       4391       4392       4403       4402  
      4271       4272       4283       4282       4392       4393       4404       4403  
      4272       4273       4284       4283       4393       4394       4405       4404  
      4273       4274       4285       4284       4394       4395       4406       4405  
      4274       4275       4286       4285       4395       4396       4407       4406  
      4275       4276       4287       4286       4396       4397       4408       4407  
      4276       4277       4288       4287       4397       4398       4409       4408  
      4277       4278       4289       4288       4398       4399       4410       4409  
      4278       4279       4290       4289       4399       4400       4411       4410  
      4280       4281       4292       4291       4401       4402       4413       4412  
      4281       4282       4293       4292       4402       4403       4414       4413  
      4282       4283       4294       4293       4403       4404       4415       4414  
      4283       4284       4295       4294       4404       4405       4416       4415  
      4284       4285       4296       4295       4405       4406       4417       4416  
      4285       4286       4297       4296       4406       4407       4418       4417  
      4286       4287       4298       4297       4407       4408       4419       4418  
      4287       4288       4299       4298       4408       4409       4420       4419  
      4288       4289       4300       4299       4409       4410       4421       4420  
      4289       4290       4301       4300       4410       4411       4422       4421  
      4291       4292       4303       4302       4412       4413       4424       4423  
      4292       4293       4304       4303       4413       4414       4425       4424  
      4293       4294       4305       4304       4414       4415       4426       4425  
      4294       4295       4306       4305       4415       4416       4427       4426  
      4295       4296       4307       4306       4416       4417       4428       4427  
      4296       4297       4308       4307       4417       4418       4429       4428  
      4297       4298       4309       4308       4418       4419       4430       4429  
      4298       4299       4310       4309       4419       4420       4431       4430  
      4299       4300       4311       4310       4420       4421       4432       4431  
      4300       4301       4312       4311       4421       4422       4433       4432  
      4302       4303       4314       4313       4423       4424       4435       4434  
      4303       4304       4315       4314       4424       4425       4436       4435  
      4304       4305       4316       4315       4425       4426       4437       4436  
      4305       4306       4317       4316       4426       4427       4438       4437  
      4306       4307       4318       4317       4427       4428       4439       4438  
      4307       4308       4319       4318       4428       4429       4440       4439  
      4308       4309       4320       4319       4429       4430       4441       4440  
      4309       4310       4321       4320       4430       4431       4442       4441  
      4310       4311       4322       4321       4431       4432       4443       4442  
      4311       4312       4323       4322       4432       4433       4444       4443  
      4313       4314       4325       4324       4434       4435       4446       4445  
      4314       4315       4326       4325       4435       4436       4447       4446  
      4315       4316       4327       4326       4436       4437       4448       4447  
      4316       4317       4328       4327       4437       4438       4449       4448  
      4317       4318       4329       4328       4438       4439       4450       4449  
      4318       4319       4330       4329       4439       4440       4451       4450  
      4319       4320       4331       4330       4440       4441       4452       4451  
      4320       4321       4332       4331       4441       4442       4453       4452  
      4321       4322       4333       4332       4442       4443       4454       4453  
      4322       4323       4334       4333       4443       4444       4455       4454  
      4324       4325       4336       4335       4445       4446       4457       4456  
      4325       4326       4337       4336       4446       4447       4458       4457  
      4326       4327       4338       4337       4447       4448       4459       4458  
      4327       4328       4339       4338       4448       4449       4460       4459  
      4328       4329       4340       4339       4449       4450       4461       4460  
      4329       4330       4341       4340       4450       4451       4462       4461  
      4330       4331       4342       4341       4451       4452       4463       4462  
      4331       4332       4343       4342       4452       4453       4464       4463  
      4332       4333       4344       4343       4453       4454       4465       4464  
      4333       4334       4345       4344       4454       4455       4466       4465  
      4335       4336       4347       4346       4456       4457       4468       4467  
      4336       4337       4348       4347       4457       4458       4469       4468  
      4337       4338       4349       4348       4458       4459       4470       4469  
      4338       4339       4350       4349       4459       4460       4471       4470  
      4339       4340       4351       4350       4460       4461       4472       4471  
      4340       4341       4352       4351       4461       4462       4473       4472  
      4341       4342       4353       4352       4462       4463       4474       4473  
      4342       4343       4354       4353       4463       4464       4475       4474  
      4343       4344       4355       4354       4464       4465       4476       4475  
      4344       4345       4356       4355       4465       4466       4477       4476  
      4357       4358       4369       4368       4478       4479       4490       4489  
      4358       4359       4370       4369       4479       4480       4491       4490  
      4359       4360       4371       4370       4480       4481       4492       4491  
      4360       4361       4372       4371       4481       4482       4493       4492  
      4361       4362       4373       4372       4482       4483       4494       4493  
      4362       4363       4374       4373       4483       4484       4495       4494  
      4363       4364       4375       4374       4484       4485       4496       4495  
      4364       4365       4376       4375       4485       4486       4497       4496  
      4365       4366       4377       4376       4486       4487       4498       4497  
      4366       4367       4378       4377       4487       4488       4499       4498  
      4368       4369       4380       4379       4489       4490       4501       4500  
      4369       4370       4381       4380       4490       4491       4502       4501  
      4370       4371       4382       4381       4491       4492       4503       4502  
      4371       4372       4383       4382       4492       4493       4504       4503  
      4372       4373       4384       4383       4493       4494       4505       4504  
      4373       4374       4385       4384       4494       4495       4506       4505  
      4374       4375       4386       4385       4495       4496       4507       4506  
      4375       4376       4387       4386       4496       4497       4508       4507  
      4376       4377       4388       4387       4497       4498       4509       4508  
      4377       4378       4389       4388       4498       4499       4510       4509  
      4379       4380       4391       4390       4500       4501       4512       4511  
      4380       4381       4392       4391       4501       4502       4513       4512  
      4381       4382       4393       4392       4502       4503       4514       4513  
      4382       4383       4394       4393       4503       4504       4515       4514  
      4383       4384       4395       4394       4504       4505       4516       4515  
      4384       4385       4396       4395       4505       4506       4517       4516  
      4385       4386       4397       4396       4506       4507       4518       4517  
      4386       4387       4398       4397       4507       4508       4519       4518  
      4387       4388       4399       4398       4508       4509       4520       4519  
      4388       4389       4400       4399       4509       4510       4521       4520  
      4390       4391       4402       4401       4511       4512       4523       4522  
      4391       4392       4403       4402       4512       4513       4524       4523  
      4392       4393       4404       4403       4513       4514       4525       4524  
      4393       4394       4405       4404       4514       4515       4526       4525  
      4394       4395       4406       4405       4515       4516       4527       4526  
      4395       4396       4407       4406       4516       4517       4528       4527  
      4396       4397       4408       4407       4517       4518       4529       4528  
      4397       4398       4409       4408       4518       4519       4530       4529  
      4398       4399       4410       4409       4519       4520       4531       4530  
      4399       4400       4411       4410       4520       4521       4532       4531  
      4401       4402       4413       4412       4522       4523       4534       4533  
      4402       4403       4414       4413       4523       4524       4535       4534  
      4403       4404       4415       4414       4524       4525       4536       4535  
      4404       4405       4416       4415       4525       4526       4537       4536  
      4405       4406       4417       4416       4526       4527       4538       4537  
      4406       4407       4418       4417       4527       4528       4539       4538  
      4407       4408       4419       4418       4528       4529       4540       4539  
      4408       4409       4420       4419       4529       4530       4541       4540  
      4409       4410       4421       4420       4530       4531       4542       4541  
      4410       4411       4422       4421       4531       4532       4543       4542  
      4412       4413       4424       4423       4533       4534       4545       4544  
      4413       4414       4425       4424       4534       4535       4546       4545  
      4414       4415       4426       4425       4535       4536       4547       4546  
      4415       4416       4427       4426       4536       4537       4548       4547  
      4416       4417       4428       4427       4537       4538       4549       4548  
      4417       4418       4429       4428       4538       4539       4550       4549  
      4418       4419       4430       4429       4539       4540       4551       4550  
      4419       4420       4431       4430       4540       4541       4552       4551  
      4420       4421       4432       4431       4541       4542       4553       4552  
      4421       4422       4433       4432       4542       4543       4554       4553  
      4423       4424       4435       4434       4544       4545       4556       4555  
      4424       4425       4436       4435       4545       4546       4557       4556  
      4425       4426       4437       4436       4546       4547       4558       4557  
      4426       4427       4438       4437       4547       4548       4559       4558  
      4427       4428       4439       4438       4548       4549       4560       4559  
      4428       4429       4440       4439       4549       4550       4561       4560  
      4429       4430       4441       4440       4550       4551       4562       4561  
      4430       4431       4442       4441       4551       4552       4563       4562  
      4431       4432       4443       4442       4552       4553       4564       4563  
      4432       4433       4444       4443       4553       4554       4565       4564  
      4434       4435       4446       4445       4555       4556       4567       4566  
      4435       4436       4447       4446       4556       4557       4568       4567  
      4436       4437       4448       4447       4557       4558       4569       4568  
      4437       4438       4449       4448       4558       4559       4570       4569  
      4438       4439       4450       4449       4559       4560       4571       4570  
      4439       4440       4451       4450       4560       4561       4572       4571  
      4440       4441       4452       4451       4561       4562       4573       4572  
      4441       4442       4453       4452       4562       4563       4574       4573  
      4442       4443       4454       4453       4563       4564       4575       4574  
      4443       4444       4455       4454       4564       4565       4576       4575  
      4445       4446       4457       4456       4566       4567       4578       4577  
      4446       4447       4458       4457       4567       4568       4579       4578  
      4447       4448       4459       4458       4568       4569       4580       4579  
      4448       4449       4460       4459       4569       4570       4581       4580  
      4449       4450       4461       4460       4570       4571       4582       4581  
      4450       4451       4462       4461       4571       4572       4583       4582  
      4451       4452       4463       4462       4572       4573       4584       4583  
      4452       4453       4464       4463       4573       4574       4585       4584  
      4453       4454       4465       4464       4574       4575       4586       4585  
      4454       4455       4466       4465       4575       4576       4587       4586  
      4456       4457       4468       4467       4577       4578       4589       4588  
      4457       4458       4469       4468       4578       4579       4590       4589  
      4458       4459       4470       4469       4579       4580       4591       4590  
      4459       4460       4471       4470       4580       4581       4592       4591  
      4460       4461       4472       4471       4581       4582       4593       4592  
      4461       4462       4473       4472       4582       4583       4594       4593  
      4462       4463       4474       4473       4583       4584       4595       4594  
      4463       4464       4475       4474       4584       4585       4596       4595  
      4464       4465       4476       4475       4585       4586       4597       4596  
      4465       4466       4477       4476       4586       4587       4598       4597  
      4478       4479       4490       4489       4599       4600       4611       4610  
      4479       4480       4491       4490       4600       4601       4612       4611  
      4480       4481       4492       4491       4601       4602       4613       4612  
      4481       4482       4493       4492       4602       4603       4614       4613  
      4482       4483       4494       4493       4603       4604       4615       4614  
      4483       4484       4495       4494       4604       4605       4616       4615  
      4484       4485       4496       4495       4605       4606       4617       4616  
      4485       4486       4497       4496       4606       4607       4618       4617  
      4486       4487       4498       4497       4607       4608       4619       4618  
      4487       4488       4499       4498       4608       4609       4620       4619  
      4489       4490       4501       4500       4610       4611       4622       4621  
      4490       4491       4502       4501       4611       4612       4623       4622  
      4491       4492       4503       4502       4612       4613       4624       4623  
      4492       4493       4504       4503       4613       4614       4625       4624  
      4493       4494       4505       4504       4614       4615       4626       4625  
      4494       4495       4506       4505       4615       4616       4627       4626  
      4495       4496       4507       4506       4616       4617       4628       4627  
      4496       4497       4508       4507       4617       4618       4629       4628  
      4497       4498       4509       4508       4618       4619       4630       4629  
      4498       4499       4510       4509       4619       4620       4631       4630  
      4500       4501       4512       4511       4621       4622       4633       4632  
      4501       4502       4513       4512       4622       4623       4634       4633  
      4502       4503       4514       4513       4623       4624       4635       4634  
      4503       4504       4515       4514       4624       4625       4636       4635  
      4504       4505       4516       4515       4625       4626       4637       4636  
      4505       4506       4517       4516       4626       4627       4638       4637  
      4506       4507       4518       4517       4627       4628       4639       4638  
      4507       4508       4519       4518       4628       4629       4640       4639  
      4508       4509       4520       4519       4629       4630       4641       4640  
      4509       4510       4521       4520       4630       4631       4642       4641  
      4511       4512       4523       4522       4632       4633       4644       4643  
      4512       4513       4524       4523       4633       4634       4645       4644  
      4513       4514       4525       4524       4634       4635       4646       4645  
      4514       4515       4526       4525       4635       4636       4647       4646  
      4515       4516       4527       4526       4636       4637       4648       4647  
      4516       4517       4528       4527       4637       4638       4649       4648  
      4517       4518       4529       4528       4638       4639       4650       4649  
      4518       4519       4530       4529       4639       4640       4651       4650  
      4519       4520       4531       4530       4640       4641       4652       4651  
      4520       4521       4532       4531       4641       4642       4653       4652  
      4522       4523       4534       4533       4643       4644       4655       4654  
      4523       4524       4535       4534       4644       4645       4656       4655  
      4524       4525       4536       4535       4645       4646       4657       4656  
      4525       4526       4537       4536       4646       4647       4658       4657  
      4526       4527       4538       4537       4647       4648       4659       4658  
      4527       4528       4539       4538       4648       4649       4660       4659  
      4528       4529       4540       4539       4649       4650       4661       4660  
      4529       4530       4541       4540       4650       4651       4662       4661  
      4530       4531       4542       4541       4651       4652       4663       4662  
      4531       4532       4543       4542       4652       4653       4664       4663  
      4533       4534       4545       4544       4654       4655       4666       4665  
      4534       4535       4546       4545       4655       4656       4667       4666  
      4535       4536       4547       4546       4656       4657       4668       4667  
      4536       4537       4548       4547       4657       4658       4669       4668  
      4537       4538       4549       4548       4658       4659       4670       4669  
      4538       4539       4550       4549       4659       4660       4671       4670  
      4539       4540       4551       4550       4660       4661       4672       4671  
      4540       4541       4552       4551       4661       4662       4673       4672  
      4541       4542       4553       4552       4662       4663       4674       4673  
      4542       4543       4554       4553       4663       4664       4675       4674  
      4544       4545       4556       4555       4665       4666       4677       4676  
      4545       4546       4557       4556       4666       4667       4678       4677  
      4546       4547       4558       4557       4667       4668       4679       4678  
      4547       4548       4559       4558       4668       4669       4680       4679  
      4548       4549       4560       4559       4669       4670       4681       4680  
      4549       4550       4561       4560       4670       4671       4682       4681  
      4550       4551       4562       4561       4671       4672       4683       4682  
      4551       4552       4563       4562       4672       4673       4684       4683  
      4552       4553       4564       4563       4673       4674       4685       4684  
      4553       4554       4565       4564       4674       4675       4686       4685  
      4555       4556       4567       4566       4676       4677       4688       4687  
      4556       4557       4568       4567       4677       4678       4689       4688  
      4557       4558       4569       4568       4678       4679       4690       4689  
      4558       4559       4570       4569       4679       4680       4691       4690  
      4559       4560       4571       4570       4680       4681       4692       4691  
      4560       4561       4572       4571       4681       4682       4693       4692  
      4561       4562       4573       4572       4682       4683       4694       4693  
      4562       4563       4574       4573       4683       4684       4695       4694  
      4563       4564       4575       4574       4684       4685       4696       4695  
      4564       4565       4576       4575       4685       4686       4697       4696  
      4566       4567       4578       4577       4687       4688       4699       4698  
      4567       4568       4579       4578       4688       4689       4700       4699  
      4568       4569       4580       4579       4689       4690       4701       4700  
      4569       4570       4581       4580       4690       4691       4702       4701  
      4570       4571       4582       4581       4691       4692       4703       4702  
      4571       4572       4583       4582       4692       4693       4704       4703  
      4572       4573       4584       4583       4693       4694       4705       4704  
      4573       4574       4585       4584       4694       4695       4706       4705  
      4574       4575       4586       4585       4695       4696       4707       4706  
      4575       4576       4587       4586       4696       4697       4708       4707  
      4577       4578       4589       4588       4698       4699       4710       4709  
      4578       4579       4590       4589       4699       4700       4711       4710  
      4579       4580       4591       4590       4700       4701       4712       4711  
      4580       4581       4592       4591       4701       4702       4713       4712  
      4581       4582       4593       4592       4702       4703       4714       4713  
      4582       4583       4594       4593       4703       4704       4715       4714  
      4583       4584       4595       4594       4704       4705       4716       4715  
      4584       4585       4596       4595       4705       4706       4717       4716  
      4585       4586       4597       4596       4706       4707       4718       4717  
      4586       4587       4598       4597       4707       4708       4719       4718  
      4599       4600       4611       4610       4720       4721       4732       4731  
      4600       4601       4612       4611       4721       4722       4733       4732  
      4601       4602       4613       4612       4722       4723       4734       4733  
      4602       4603       4614       4613       4723       4724       4735       4734  
      4603       4604       4615       4614       4724       4725       4736       4735  
      4604       4605       4616       4615       4725       4726       4737       4736  
      4605       4606       4617       4616       4726       4727       4738       4737  
      4606       4607       4618       4617       4727       4728       4739       4738  
      4607       4608       4619       4618       4728       4729       4740       4739  
      4608       4609       4620       4619       4729       4730       4741       4740  
      4610       4611       4622       4621       4731       4732       4743       4742  
      4611       4612       4623       4622       4732       4733       4744       4743  
      4612       4613       4624       4623       4733       4734       4745       4744  
      4613       4614       4625       4624       4734       4735       4746       4745  
      4614       4615       4626       4625       4735       4736       4747       4746  
      4615       4616       4627       4626       4736       4737       4748       4747  
      4616       4617       4628       4627       4737       4738       4749       4748  
      4617       4618       4629       4628       4738       4739       4750       4749  
      4618       4619       4630       4629       4739       4740       4751       4750  
      4619       4620       4631       4630       4740       4741       4752       4751  
      4621       4622       4633       4632       4742       4743       4754       4753  
      4622       4623       4634       4633       4743       4744       4755       4754  
      4623       4624       4635       4634       4744       4745       4756       4755  
      4624       4625       4636       4635       4745       4746       4757       4756  
      4625       4626       4637       4636       4746       4747       4758       4757  
      4626       4627       4638       4637       4747       4748       4759       4758  
      4627       4628       4639       4638       4748       4749       4760       4759  
      4628       4629       4640       4639       4749       4750       4761       4760  
      4629       4630       4641       4640       4750       4751       4762       4761  
      4630       4631       4642       4641       4751       4752       4763       4762  
      4632       4633       4644       4643       4753       4754       4765       4764  
      4633       4634       4645       4644       4754       4755       4766       4765  
      4634       4635       4646       4645       4755       4756       4767       4766  
      4635       4636       4647       4646       4756       4757       4768       4767  
      4636       4637       4648       4647       4757       4758       4769       4768  
      4637       4638       4649       4648       4758       4759       4770       4769  
      4638       4639       4650       4649       4759       4760       4771       4770  
      4639       4640       4651       4650       4760       4761       4772       4771  
      4640       4641       4652       4651       4761       4762       4773       4772  
      4641       4642       4653       4652       4762       4763       4774       4773  
      4643       4644       4655       4654       4764       4765       4776       4775  
      4644       4645       4656       4655       4765       4766       4777       4776  
      4645       4646       4657       4656       4766       4767       4778       4777  
      4646       4647       4658       4657       4767       4768       4779       4778  
      4647       4648       4659       4658       4768       4769       4780       4779  
      4648       4649       4660       4659       4769       4770       4781       4780  
      4649       4650       4661       4660       4770       4771       4782       4781  
      4650       4651       4662       4661       4771       4772       4783       4782  
      4651       4652       4663       4662       4772       4773       4784       4783  
      4652       4653       4664       4663       4773       4774       4785       4784  
      4654       4655       4666       4665       4775       4776       4787       4786  
      4655       4656       4667       4666       4776       4777       4788       4787  
      4656       4657       4668       4667       4777       4778       4789       4788  
      4657       4658       4669       4668       4778       4779       4790       4789  
      4658       4659       4670       4669       4779       4780       4791       4790  
      4659       4660       4671       4670       4780       4781       4792       4791  
      4660       4661       4672       4671       4781       4782       4793       4792  
      4661       4662       4673       4672       4782       4783       4794       4793  
      4662       4663       4674       4673       4783       4784       4795       4794  
      4663       4664       4675       4674       4784       4785       4796       4795  
      4665       4666       4677       4676       4786       4787       4798       4797  
      4666       4667       4678       4677       4787       4788       4799       4798  
      4667       4668       4679       4678       4788       4789       4800       4799  
      4668       4669       4680       4679       4789       4790       4801       4800  
      4669       4670       4681       4680       4790       4791       4802       4801  
      4670       4671       4682       4681       4791       4792       4803       4802  
      4671       4672       4683       4682       4792       4793       4804       4803  
      4672       4673       4684       4683       4793       4794       4805       4804  
      4673       4674       4685       4684       4794       4795       4806       4805  
      4674       4675       4686       4685       4795       4796       4807       4806  
      4676       4677       4688       4687       4797       4798       4809       4808  
      4677       4678       4689       4688       4798       4799       4810       4809  
      4678       4679       4690       4689       4799       4800       4811       4810  
      4679       4680       4691       4690       4800       4801       4812       4811  
      4680       4681       4692       4691       4801       4802       4813       4812  
      4681       4682       4693       4692       4802       4803       4814       4813  
      4682       4683       4694       4693       4803       4804       4815       4814  
      4683       4684       4695       4694       4804       4805       4816       4815  
      4684       4685       4696       4695       4805       4806       4817       4816  
      4685       4686       4697       4696       4806       4807       4818       4817  
      4687       4688       4699       4698       4808       4809       4820       4819  
      4688       4689       4700       4699       4809       4810       4821       4820  
      4689       4690       4701       4700       4810       4811       4822       4821  
      4690       4691       4702       4701       4811       4812       4823       4822  
      4691       4692       4703       4702       4812       4813       4824       4823  
      4692       4693       4704       4703       4813       4814       4825       4824  
      4693       4694       4705       4704       4814       4815       4826       4825  
      4694       4695       4706       4705       4815       4816       4827       4826  
      4695       4696       4707       4706       4816       4817       4828       4827  
      4696       4697       4708       4707       4817       4818       4829       4828  
      4698       4699       4710       4709       4819       4820       4831       4830  
      4699       4700       4711       4710       4820       4821       4832       4831  
      4700       4701       4712       4711       4821       4822       4833       4832  
      4701       4702       4713       4712       4822       4823       4834       4833  
      4702       4703       4714       4713       4823       4824       4835       4834  
      4703       4704       4715       4714       4824       4825       4836       4835  
      4704       4705       4716       4715       4825       4826       4837       4836  
      4705       4706       4717       4716       4826       4827       4838       4837  
      4706       4707       4718       4717       4827       4828       4839       4838  
      4707       4708       4719       4718       4828       4829       4840       4839  
      4720       4721       4732       4731       4841       4842       4853       4852  
      4721       4722       4733       4732       4842       4843       4854       4853  
      4722       4723       4734       4733       4843       4844       4855       4854  
      4723       4724       4735       4734       4844       4845       4856       4855  
      4724       4725       4736       4735       4845       4846       4857       4856  
      4725       4726       4737       4736       4846       4847       4858       4857  
      4726       4727       4738       4737       4847       4848       4859       4858  
      4727       4728       4739       4738       4848       4849       4860       4859  
      4728       4729       4740       4739       4849       4850       4861       4860  
      4729       4730       4741       4740       4850       4851       4862       4861  
      4731       4732       4743       4742       4852       4853       4864       4863  
      4732       4733       4744       4743       4853       4854       4865       4864  
      4733       4734       4745       4744       4854       4855       4866       4865  
      4734       4735       4746       4745       4855       4856       4867       4866  
      4735       4736       4747       4746       4856       4857       4868       4867  
      4736       4737       4748       4747       4857       4858       4869       4868  
      4737       4738       4749       4748       4858       4859       4870       4869  
      4738       4739       4750       4749       4859       4860       4871       4870  
      4739       4740       4751       4750       4860       4861       4872       4871  
      4740       4741       4752       4751       4861       4862       4873       4872  
      4742       4743       4754       4753       4863       4864       4875       4874  
      4743       4744       4755       4754       4864       4865       4876       4875  
      4744       4745       4756       4755       4865       4866       4877       4876  
      4745       4746       4757       4756       4866       4867       4878       4877  
      4746       4747       4758       4757       4867       4868       4879       4878  
      4747       4748       4759       4758       4868       4869       4880       4879  
      4748       4749       4760       4759       4869       4870       4881       4880  
      4749       4750       4761       4760       4870       4871       4882       4881  
      4750       4751       4762       4761       4871       4872       4883       4882  
      4751       4752       4763       4762       4872       4873       4884       4883  
      4753       4754       4765       4764       4874       4875       4886       4885  
      4754       4755       4766       4765       4875       4876       4887       4886  
      4755       4756       4767       4766       4876       4877       4888       4887  
      4756       4757       4768       4767       4877       4878       4889       4888  
      4757       4758       4769       4768       4878       4879       4890       4889  
      4758       4759       4770       4769       4879       4880       4891       4890  
      4759       4760       4771       4770       4880       4881       4892       4891  
      4760       4761       4772       4771       4881       4882       4893       4892  
      4761       4762       4773       4772       4882       4883       4894       4893  
      4762       4763       4774       4773       4883       4884       4895       4894  
      4764       4765       4776       4775       4885       4886       4897       4896  
      4765       4766       4777       4776       4886       4887       4898       4897  
      4766       4767       4778       4777       4887       4888       4899       4898  
      4767       4768       4779       4778       4888       4889       4900       4899  
      4768       4769       4780       4779       4889       4890       4901       4900  
      4769       4770       4781       4780       4890       4891       4902       4901  
      4770       4771       4782       4781       4891       4892       4903       4902  
      4771       4772       4783       4782       4892       4893       4904       4903  
      4772       4773       4784       4783       4893       4894       4905       4904  
      4773       4774       4785       4784       4894       4895       4906       4905  
      4775       4776       4787       4786       4896       4897       4908       4907  
      4776       4777       4788       4787       4897       4898       4909       4908  
      4777       4778       4789       4788       4898       4899       4910       4909  
      4778       4779       4790       4789       4899       4900       4911       4910  
      4779       4780       4791       4790       4900       4901       4912       4911  
      4780       4781       4792       4791       4901       4902       4913       4912  
      4781       4782       4793       4792       4902       4903       4914       4913  
      4782       4783       4794       4793       4903       4904       4915       4914  
      4783       4784       4795       4794       4904       4905       4916       4915  
      4784       4785       4796       4795       4905       4906       4917       4916  
      4786       4787       4798       4797       4907       4908       4919       4918  
      4787       4788       4799       4798       4908       4909       4920       4919  
      4788       4789       4800       4799       4909       4910       4921       4920  
      4789       4790       4801       4800       4910       4911       4922       4921  
      4790       4791       4802       4801       4911       4912       4923       4922  
      4791       4792       4803       4802       4912       4913       4924       4923  
      4792       4793       4804       4803       4913       4914       4925       4924  
      4793       4794       4805       4804       4914       4915       4926       4925  
      4794       4795       4806       4805       4915       4916       4927       4926  
      4795       4796       4807       4806       4916       4917       4928       4927  
      4797       4798       4809       4808       4918       4919       4930       4929  
      4798       4799       4810       4809       4919       4920       4931       4930  
      4799       4800       4811       4810       4920       4921       4932       4931  
      4800       4801       4812       4811       4921       4922       4933       4932  
      4801       4802       4813       4812       4922       4923       4934       4933  
      4802       4803       4814       4813       4923       4924       4935       4934  
      4803       4804       4815       4814       4924       4925       4936       4935  
      4804       4805       4816       4815       4925       4926       4937       4936  
      4805       4806       4817       4816       4926       4927       4938       4937  
      4806       4807       4818       4817       4927       4928       4939       4938  
      4808       4809       4820       4819       4929       4930       4941       4940  
      4809       4810       4821       4820       4930       4931       4942       4941  
      4810       4811       4822       4821       4931       4932       4943       4942  
      4811       4812       4823       4822       4932       4933       4944       4943  
      4812       4813       4824       4823       4933       4934       4945       4944  
      4813       4814       4825       4824       4934       4935       4946       4945  
      4814       4815       4826       4825       4935       4936       4947       4946  
      4815       4816       4827       4826       4936       4937       4948       4947  
      4816       4817       4828       4827       4937       4938       4949       4948  
      4817       4818       4829       4828       4938       4939       4950       4949  
      4819       4820       4831       4830       4940       4941       4952       4951  
      4820       4821       4832       4831       4941       4942       4953       4952  
      4821       4822       4833       4832       4942       4943       4954       4953  
      4822       4823       4834       4833       4943       4944       4955       4954  
      4823       4824       4835       4834       4944       4945       4956       4955  
      4824       4825       4836       4835       4945       4946       4957       4956  
      4825       4826       4837       4836       4946       4947       4958       4957  
      4826       4827       4838       4837       4947       4948       4959       4958  
      4827       4828       4839       4838       4948       4949       4960       4959  
      4828       4829       4840       4839       4949       4950       4961       4960  
      4841       4842       4853       4852       4962       4963       4974       4973  
      4842       4843       4854       4853       4963       4964       4975       4974  
      4843       4844       4855       4854       4964       4965       4976       4975  
      4844       4845       4856       4855       4965       4966       4977       4976  
      4845       4846       4857       4856       4966       4967       4978       4977  
      4846       4847       4858       4857       4967       4968       4979       4978  
      4847       4848       4859       4858       4968       4969       4980       4979  
      4848       4849       4860       4859       4969       4970       4981       4980  
      4849       4850       4861       4860       4970       4971       4982       4981  
      4850       4851       4862       4861       4971       4972       4983       4982  
      4852       4853       4864       4863       4973       4974       4985       4984  
      4853       4854       4865       4864       4974       4975       4986       4985  
      4854       4855       4866       4865       4975       4976       4987       4986  
      4855       4856       4867       4866       4976       4977       4988       4987  
      4856       4857       4868       4867       4977       4978       4989       4988  
      4857       4858       4869       4868       4978       4979       4990       4989  
      4858       4859       4870       4869       4979       4980       4991       4990  
      4859       4860       4871       4870       4980       4981       4992       4991  
      4860       4861       4872       4871       4981       4982       4993       4992  
      4861       4862       4873       4872       4982       4983       4994       4993  
      4863       4864       4875       4874       4984       4985       4996       4995  
      4864       4865       4876       4875       4985       4986       4997       4996  
      4865       4866       4877       4876       4986       4987       4998       4997  
      4866       4867       4878       4877       4987       4988       4999       4998  
      4867       4868       4879       4878       4988       4989       5000       4999  
      4868       4869       4880       4879       4989       4990       5001       5000  
      4869       4870       4881       4880       4990       4991       5002       5001  
      4870       4871       4882       4881       4991       4992       5003       5002  
      4871       4872       4883       4882       4992       4993       5004       5003  
      4872       4873       4884       4883       4993       4994       5005       5004  
      4874       4875       4886       4885       4995       4996       5007       5006  
      4875       4876       4887       4886       4996       4997       5008       5007  
      4876       4877       4888       4887       4997       4998       5009       5008  
      4877       4878       4889       4888       4998       4999       5010       5009  
      4878       4879       4890       4889       4999       5000       5011       5010  
      4879       4880       4891       4890       5000       5001       5012       5011  
      4880       4881       4892       4891       5001       5002       5013       5012  
      4881       4882       4893       4892       5002       5003       5014       5013  
      4882       4883       4894       4893       5003       5004       5015       5014  
      4883       4884       4895       4894       5004       5005       5016       5015  
      4885       4886       4897       4896       5006       5007       5018       5017  
      4886       4887       4898       4897       5007       5008       5019       5018  
      4887       4888       4899       4898       5008       5009       5020       5019  
      4888       4889       4900       4899       5009       5010       5021       5020  
      4889       4890       4901       4900       5010       5011       5022       5021  
      4890       4891       4902       4901       5011       5012       5023       5022  
      4891       4892       4903       4902       5012       5013       5024       5023  
      4892       4893       4904       4903       5013       5014       5025       5024  
      4893       4894       4905       4904       5014       5015       5026       5025  
      4894       4895       4906       4905       5015       5016       5027       5026  
      4896       4897       4908       4907       5017       5018       5029       5028  
      4897       4898       4909       4908       5018       5019       5030       5029  
      4898       4899       4910       4909       5019       5020       5031       5030  
      4899       4900       4911       4910       5020       5021       5032       5031  
      4900       4901       4912       4911       5021       5022       5033       5032  
      4901       4902       4913       4912       5022       5023       5034       5033  
      4902       4903       4914       4913       5023       5024       5035       5034  
      4903       4904       4915       4914       5024       5025       5036       5035  
      4904       4905       4916       4915       5025       5026       5037       5036  
      4905       4906       4917       4916       5026       5027       5038       5037  
      4907       4908       4919       4918       5028       5029       5040       5039  
      4908       4909       4920       4919       5029       5030       5041       5040  
      4909       4910       4921       4920       5030       5031       5042       5041  
      4910       4911       4922       4921       5031       5032       5043       5042  
      4911       4912       4923       4922       5032       5033       5044       5043  
      4912       4913       4924       4923       5033       5034       5045       5044  
      4913       4914       4925       4924       5034       5035       5046       5045  
      4914       4915       4926       4925       5035       5036       5047       5046  
      4915       4916       4927       4926       5036       5037       5048       5047  
      4916       4917       4928       4927       5037       5038       5049       5048  
      4918       4919       4930       4929       5039       5040       5051       5050  
      4919       4920       4931       4930       5040       5041       5052       5051  
      4920       4921       4932       4931       5041       5042       5053       5052  
      4921       4922       4933       4932       5042       5043       5054       5053  
      4922       4923       4934       4933       5043       5044       5055       5054  
      4923       4924       4935       4934       5044       5045       5056       5055  
      4924       4925       4936       4935       5045       5046       5057       5056  
      4925       4926       4937       4936       5046       5047       5058       5057  
      4926       4927       4938       4937       5047       5048       5059       5058  
      4927       4928       4939       4938       5048       5049       5060       5059  
      4929       4930       4941       4940       5050       5051       5062       5061  
      4930       4931       4942       4941       5051       5052       5063       5062  
      4931       4932       4943       4942       5052       5053       5064       5063  
      4932       4933       4944       4943       5053       5054       5065       5064  
      4933       4934       4945       4944       5054       5055       5066       5065  
      4934       4935       4946       4945       5055       5056       5067       5066  
      4935       4936       4947       4946       5056       5057       5068       5067  
      4936       4937       4948       4947       5057       5058       5069       5068  
      4937       4938       4949       4948       5058       5059       5070       5069  
      4938       4939       4950       4949       5059       5060       5071       5070  
      4940       4941       4952       4951       5061       5062       5073       5072  
      4941       4942       4953       4952       5062       5063       5074       5073  
      4942       4943       4954       4953       5063       5064       5075       5074  
      4943       4944       4955       4954       5064       5065       5076       5075  
      4944       4945       4956       4955       5065       5066       5077       5076  
      4945       4946       4957       4956       5066       5067       5078       5077  
      4946       4947       4958       4957       5067       5068       5079       5078  
      4947       4948       4959       4958       5068       5069       5080       5079  
      4948       4949       4960       4959       5069       5070       5081       5080  
      4949       4950       4961       4960       5070       5071       5082       5081  
      4962       4963       4974       4973       5083       5084       5095       5094  
      4963       4964       4975       4974       5084       5085       5096       5095  
      4964       4965       4976       4975       5085       5086       5097       5096  
      4965       4966       4977       4976       5086       5087       5098       5097  
      4966       4967       4978       4977       5087       5088       5099       5098  
      4967       4968       4979       4978       5088       5089       5100       5099  
      4968       4969       4980       4979       5089       5090       5101       5100  
      4969       4970       4981       4980       5090       5091       5102       5101  
      4970       4971       4982       4981       5091       5092       5103       5102  
      4971       4972       4983       4982       5092       5093       5104       5103  
      4973       4974       4985       4984       5094       5095       5106       5105  
      4974       4975       4986       4985       5095       5096       5107       5106  
      4975       4976       4987       4986       5096       5097       5108       5107  
      4976       4977       4988       4987       5097       5098       5109       5108  
      4977       4978       4989       4988       5098       5099       5110       5109  
      4978       4979       4990       4989       5099       5100       5111       5110  
      4979       4980       4991       4990       5100       5101       5112       5111  
      4980       4981       4992       4991       5101       5102       5113       5112  
      4981       4982       4993       4992       5102       5103       5114       5113  
      4982       4983       4994       4993       5103       5104       5115       5114  
      4984       4985       4996       4995       5105       5106       5117       5116  
      4985       4986       4997       4996       5106       5107       5118       5117  
      4986       4987       4998       4997       5107       5108       5119       5118  
      4987       4988       4999       4998       5108       5109       5120       5119  
      4988       4989       5000       4999       5109       5110       5121       5120  
      4989       4990       5001       5000       5110       5111       5122       5121  
      4990       4991       5002       5001       5111       5112       5123       5122  
      4991       4992       5003       5002       5112       5113       5124       5123  
      4992       4993       5004       5003       5113       5114       5125       5124  
      4993       4994       5005       5004       5114       5115       5126       5125  
      4995       4996       5007       5006       5116       5117       5128       5127  
      4996       4997       5008       5007       5117       5118       5129       5128  
      4997       4998       5009       5008       5118       5119       5130       5129  
      4998       4999       5010       5009       5119       5120       5131       5130  
      4999       5000       5011       5010       5120       5121       5132       5131  
      5000       5001       5012       5011       5121       5122       5133       5132  
      5001       5002       5013       5012       5122       5123       5134       5133  
      5002       5003       5014       5013       5123       5124       5135       5134  
      5003       5004       5015       5014       5124       5125       5136       5135  
      5004       5005       5016       5015       5125       5126       5137       5136  
      5006       5007       5018       5017       5127       5128       5139       5138  
      5007       5008       5019       5018       5128       5129       5140       5139  
      5008       5009       5020       5019       5129       5130       5141       5140  
      5009       5010       5021       5020       5130       5131       5142       5141  
      5010       5011       5022       5021       5131       5132       5143       5142  
      5011       5012       5023       5022       5132       5133       5144       5143  
      5012       5013       5024       5023       5133       5134       5145       5144  
      5013       5014       5025       5024       5134       5135       5146       5145  
      5014       5015       5026       5025       5135       5136       5147       5146  
      5015       5016       5027       5026       5136       5137       5148       5147  
      5017       5018       5029       5028       5138       5139       5150       5149  
      5018       5019       5030       5029       5139       5140       5151       5150  
      5019       5020       5031       5030       5140       5141       5152       5151  
      5020       5021       5032       5031       5141       5142       5153       5152  
      5021       5022       5033       5032       5142       5143       5154       5153  
      5022       5023       5034       5033       5143       5144       5155       5154  
      5023       5024       5035       5034       5144       5145       5156       5155  
      5024       5025       5036       5035       5145       5146       5157       5156  
      5025       5026       5037       5036       5146       5147       5158       5157  
      5026       5027       5038       5037       5147       5148       5159       5158  
      5028       5029       5040       5039       5149       5150       5161       5160  
      5029       5030       5041       5040       5150       5151       5162       5161  
      5030       5031       5042       5041       5151       5152       5163       5162  
      5031       5032       5043       5042       5152       5153       5164       5163  
      5032       5033       5044       5043       5153       5154       5165       5164  
      5033       5034       5045       5044       5154       5155       5166       5165  
      5034       5035       5046       5045       5155       5156       5167       5166  
      5035       5036       5047       5046       5156       5157       5168       5167  
      5036       5037       5048       5047       5157       5158       5169       5168  
      5037       5038       5049       5048       5158       5159       5170       5169  
      5039       5040       5051       5050       5160       5161       5172       5171  
      5040       5041       5052       5051       5161       5162       5173       5172  
      5041       5042       5053       5052       5162       5163       5174       5173  
      5042       5043       5054       5053       5163       5164       5175       5174  
      5043       5044       5055       5054       5164       5165       5176       5175  
      5044       5045       5056       5055       5165       5166       5177       5176  
      5045       5046       5057       5056       5166       5167       5178       5177  
      5046       5047       5058       5057       5167       5168       5179       5178  
      5047       5048       5059       5058       5168       5169       5180       5179  
      5048       5049       5060       5059       5169       5170       5181       5180  
      5050       5051       5062       5061       5171       5172       5183       5182  
      5051       5052       5063       5062       5172       5173       5184       5183  
      5052       5053       5064       5063       5173       5174       5185       5184  
      5053       5054       5065       5064       5174       5175       5186       5185  
      5054       5055       5066       5065       5175       5176       5187       5186  
      5055       5056       5067       5066       5176       5177       5188       5187  
      5056       5057       5068       5067       5177       5178       5189       5188  
      5057       5058       5069       5068       5178       5179       5190       5189  
      5058       5059       5070       5069       5179       5180       5191       5190  
      5059       5060       5071       5070       5180       5181       5192       5191  
      5061       5062       5073       5072       5182       5183       5194       5193  
      5062       5063       5074       5073       5183       5184       5195       5194  
      5063       5064       5075       5074       5184       5185       5196       5195  
      5064       5065       5076       5075       5185       5186       5197       5196  
      5065       5066       5077       5076       5186       5187       5198       5197  
      5066       5067       5078       5077       5187       5188       5199       5198  
      5067       5068       5079       5078       5188       5189       5200       5199  
      5068       5069       5080       5079       5189       5190       5201       5200  
      5069       5070       5081       5080       5190       5191       5202       5201  
      5070       5071       5082       5081       5191       5192       5203       5202  
      5083       5084       5095       5094       5204       5205       5216       5215  
      5084       5085       5096       5095       5205       5206       5217       5216  
      5085       5086       5097       5096       5206       5207       5218       5217  
      5086       5087       5098       5097       5207       5208       5219       5218  
      5087       5088       5099       5098       5208       5209       5220       5219  
      5088       5089       5100       5099       5209       5210       5221       5220  
      5089       5090       5101       5100       5210       5211       5222       5221  
      5090       5091       5102       5101       5211       5212       5223       5222  
      5091       5092       5103       5102       5212       5213       5224       5223  
      5092       5093       5104       5103       5213       5214       5225       5224  
      5094       5095       5106       5105       5215       5216       5227       5226  
      5095       5096       5107       5106       5216       5217       5228       5227  
      5096       5097       5108       5107       5217       5218       5229       5228  
      5097       5098       5109       5108       5218       5219       5230       5229  
      5098       5099       5110       5109       5219       5220       5231       5230  
      5099       5100       5111       5110       5220       5221       5232       5231  
      5100       5101       5112       5111       5221       5222       5233       5232  
      5101       5102       5113       5112       5222       5223       5234       5233  
      5102       5103       5114       5113       5223       5224       5235       5234  
      5103       5104       5115       5114       5224       5225       5236       5235  
      5105       5106       5117       5116       5226       5227       5238       5237  
      5106       5107       5118       5117       5227       5228       5239       5238  
      5107       5108       5119       5118       5228       5229       5240       5239  
      5108       5109       5120       5119       5229       5230       5241       5240  
      5109       5110       5121       5120       5230       5231       5242       5241  
      5110       5111       5122       5121       5231       5232       5243       5242  
      5111       5112       5123       5122       5232       5233       5244       5243  
      5112       5113       5124       5123       5233       5234       5245       5244  
      5113       5114       5125       5124       5234       5235       5246       5245  
      5114       5115       5126       5125       5235       5236       5247       5246  
      5116       5117       5128       5127       5237       5238       5249       5248  
      5117       5118       5129       5128       5238       5239       5250       5249  
      5118       5119       5130       5129       5239       5240       5251       5250  
      5119       5120       5131       5130       5240       5241       5252       5251  
      5120       5121       5132       5131       5241       5242       5253       5252  
      5121       5122       5133       5132       5242       5243       5254       5253  
      5122       5123       5134       5133       5243       5244       5255       5254  
      5123       5124       5135       5134       5244       5245       5256       5255  
      5124       5125       5136       5135       5245       5246       5257       5256  
      5125       5126       5137       5136       5246       5247       5258       5257  
      5127       5128       5139       5138       5248       5249       5260       5259  
      5128       5129       5140       5139       5249       5250       5261       5260  
      5129       5130       5141       5140       5250       5251       5262       5261  
      5130       5131       5142       5141       5251       5252       5263       5262  
      5131       5132       5143       5142       5252       5253       5264       5263  
      5132       5133       5144       5143       5253       5254       5265       5264  
      5133       5134       5145       5144       5254       5255       5266       5265  
      5134       5135       5146       5145       5255       5256       5267       5266  
      5135       5136       5147       5146       5256       5257       5268       5267  
      5136       5137       5148       5147       5257       5258       5269       5268  
      5138       5139       5150       5149       5259       5260       5271       5270  
      5139       5140       5151       5150       5260       5261       5272       5271  
      5140       5141       5152       5151       5261       5262       5273       5272  
      5141       5142       5153       5152       5262       5263       5274       5273  
      5142       5143       5154       5153       5263       5264       5275       5274  
      5143       5144       5155       5154       5264       5265       5276       5275  
      5144       5145       5156       5155       5265       5266       5277       5276  
      5145       5146       5157       5156       5266       5267       5278       5277  
      5146       5147       5158       5157       5267       5268       5279       5278  
      5147       5148       5159       5158       5268       5269       5280       5279  
      5149       5150       5161       5160       5270       5271       5282       5281  
      5150       5151       5162       5161       5271       5272       5283       5282  
      5151       5152       5163       5162       5272       5273       5284       5283  
      5152       5153       5164       5163       5273       5274       5285       5284  
      5153       5154       5165       5164       5274       5275       5286       5285  
      5154       5155       5166       5165       5275       5276       5287       5286  
      5155       5156       5167       5166       5276       5277       5288       5287  
      5156       5157       5168       5167       5277       5278       5289       5288  
      5157       5158       5169       5168       5278       5279       5290       5289  
      5158       5159       5170       5169       5279       5280       5291       5290  
      5160       5161       5172       5171       5281       5282       5293       5292  
      5161       5162       5173       5172       5282       5283       5294       5293  
      5162       5163       5174       5173       5283       5284       5295       5294  
      5163       5164       5175       5174       5284       5285       5296       5295  
      5164       5165       5176       5175       5285       5286       5297       5296  
      5165       5166       5177       5176       5286       5287       5298       5297  
      5166       5167       5178       5177       5287       5288       5299       5298  
      5167       5168       5179       5178       5288       5289       5300       5299  
      5168       5169       5180       5179       5289       5290       5301       5300  
      5169       5170       5181       5180       5290       5291       5302       5301  
      5171       5172       5183       5182       5292       5293       5304       5303  
      5172       5173       5184       5183       5293       5294       5305       5304  
      5173       5174       5185       5184       5294       5295       5306       5305  
      5174       5175       5186       5185       5295       5296       5307       5306  
      5175       5176       5187       5186       5296       5297       5308       5307  
      5176       5177       5188       5187       5297       5298       5309       5308  
      5177       5178       5189       5188       5298       5299       5310       5309  
      5178       5179       5190       5189       5299       5300       5311       5310  
      5179       5180       5191       5190       5300       5301       5312       5311  
      5180       5181       5192       5191       5301       5302       5313       5312  
      5182       5183       5194       5193       5303       5304       5315       5314  
      5183       5184       5195       5194       5304       5305       5316       5315  
      5184       5185       5196       5195       5305       5306       5317       5316  
      5185       5186       5197       5196       5306       5307       5318       5317  
      5186       5187       5198       5197       5307       5308       5319       5318  
      5187       5188       5199       5198       5308       5309       5320       5319  
      5188       5189       5200       5199       5309       5310       5321       5320  
      5189       5190       5201       5200       5310       5311       5322       5321  
      5190       5191       5202       5201       5311       5312       5323       5322  
      5191       5192       5203       5202       5312       5313       5324       5323  
      5204       5205       5216       5215       5325       5326       5337       5336  
      5205       5206       5217       5216       5326       5327       5338       5337  
      5206       5207       5218       5217       5327       5328       5339       5338  
      5207       5208       5219       5218       5328       5329       5340       5339  
      5208       5209       5220       5219       5329       5330       5341       5340  
      5209       5210       5221       5220       5330       5331       5342       5341  
      5210       5211       5222       5221       5331       5332       5343       5342  
      5211       5212       5223       5222       5332       5333       5344       5343  
      5212       5213       5224       5223       5333       5334       5345       5344  
      5213       5214       5225       5224       5334       5335       5346       5345  
      5215       5216       5227       5226       5336       5337       5348       5347  
      5216       5217       5228       5227       5337       5338       5349       5348  
      5217       5218       5229       5228       5338       5339       5350       5349  
      5218       5219       5230       5229       5339       5340       5351       5350  
      5219       5220       5231       5230       5340       5341       5352       5351  
      5220       5221       5232       5231       5341       5342       5353       5352  
      5221       5222       5233       5232       5342       5343       5354       5353  
      5222       5223       5234       5233       5343       5344       5355       5354  
      5223       5224       5235       5234       5344       5345       5356       5355  
      5224       5225       5236       5235       5345       5346       5357       5356  
      5226       5227       5238       5237       5347       5348       5359       5358  
      5227       5228       5239       5238       5348       5349       5360       5359  
      5228       5229       5240       5239       5349       5350       5361       5360  
      5229       5230       5241       5240       5350       5351       5362       5361  
      5230       5231       5242       5241       5351       5352       5363       5362  
      5231       5232       5243       5242       5352       5353       5364       5363  
      5232       5233       5244       5243       5353       5354       5365       5364  
      5233       5234       5245       5244       5354       5355       5366       5365  
      5234       5235       5246       5245       5355       5356       5367       5366  
      5235       5236       5247       5246       5356       5357       5368       5367  
      5237       5238       5249       5248       5358       5359       5370       5369  
      5238       5239       5250       5249       5359       5360       5371       5370  
      5239       5240       5251       5250       5360       5361       5372       5371  
      5240       5241       5252       5251       5361       5362       5373       5372  
      5241       5242       5253       5252       5362       5363       5374       5373  
      5242       5243       5254       5253       5363       5364       5375       5374  
      5243       5244       5255       5254       5364       5365       5376       5375  
      5244       5245       5256       5255       5365       5366       5377       5376  
      5245       5246       5257       5256       5366       5367       5378       5377  
      5246       5247       5258       5257       5367       5368       5379       5378  
      5248       5249       5260       5259       5369       5370       5381       5380  
      5249       5250       5261       5260       5370       5371       5382       5381  
      5250       5251       5262       5261       5371       5372       5383       5382  
      5251       5252       5263       5262       5372       5373       5384       5383  
      5252       5253       5264       5263       5373       5374       5385       5384  
      5253       5254       5265       5264       5374       5375       5386       5385  
      5254       5255       5266       5265       5375       5376       5387       5386  
      5255       5256       5267       5266       5376       5377       5388       5387  
      5256       5257       5268       5267       5377       5378       5389       5388  
      5257       5258       5269       5268       5378       5379       5390       5389  
      5259       5260       5271       5270       5380       5381       5392       5391  
      5260       5261       5272       5271       5381       5382       5393       5392  
      5261       5262       5273       5272       5382       5383       5394       5393  
      5262       5263       5274       5273       5383       5384       5395       5394  
      5263       5264       5275       5274       5384       5385       5396       5395  
      5264       5265       5276       5275       5385       5386       5397       5396  
      5265       5266       5277       5276       5386       5387       5398       5397  
      5266       5267       5278       5277       5387       5388       5399       5398  
      5267       5268       5279       5278       5388       5389       5400       5399  
      5268       5269       5280       5279       5389       5390       5401       5400  
      5270       5271       5282       5281       5391       5392       5403       5402  
      5271       5272       5283       5282       5392       5393       5404       5403  
      5272       5273       5284       5283       5393       5394       5405       5404  
      5273       5274       5285       5284       5394       5395       5406       5405  
      5274       5275       5286       5285       5395       5396       5407       5406  
      5275       5276       5287       5286       5396       5397       5408       5407  
      5276       5277       5288       5287       5397       5398       5409       5408  
      5277       5278       5289       5288       5398       5399       5410       5409  
      5278       5279       5290       5289       5399       5400       5411       5410  
      5279       5280       5291       5290       5400       5401       5412       5411  
      5281       5282       5293       5292       5402       5403       5414       5413  
      5282       5283       5294       5293       5403       5404       5415       5414  
      5283       5284       5295       5294       5404       5405       5416       5415  
      5284       5285       5296       5295       5405       5406       5417       5416  
      5285       5286       5297       5296       5406       5407       5418       5417  
      5286       5287       5298       5297       5407       5408       5419       5418  
      5287       5288       5299       5298       5408       5409       5420       5419  
      5288       5289       5300       5299       5409       5410       5421       5420  
      5289       5290       5301       5300       5410       5411       5422       5421  
      5290       5291       5302       5301       5411       5412       5423       5422  
      5292       5293       5304       5303       5413       5414       5425       5424  
      5293       5294       5305       5304       5414       5415       5426       5425  
      5294       5295       5306       5305       5415       5416       5427       5426  
      5295       5296       5307       5306       5416       5417       5428       5427  
      5296       5297       5308       5307       5417       5418       5429       5428  
      5297       5298       5309       5308       5418       5419       5430       5429  
      5298       5299       5310       5309       5419       5420       5431       5430  
      5299       5300       5311       5310       5420       5421       5432       5431  
      5300       5301       5312       5311       5421       5422       5433       5432  
      5301       5302       5313       5312       5422       5423       5434       5433  
      5303       5304       5315       5314       5424       5425       5436       5435  
      5304       5305       5316       5315       5425       5426       5437       5436  
      5305       5306       5317       5316       5426       5427       5438       5437  
      5306       5307       5318       5317       5427       5428       5439       5438  
      5307       5308       5319       5318       5428       5429       5440       5439  
      5308       5309       5320       5319       5429       5430       5441       5440  
      5309       5310       5321       5320       5430       5431       5442       5441  
      5310       5311       5322       5321       5431       5432       5443       5442  
      5311       5312       5323       5322       5432       5433       5444       5443  
      5312       5313       5324       5323       5433       5434       5445       5444  
      5325       5326       5337       5336       5446       5447       5458       5457  
      5326       5327       5338       5337       5447       5448       5459       5458  
      5327       5328       5339       5338       5448       5449       5460       5459  
      5328       5329       5340       5339       5449       5450       5461       5460  
      5329       5330       5341       5340       5450       5451       5462       5461  
      5330       5331       5342       5341       5451       5452       5463       5462  
      5331       5332       5343       5342       5452       5453       5464       5463  
      5332       5333       5344       5343       5453       5454       5465       5464  
      5333       5334       5345       5344       5454       5455       5466       5465  
      5334       5335       5346       5345       5455       5456       5467       5466  
      5336       5337       5348       5347       5457       5458       5469       5468  
      5337       5338       5349       5348       5458       5459       5470       5469  
      5338       5339       5350       5349       5459       5460       5471       5470  
      5339       5340       5351       5350       5460       5461       5472       5471  
      5340       5341       5352       5351       5461       5462       5473       5472  
      5341       5342       5353       5352       5462       5463       5474       5473  
      5342       5343       5354       5353       5463       5464       5475       5474  
      5343       5344       5355       5354       5464       5465       5476       5475  
      5344       5345       5356       5355       5465       5466       5477       5476  
      5345       5346       5357       5356       5466       5467       5478       5477  
      5347       5348       5359       5358       5468       5469       5480       5479  
      5348       5349       5360       5359       5469       5470       5481       5480  
      5349       5350       5361       5360       5470       5471       5482       5481  
      5350       5351       5362       5361       5471       5472       5483       5482  
      5351       5352       5363       5362       5472       5473       5484       5483  
      5352       5353       5364       5363       5473       5474       5485       5484  
      5353       5354       5365       5364       5474       5475       5486       5485  
      5354       5355       5366       5365       5475       5476       5487       5486  
      5355       5356       5367       5366       5476       5477       5488       5487  
      5356       5357       5368       5367       5477       5478       5489       5488  
      5358       5359       5370       5369       5479       5480       5491       5490  
      5359       5360       5371       5370       5480       5481       5492       5491  
      5360       5361       5372       5371       5481       5482       5493       5492  
      5361       5362       5373       5372       5482       5483       5494       5493  
      5362       5363       5374       5373       5483       5484       5495       5494  
      5363       5364       5375       5374       5484       5485       5496       5495  
      5364       5365       5376       5375       5485       5486       5497       5496  
      5365       5366       5377       5376       5486       5487       5498       5497  
      5366       5367       5378       5377       5487       5488       5499       5498  
      5367       5368       5379       5378       5488       5489       5500       5499  
      5369       5370       5381       5380       5490       5491       5502       5501  
      5370       5371       5382       5381       5491       5492       5503       5502  
      5371       5372       5383       5382       5492       5493       5504       5503  
      5372       5373       5384       5383       5493       5494       5505       5504  
      5373       5374       5385       5384       5494       5495       5506       5505  
      5374       5375       5386       5385       5495       5496       5507       5506  
      5375       5376       5387       5386       5496       5497       5508       5507  
      5376       5377       5388       5387       5497       5498       5509       5508  
      5377       5378       5389       5388       5498       5499       5510       5509  
      5378       5379       5390       5389       5499       5500       5511       5510  
      5380       5381       5392       5391       5501       5502       5513       5512  
      5381       5382       5393       5392       5502       5503       5514       5513  
      5382       5383       5394       5393       5503       5504       5515       5514  
      5383       5384       5395       5394       5504       5505       5516       5515  
      5384       5385       5396       5395       5505       5506       5517       5516  
      5385       5386       5397       5396       5506       5507       5518       5517  
      5386       5387       5398       5397       5507       5508       5519       5518  
      5387       5388       5399       5398       5508       5509       5520       5519  
      5388       5389       5400       5399       5509       5510       5521       5520  
      5389       5390       5401       5400       5510       5511       5522       5521  
      5391       5392       5403       5402       5512       5513       5524       5523  
      5392       5393       5404       5403       5513       5514       5525       5524  
      5393       5394       5405       5404       5514       5515       5526       5525  
      5394       5395       5406       5405       5515       5516       5527       5526  
      5395       5396       5407       5406       5516       5517       5528       5527  
      5396       5397       5408       5407       5517       5518       5529       5528  
      5397       5398       5409       5408       5518       5519       5530       5529  
      5398       5399       5410       5409       5519       5520       5531       5530  
      5399       5400       5411       5410       5520       5521       5532       5531  
      5400       5401       5412       5411       5521       5522       5533       5532  
      5402       5403       5414       5413       5523       5524       5535       5534  
      5403       5404       5415       5414       5524       5525       5536       5535  
      5404       5405       5416       5415       5525       5526       5537       5536  
      5405       5406       5417       5416       5526       5527       5538       5537  
      5406       5407       5418       5417       5527       5528       5539       5538  
      5407       5408       5419       5418       5528       5529       5540       5539  
      5408       5409       5420       5419       5529       5530       5541       5540  
      5409       5410       5421       5420       5530       5531       5542       5541  
      5410       5411       5422       5421       5531       5532       5543       5542  
      5411       5412       5423       5422       5532       5533       5544       5543  
      5413       5414       5425       5424       5534       5535       5546       5545  
      5414       5415       5426       5425       5535       5536       5547       5546  
      5415       5416       5427       5426       5536       5537       5548       5547  
      5416       5417       5428       5427       5537       5538       5549       5548  
      5417       5418       5429       5428       5538       5539       5550       5549  
      5418       5419       5430       5429       5539       5540       5551       5550  
      5419       5420       5431       5430       5540       5541       5552       5551  
      5420       5421       5432       5431       5541       5542       5553       5552  
      5421       5422       5433       5432       5542       5543       5554       5553  
      5422       5423       5434       5433       5543       5544       5555       5554  
      5424       5425       5436       5435       5545       5546       5557       5556  
      5425       5426       5437       5436       5546       5547       5558       5557  
      5426       5427       5438       5437       5547       5548       5559       5558  
      5427       5428       5439       5438       5548       5549       5560       5559  
      5428       5429       5440       5439       5549       5550       5561       5560  
      5429       5430       5441       5440       5550       5551       5562       5561  
      5430       5431       5442       5441       5551       5552       5563       5562  
      5431       5432       5443       5442       5552       5553       5564       5563  
      5432       5433       5444       5443       5553       5554       5565       5564  
      5433       5434       5445       5444       5554       5555       5566       5565  
      5446       5447       5458       5457       5567       5568       5579       5578  
      5447       5448       5459       5458       5568       5569       5580       5579  
      5448       5449       5460       5459       5569       5570       5581       5580  
      5449       5450       5461       5460       5570       5571       5582       5581  
      5450       5451       5462       5461       5571       5572       5583       5582  
      5451       5452       5463       5462       5572       5573       5584       5583  
      5452       5453       5464       5463       5573       5574       5585       5584  
      5453       5454       5465       5464       5574       5575       5586       5585  
      5454       5455       5466       5465       5575       5576       5587       5586  
      5455       5456       5467       5466       5576       5577       5588       5587  
      5457       5458       5469       5468       5578       5579       5590       5589  
      5458       5459       5470       5469       5579       5580       5591       5590  
      5459       5460       5471       5470       5580       5581       5592       5591  
      5460       5461       5472       5471       5581       5582       5593       5592  
      5461       5462       5473       5472       5582       5583       5594       5593  
      5462       5463       5474       5473       5583       5584       5595       5594  
      5463       5464       5475       5474       5584       5585       5596       5595  
      5464       5465       5476       5475       5585       5586       5597       5596  
      5465       5466       5477       5476       5586       5587       5598       5597  
      5466       5467       5478       5477       5587       5588       5599       5598  
      5468       5469       5480       5479       5589       5590       5601       5600  
      5469       5470       5481       5480       5590       5591       5602       5601  
      5470       5471       5482       5481       5591       5592       5603       5602  
      5471       5472       5483       5482       5592       5593       5604       5603  
      5472       5473       5484       5483       5593       5594       5605       5604  
      5473       5474       5485       5484       5594       5595       5606       5605  
      5474       5475       5486       5485       5595       5596       5607       5606  
      5475       5476       5487       5486       5596       5597       5608       5607  
      5476       5477       5488       5487       5597       5598       5609       5608  
      5477       5478       5489       5488       5598       5599       5610       5609  
      5479       5480       5491       5490       5600       5601       5612       5611  
      5480       5481       5492       5491       5601       5602       5613       5612  
      5481       5482       5493       5492       5602       5603       5614       5613  
      5482       5483       5494       5493       5603       5604       5615       5614  
      5483       5484       5495       5494       5604       5605       5616       5615  
      5484       5485       5496       5495       5605       5606       5617       5616  
      5485       5486       5497       5496       5606       5607       5618       5617  
      5486       5487       5498       5497       5607       5608       5619       5618  
      5487       5488       5499       5498       5608       5609       5620       5619  
      5488       5489       5500       5499       5609       5610       5621       5620  
      5490       5491       5502       5501       5611       5612       5623       5622  
      5491       5492       5503       5502       5612       5613       5624       5623  
      5492       5493       5504       5503       5613       5614       5625       5624  
      5493       5494       5505       5504       5614       5615       5626       5625  
      5494       5495       5506       5505       5615       5616       5627       5626  
      5495       5496       5507       5506       5616       5617       5628       5627  
      5496       5497       5508       5507       5617       5618       5629       5628  
      5497       5498       5509       5508       5618       5619       5630       5629  
      5498       5499       5510       5509       5619       5620       5631       5630  
      5499       5500       5511       5510       5620       5621       5632       5631  
      5501       5502       5513       5512       5622       5623       5634       5633  
      5502       5503       5514       5513       5623       5624       5635       5634  
      5503       5504       5515       5514       5624       5625       5636       5635  
      5504       5505       5516       5515       5625       5626       5637       5636  
      5505       5506       5517       5516       5626       5627       5638       5637  
      5506       5507       5518       5517       5627       5628       5639       5638  
      5507       5508       5519       5518       5628       5629       5640       5639  
      5508       5509       5520       5519       5629       5630       5641       5640  
      5509       5510       5521       5520       5630       5631       5642       5641  
      5510       5511       5522       5521       5631       5632       5643       5642  
      5512       5513       5524       5523       5633       5634       5645       5644  
      5513       5514       5525       5524       5634       5635       5646       5645  
      5514       5515       5526       5525       5635       5636       5647       5646  
      5515       5516       5527       5526       5636       5637       5648       5647  
      5516       5517       5528       5527       5637       5638       5649       5648  
      5517       5518       5529       5528       5638       5639       5650       5649  
      5518       5519       5530       5529       5639       5640       5651       5650  
      5519       5520       5531       5530       5640       5641       5652       5651  
      5520       5521       5532       5531       5641       5642       5653       5652  
      5521       5522       5533       5532       5642       5643       5654       5653  
      5523       5524       5535       5534       5644       5645       5656       5655  
      5524       5525       5536       5535       5645       5646       5657       5656  
      5525       5526       5537       5536       5646       5647       5658       5657  
      5526       5527       5538       5537       5647       5648       5659       5658  
      5527       5528       5539       5538       5648       5649       5660       5659  
      5528       5529       5540       5539       5649       5650       5661       5660  
      5529       5530       5541       5540       5650       5651       5662       5661  
      5530       5531       5542       5541       5651       5652       5663       5662  
      5531       5532       5543       5542       5652       5653       5664       5663  
      5532       5533       5544       5543       5653       5654       5665       5664  
      5534       5535       5546       5545       5655       5656       5667       5666  
      5535       5536       5547       5546       5656       5657       5668       5667  
      5536       5537       5548       5547       5657       5658       5669       5668  
      5537       5538       5549       5548       5658       5659       5670       5669  
      5538       5539       5550       5549       5659       5660       5671       5670  
      5539       5540       5551       5550       5660       5661       5672       5671  
      5540       5541       5552       5551       5661       5662       5673       5672  
      5541       5542       5553       5552       5662       5663       5674       5673  
      5542       5543       5554       5553       5663       5664       5675       5674  
      5543       5544       5555       5554       5664       5665       5676       5675  
      5545       5546       5557       5556       5666       5667       5678       5677  
      5546       5547       5558       5557       5667       5668       5679       5678  
      5547       5548       5559       5558       5668       5669       5680       5679  
      5548       5549       5560       5559       5669       5670       5681       5680  
      5549       5550       5561       5560       5670       5671       5682       5681  
      5550       5551       5562       5561       5671       5672       5683       5682  
      5551       5552       5563       5562       5672       5673       5684       5683  
      5552       5553       5564       5563       5673       5674       5685       5684  
      5553       5554       5565       5564       5674       5675       5686       5685  
      5554       5555       5566       5565       5675       5676       5687       5686  
      5567       5568       5579       5578       5688       5689       5700       5699  
      5568       5569       5580       5579       5689       5690       5701       5700  
      5569       5570       5581       5580       5690       5691       5702       5701  
      5570       5571       5582       5581       5691       5692       5703       5702  
      5571       5572       5583       5582       5692       5693       5704       5703  
      5572       5573       5584       5583       5693       5694       5705       5704  
      5573       5574       5585       5584       5694       5695       5706       5705  
      5574       5575       5586       5585       5695       5696       5707       5706  
      5575       5576       5587       5586       5696       5697       5708       5707  
      5576       5577       5588       5587       5697       5698       5709       5708  
      5578       5579       5590       5589       5699       5700       5711       5710  
      5579       5580       5591       5590       5700       5701       5712       5711  
      5580       5581       5592       5591       5701       5702       5713       5712  
      5581       5582       5593       5592       5702       5703       5714       5713  
      5582       5583       5594       5593       5703       5704       5715       5714  
      5583       5584       5595       5594       5704       5705       5716       5715  
      5584       5585       5596       5595       5705       5706       5717       5716  
      5585       5586       5597       5596       5706       5707       5718       5717  
      5586       5587       5598       5597       5707       5708       5719       5718  
      5587       5588       5599       5598       5708       5709       5720       5719  
      5589       5590       5601       5600       5710       5711       5722       5721  
      5590       5591       5602       5601       5711       5712       5723       5722  
      5591       5592       5603       5602       5712       5713       5724       5723  
      5592       5593       5604       5603       5713       5714       5725       5724  
      5593       5594       5605       5604       5714       5715       5726       5725  
      5594       5595       5606       5605       5715       5716       5727       5726  
      5595       5596       5607       5606       5716       5717       5728       5727  
      5596       5597       5608       5607       5717       5718       5729       5728  
      5597       5598       5609       5608       5718       5719       5730       5729  
      5598       5599       5610       5609       5719       5720       5731       5730  
      5600       5601       5612       5611       5721       5722       5733       5732  
      5601       5602       5613       5612       5722       5723       5734       5733  
      5602       5603       5614       5613       5723       5724       5735       5734  
      5603       5604       5615       5614       5724       5725       5736       5735  
      5604       5605       5616       5615       5725       5726       5737       5736  
      5605       5606       5617       5616       5726       5727       5738       5737  
      5606       5607       5618       5617       5727       5728       5739       5738  
      5607       5608       5619       5618       5728       5729       5740       5739  
      5608       5609       5620       5619       5729       5730       5741       5740  
      5609       5610       5621       5620       5730       5731       5742       5741  
      5611       5612       5623       5622       5732       5733       5744       5743  
      5612       5613       5624       5623       5733       5734       5745       5744  
      5613       5614       5625       5624       5734       5735       5746       5745  
      5614       5615       5626       5625       5735       5736       5747       5746  
      5615       5616       5627       5626       5736       5737       5748       5747  
      5616       5617       5628       5627       5737       5738       5749       5748  
      5617       5618       5629       5628       5738       5739       5750       5749  
      5618       5619       5630       5629       5739       5740       5751       5750  
      5619       5620       5631       5630       5740       5741       5752       5751  
      5620       5621       5632       5631       5741       5742       5753       5752  
      5622       5623       5634       5633       5743       5744       5755       5754  
      5623       5624       5635       5634       5744       5745       5756       5755  
      5624       5625       5636       5635       5745       5746       5757       5756  
      5625       5626       5637       5636       5746       5747       5758       5757  
      5626       5627       5638       5637       5747       5748       5759       5758  
      5627       5628       5639       5638       5748       5749       5760       5759  
      5628       5629       5640       5639       5749       5750       5761       5760  
      5629       5630       5641       5640       5750       5751       5762       5761  
      5630       5631       5642       5641       5751       5752       5763       5762  
      5631       5632       5643       5642       5752       5753       5764       5763  
      5633       5634       5645       5644       5754       5755       5766       5765  
      5634       5635       5646       5645       5755       5756       5767       5766  
      5635       5636       5647       5646       5756       5757       5768       5767  
      5636       5637       5648       5647       5757       5758       5769       5768  
      5637       5638       5649       5648       5758       5759       5770       5769  
      5638       5639       5650       5649       5759       5760       5771       5770  
      5639       5640       5651       5650       5760       5761       5772       5771  
      5640       5641       5652       5651       5761       5762       5773       5772  
      5641       5642       5653       5652       5762       5763       5774       5773  
      5642       5643       5654       5653       5763       5764       5775       5774  
      5644       5645       5656       5655       5765       5766       5777       5776  
      5645       5646       5657       5656       5766       5767       5778       5777  
      5646       5647       5658       5657       5767       5768       5779       5778  
      5647       5648       5659       5658       5768       5769       5780       5779  
      5648       5649       5660       5659       5769       5770       5781       5780  
      5649       5650       5661       5660       5770       5771       5782       5781  
      5650       5651       5662       5661       5771       5772       5783       5782  
      5651       5652       5663       5662       5772       5773       5784       5783  
      5652       5653       5664       5663       5773       5774       5785       5784  
      5653       5654       5665       5664       5774       5775       5786       5785  
      5655       5656       5667       5666       5776       5777       5788       5787  
      5656       5657       5668       5667       5777       5778       5789       5788  
      5657       5658       5669       5668       5778       5779       5790       5789  
      5658       5659       5670       5669       5779       5780       5791       5790  
      5659       5660       5671       5670       5780       5781       5792       5791  
      5660       5661       5672       5671       5781       5782       5793       5792  
      5661       5662       5673       5672       5782       5783       5794       5793  
      5662       5663       5674       5673       5783       5784       5795       5794  
      5663       5664       5675       5674       5784       5785       5796       5795  
      5664       5665       5676       5675       5785       5786       5797       5796  
      5666       5667       5678       5677       5787       5788       5799       5798  
      5667       5668       5679       5678       5788       5789       5800       5799  
      5668       5669       5680       5679       5789       5790       5801       5800  
      5669       5670       5681       5680       5790       5791       5802       5801  
      5670       5671       5682       5681       5791       5792       5803       5802  
      5671       5672       5683       5682       5792       5793       5804       5803  
      5672       5673       5684       5683       5793       5794       5805       5804  
      5673       5674       5685       5684       5794       5795       5806       5805  
      5674       5675       5686       5685       5795       5796       5807       5806  
      5675       5676       5687       5686       5796       5797       5808       5807  
      5688       5689       5700       5699       5809       5810       5821       5820  
      5689       5690       5701       5700       5810       5811       5822       5821  
      5690       5691       5702       5701       5811       5812       5823       5822  
      5691       5692       5703       5702       5812       5813       5824       5823  
      5692       5693       5704       5703       5813       5814       5825       5824  
      5693       5694       5705       5704       5814       5815       5826       5825  
      5694       5695       5706       5705       5815       5816       5827       5826  
      5695       5696       5707       5706       5816       5817       5828       5827  
      5696       5697       5708       5707       5817       5818       5829       5828  
      5697       5698       5709       5708       5818       5819       5830       5829  
      5699       5700       5711       5710       5820       5821       5832       5831  
      5700       5701       5712       5711       5821       5822       5833       5832  
      5701       5702       5713       5712       5822       5823       5834       5833  
      5702       5703       5714       5713       5823       5824       5835       5834  
      5703       5704       5715       5714       5824       5825       5836       5835  
      5704       5705       5716       5715       5825       5826       5837       5836  
      5705       5706       5717       5716       5826       5827       5838       5837  
      5706       5707       5718       5717       5827       5828       5839       5838  
      5707       5708       5719       5718       5828       5829       5840       5839  
      5708       5709       5720       5719       5829       5830       5841       5840  
      5710       5711       5722       5721       5831       5832       5843       5842  
      5711       5712       5723       5722       5832       5833       5844       5843  
      5712       5713       5724       5723       5833       5834       5845       5844  
      5713       5714       5725       5724       5834       5835       5846       5845  
      5714       5715       5726       5725       5835       5836       5847       5846  
      5715       5716       5727       5726       5836       5837       5848       5847  
      5716       5717       5728       5727       5837       5838       5849       5848  
      5717       5718       5729       5728       5838       5839       5850       5849  
      5718       5719       5730       5729       5839       5840       5851       5850  
      5719       5720       5731       5730       5840       5841       5852       5851  
      5721       5722       5733       5732       5842       5843       5854       5853  
      5722       5723       5734       5733       5843       5844       5855       5854  
      5723       5724       5735       5734       5844       5845       5856       5855  
      5724       5725       5736       5735       5845       5846       5857       5856  
      5725       5726       5737       5736       5846       5847       5858       5857  
      5726       5727       5738       5737       5847       5848       5859       5858  
      5727       5728       5739       5738       5848       5849       5860       5859  
      5728       5729       5740       5739       5849       5850       5861       5860  
      5729       5730       5741       5740       5850       5851       5862       5861  
      5730       5731       5742       5741       5851       5852       5863       5862  
      5732       5733       5744       5743       5853       5854       5865       5864  
      5733       5734       5745       5744       5854       5855       5866       5865  
      5734       5735       5746       5745       5855       5856       5867       5866  
      5735       5736       5747       5746       5856       5857       5868       5867  
      5736       5737       5748       5747       5857       5858       5869       5868  
      5737       5738       5749       5748       5858       5859       5870       5869  
      5738       5739       5750       5749       5859       5860       5871       5870  
      5739       5740       5751       5750       5860       5861       5872       5871  
      5740       5741       5752       5751       5861       5862       5873       5872  
      5741       5742       5753       5752       5862       5863       5874       5873  
      5743       5744       5755       5754       5864       5865       5876       5875  
      5744       5745       5756       5755       5865       5866       5877       5876  
      5745       5746       5757       5756       5866       5867       5878       5877  
      5746       5747       5758       5757       5867       5868       5879       5878  
      5747       5748       5759       5758       5868       5869       5880       5879  
      5748       5749       5760       5759       5869       5870       5881       5880  
      5749       5750       5761       5760       5870       5871       5882       5881  
      5750       5751       5762       5761       5871       5872       5883       5882  
      5751       5752       5763       5762       5872       5873       5884       5883  
      5752       5753       5764       5763       5873       5874       5885       5884  
      5754       5755       5766       5765       5875       5876       5887       5886  
      5755       5756       5767       5766       5876       5877       5888       5887  
      5756       5757       5768       5767       5877       5878       5889       5888  
      5757       5758       5769       5768       5878       5879       5890       5889  
      5758       5759       5770       5769       5879       5880       5891       5890  
      5759       5760       5771       5770       5880       5881       5892       5891  
      5760       5761       5772       5771       5881       5882       5893       5892  
      5761       5762       5773       5772       5882       5883       5894       5893  
      5762       5763       5774       5773       5883       5884       5895       5894  
      5763       5764       5775       5774       5884       5885       5896       5895  
      5765       5766       5777       5776       5886       5887       5898       5897  
      5766       5767       5778       5777       5887       5888       5899       5898  
      5767       5768       5779       5778       5888       5889       5900       5899  
      5768       5769       5780       5779       5889       5890       5901       5900  
      5769       5770       5781       5780       5890       5891       5902       5901  
      5770       5771       5782       5781       5891       5892       5903       5902  
      5771       5772       5783       5782       5892       5893       5904       5903  
      5772       5773       5784       5783       5893       5894       5905       5904  
      5773       5774       5785       5784       5894       5895       5906       5905  
      5774       5775       5786       5785       5895       5896       5907       5906  
      5776       5777       5788       5787       5897       5898       5909       5908  
      5777       5778       5789       5788       5898       5899       5910       5909  
      5778       5779       5790       5789       5899       5900       5911       5910  
      5779       5780       5791       5790       5900       5901       5912       5911  
      5780       5781       5792       5791       5901       5902       5913       5912  
      5781       5782       5793       5792       5902       5903       5914       5913  
      5782       5783       5794       5793       5903       5904       5915       5914  
      5783       5784       5795       5794       5904       5905       5916       5915  
      5784       5785       5796       5795       5905       5906       5917       5916  
      5785       5786       5797       5796       5906       5907       5918       5917  
      5787       5788       5799       5798       5908       5909       5920       5919  
      5788       5789       5800       5799       5909       5910       5921       5920  
      5789       5790       5801       5800       5910       5911       5922       5921  
      5790       5791       5802       5801       5911       5912       5923       5922  
      5791       5792       5803       5802       5912       5913       5924       5923  
      5792       5793       5804       5803       5913       5914       5925       5924  
      5793       5794       5805       5804       5914       5915       5926       5925  
      5794       5795       5806       5805       5915       5916       5927       5926  
      5795       5796       5807       5806       5916       5917       5928       5927  
      5796       5797       5808       5807       5917       5918       5929       5928  
      5809       5810       5821       5820       5930       5931       5942       5941  
      5810       5811       5822       5821       5931       5932       5943       5942  
      5811       5812       5823       5822       5932       5933       5944       5943  
      5812       5813       5824       5823       5933       5934       5945       5944  
      5813       5814       5825       5824       5934       5935       5946       5945  
      5814       5815       5826       5825       5935       5936       5947       5946  
      5815       5816       5827       5826       5936       5937       5948       5947  
      5816       5817       5828       5827       5937       5938       5949       5948  
      5817       5818       5829       5828       5938       5939       5950       5949  
      5818       5819       5830       5829       5939       5940       5951       5950  
      5820       5821       5832       5831       5941       5942       5953       5952  
      5821       5822       5833       5832       5942       5943       5954       5953  
      5822       5823       5834       5833       5943       5944       5955       5954  
      5823       5824       5835       5834       5944       5945       5956       5955  
      5824       5825       5836       5835       5945       5946       5957       5956  
      5825       5826       5837       5836       5946       5947       5958       5957  
      5826       5827       5838       5837       5947       5948       5959       5958  
      5827       5828       5839       5838       5948       5949       5960       5959  
      5828       5829       5840       5839       5949       5950       5961       5960  
      5829       5830       5841       5840       5950       5951       5962       5961  
      5831       5832       5843       5842       5952       5953       5964       5963  
      5832       5833       5844       5843       5953       5954       5965       5964  
      5833       5834       5845       5844       5954       5955       5966       5965  
      5834       5835       5846       5845       5955       5956       5967       5966  
      5835       5836       5847       5846       5956       5957       5968       5967  
      5836       5837       5848       5847       5957       5958       5969       5968  
      5837       5838       5849       5848       5958       5959       5970       5969  
      5838       5839       5850       5849       5959       5960       5971       5970  
      5839       5840       5851       5850       5960       5961       5972       5971  
      5840       5841       5852       5851       5961       5962       5973       5972  
      5842       5843       5854       5853       5963       5964       5975       5974  
      5843       5844       5855       5854       5964       5965       5976       5975  
      5844       5845       5856       5855       5965       5966       5977       5976  
      5845       5846       5857       5856       5966       5967       5978       5977  
      5846       5847       5858       5857       5967       5968       5979       5978  
      5847       5848       5859       5858       5968       5969       5980       5979  
      5848       5849       5860       5859       5969       5970       5981       5980  
      5849       5850       5861       5860       5970       5971       5982       5981  
      5850       5851       5862       5861       5971       5972       5983       5982  
      5851       5852       5863       5862       5972       5973       5984       5983  
      5853       5854       5865       5864       5974       5975       5986       5985  
      5854       5855       5866       5865       5975       5976       5987       5986  
      5855       5856       5867       5866       5976       5977       5988       5987  
      5856       5857       5868       5867       5977       5978       5989       5988  
      5857       5858       5869       5868       5978       5979       5990       5989  
      5858       5859       5870       5869       5979       5980       5991       5990  
      5859       5860       5871       5870       5980       5981       5992       5991  
      5860       5861       5872       5871       5981       5982       5993       5992  
      5861       5862       5873       5872       5982       5983       5994       5993  
      5862       5863       5874       5873       5983       5984       5995       5994  
      5864       5865       5876       5875       5985       5986       5997       5996  
      5865       5866       5877       5876       5986       5987       5998       5997  
      5866       5867       5878       5877       5987       5988       5999       5998  
      5867       5868       5879       5878       5988       5989       6000       5999  
      5868       5869       5880       5879       5989       5990       6001       6000  
      5869       5870       5881       5880       5990       5991       6002       6001  
      5870       5871       5882       5881       5991       5992       6003       6002  
      5871       5872       5883       5882       5992       5993       6004       6003  
      5872       5873       5884       5883       5993       5994       6005       6004  
      5873       5874       5885       5884       5994       5995       6006       6005  
      5875       5876       5887       5886       5996       5997       6008       6007  
      5876       5877       5888       5887       5997       5998       6009       6008  
      5877       5878       5889       5888       5998       5999       6010       6009  
      5878       5879       5890       5889       5999       6000       6011       6010  
      5879       5880       5891       5890       6000       6001       6012       6011  
      5880       5881       5892       5891       6001       6002       6013       6012  
      5881       5882       5893       5892       6002       6003       6014       6013  
      5882       5883       5894       5893       6003       6004       6015       6014  
      5883       5884       5895       5894       6004       6005       6016       6015  
      5884       5885       5896       5895       6005       6006       6017       6016  
      5886       5887       5898       5897       6007       6008       6019       6018  
      5887       5888       5899       5898       6008       6009       6020       6019  
      5888       5889       5900       5899       6009       6010       6021       6020  
      5889       5890       5901       5900       6010       6011       6022       6021  
      5890       5891       5902       5901       6011       6012       6023       6022  
      5891       5892       5903       5902       6012       6013       6024       6023  
      5892       5893       5904       5903       6013       6014       6025       6024  
      5893       5894       5905       5904       6014       6015       6026       6025  
      5894       5895       5906       5905       6015       6016       6027       6026  
      5895       5896       5907       5906       6016       6017       6028       6027  
      5897       5898       5909       5908       6018       6019       6030       6029  
      5898       5899       5910       5909       6019       6020       6031       6030  
      5899       5900       5911       5910       6020       6021       6032       6031  
      5900       5901       5912       5911       6021       6022       6033       6032  
      5901       5902       5913       5912       6022       6023       6034       6033  
      5902       5903       5914       5913       6023       6024       6035       6034  
      5903       5904       5915       5914       6024       6025       6036       6035  
      5904       5905       5916       5915       6025       6026       6037       6036  
      5905       5906       5917       5916       6026       6027       6038       6037  
      5906       5907       5918       5917       6027       6028       6039       6038  
      5908       5909       5920       5919       6029       6030       6041       6040  
      5909       5910       5921       5920       6030       6031       6042       6041  
      5910       5911       5922       5921       6031       6032       6043       6042  
      5911       5912       5923       5922       6032       6033       6044       6043  
      5912       5913       5924       5923       6033       6034       6045       6044  
      5913       5914       5925       5924       6034       6035       6046       6045  
      5914       5915       5926       5925       6035       6036       6047       6046  
      5915       5916       5927       5926       6036       6037       6048       6047  
      5916       5917       5928       5927       6037       6038       6049       6048  
      5917       5918       5929       5928       6038       6039       6050       6049  
      5930       5931       5942       5941       6051       6052       6063       6062  
      5931       5932       5943       5942       6052       6053       6064       6063  
      5932       5933       5944       5943       6053       6054       6065       6064  
      5933       5934       5945       5944       6054       6055       6066       6065  
      5934       5935       5946       5945       6055       6056       6067       6066  
      5935       5936       5947       5946       6056       6057       6068       6067  
      5936       5937       5948       5947       6057       6058       6069       6068  
      5937       5938       5949       5948       6058       6059       6070       6069  
      5938       5939       5950       5949       6059       6060       6071       6070  
      5939       5940       5951       5950       6060       6061       6072       6071  
      5941       5942       5953       5952       6062       6063       6074       6073  
      5942       5943       5954       5953       6063       6064       6075       6074  
      5943       5944       5955       5954       6064       6065       6076       6075  
      5944       5945       5956       5955       6065       6066       6077       6076  
      5945       5946       5957       5956       6066       6067       6078       6077  
      5946       5947       5958       5957       6067       6068       6079       6078  
      5947       5948       5959       5958       6068       6069       6080       6079  
      5948       5949       5960       5959       6069       6070       6081       6080  
      5949       5950       5961       5960       6070       6071       6082       6081  
      5950       5951       5962       5961       6071       6072       6083       6082  
      5952       5953       5964       5963       6073       6074       6085       6084  
      5953       5954       5965       5964       6074       6075       6086       6085  
      5954       5955       5966       5965       6075       6076       6087       6086  
      5955       5956       5967       5966       6076       6077       6088       6087  
      5956       5957       5968       5967       6077       6078       6089       6088  
      5957       5958       5969       5968       6078       6079       6090       6089  
      5958       5959       5970       5969       6079       6080       6091       6090  
      5959       5960       5971       5970       6080       6081       6092       6091  
      5960       5961       5972       5971       6081       6082       6093       6092  
      5961       5962       5973       5972       6082       6083       6094       6093  
      5963       5964       5975       5974       6084       6085       6096       6095  
      5964       5965       5976       5975       6085       6086       6097       6096  
      5965       5966       5977       5976       6086       6087       6098       6097  
      5966       5967       5978       5977       6087       6088       6099       6098  
      5967       5968       5979       5978       6088       6089       6100       6099  
      5968       5969       5980       5979       6089       6090       6101       6100  
      5969       5970       5981       5980       6090       6091       6102       6101  
      5970       5971       5982       5981       6091       6092       6103       6102  
      5971       5972       5983       5982       6092       6093       6104       6103  
      5972       5973       5984       5983       6093       6094       6105       6104  
      5974       5975       5986       5985       6095       6096       6107       6106  
      5975       5976       5987       5986       6096       6097       6108       6107  
      5976       5977       5988       5987       6097       6098       6109       6108  
      5977       5978       5989       5988       6098       6099       6110       6109  
      5978       5979       5990       5989       6099       6100       6111       6110  
      5979       5980       5991       5990       6100       6101       6112       6111  
      5980       5981       5992       5991       6101       6102       6113       6112  
      5981       5982       5993       5992       6102       6103       6114       6113  
      5982       5983       5994       5993       6103       6104       6115       6114  
      5983       5984       5995       5994       6104       6105       6116       6115  
      5985       5986       5997       5996       6106       6107       6118       6117  
      5986       5987       5998       5997       6107       6108       6119       6118  
      5987       5988       5999       5998       6108       6109       6120       6119  
      5988       5989       6000       5999       6109       6110       6121       6120  
      5989       5990       6001       6000       6110       6111       6122       6121  
      5990       5991       6002       6001       6111       6112       6123       6122  
      5991       5992       6003       6002       6112       6113       6124       6123  
      5992       5993       6004       6003       6113       6114       6125       6124  
      5993       5994       6005       6004       6114       6115       6126       6125  
      5994       5995       6006       6005       6115       6116       6127       6126  
      5996       5997       6008       6007       6117       6118       6129       6128  
      5997       5998       6009       6008       6118       6119       6130       6129  
      5998       5999       6010       6009       6119       6120       6131       6130  
      5999       6000       6011       6010       6120       6121       6132       6131  
      6000       6001       6012       6011       6121       6122       6133       6132  
      6001       6002       6013       6012       6122       6123       6134       6133  
      6002       6003       6014       6013       6123       6124       6135       6134  
      6003       6004       6015       6014       6124       6125       6136       6135  
      6004       6005       6016       6015       6125       6126       6137       6136  
      6005       6006       6017       6016       6126       6127       6138       6137  
      6007       6008       6019       6018       6128       6129       6140       6139  
      6008       6009       6020       6019       6129       6130       6141       6140  
      6009       6010       6021       6020       6130       6131       6142       6141  
      6010       6011       6022       6021       6131       6132       6143       6142  
      6011       6012       6023       6022       6132       6133       6144       6143  
      6012       6013       6024       6023       6133       6134       6145       6144  
      6013       6014       6025       6024       6134       6135       6146       6145  
      6014       6015       6026       6025       6135       6136       6147       6146  
      6015       6016       6027       6026       6136       6137       6148       6147  
      6016       6017       6028       6027       6137       6138       6149       6148  
      6018       6019       6030       6029       6139       6140       6151       6150  
      6019       6020       6031       6030       6140       6141       6152       6151  
      6020       6021       6032       6031       6141       6142       6153       6152  
      6021       6022       6033       6032       6142       6143       6154       6153  
      6022       6023       6034       6033       6143       6144       6155       6154  
      6023       6024       6035       6034       6144       6145       6156       6155  
      6024       6025       6036       6035       6145       6146       6157       6156  
      6025       6026       6037       6036       6146       6147       6158       6157  
      6026       6027       6038       6037       6147       6148       6159       6158  
      6027       6028       6039       6038       6148       6149       6160       6159  
      6029       6030       6041       6040       6150       6151       6162       6161  
      6030       6031       6042       6041       6151       6152       6163       6162  
      6031       6032       6043       6042       6152       6153       6164       6163  
      6032       6033       6044       6043       6153       6154       6165       6164  
      6033       6034       6045       6044       6154       6155       6166       6165  
      6034       6035       6046       6045       6155       6156       6167       6166  
      6035       6036       6047       6046       6156       6157       6168       6167  
      6036       6037       6048       6047       6157       6158       6169       6168  
      6037       6038       6049       6048       6158       6159       6170       6169  
      6038       6039       6050       6049       6159       6160       6171       6170  
      6051       6052       6063       6062       6172       6173       6184       6183  
      6052       6053       6064       6063       6173       6174       6185       6184  
      6053       6054       6065       6064       6174       6175       6186       6185  
      6054       6055       6066       6065       6175       6176       6187       6186  
      6055       6056       6067       6066       6176       6177       6188       6187  
      6056       6057       6068       6067       6177       6178       6189       6188  
      6057       6058       6069       6068       6178       6179       6190       6189  
      6058       6059       6070       6069       6179       6180       6191       6190  
      6059       6060       6071       6070       6180       6181       6192       6191  
      6060       6061       6072       6071       6181       6182       6193       6192  
      6062       6063       6074       6073       6183       6184       6195       6194  
      6063       6064       6075       6074       6184       6185       6196       6195  
      6064       6065       6076       6075       6185       6186       6197       6196  
      6065       6066       6077       6076       6186       6187       6198       6197  
      6066       6067       6078       6077       6187       6188       6199       6198  
      6067       6068       6079       6078       6188       6189       6200       6199  
      6068       6069       6080       6079       6189       6190       6201       6200  
      6069       6070       6081       6080       6190       6191       6202       6201  
      6070       6071       6082       6081       6191       6192       6203       6202  
      6071       6072       6083       6082       6192       6193       6204       6203  
      6073       6074       6085       6084       6194       6195       6206       6205  
      6074       6075       6086       6085       6195       6196       6207       6206  
      6075       6076       6087       6086       6196       6197       6208       6207  
      6076       6077       6088       6087       6197       6198       6209       6208  
      6077       6078       6089       6088       6198       6199       6210       6209  
      6078       6079       6090       6089       6199       6200       6211       6210  
      6079       6080       6091       6090       6200       6201       6212       6211  
      6080       6081       6092       6091       6201       6202       6213       6212  
      6081       6082       6093       6092       6202       6203       6214       6213  
      6082       6083       6094       6093       6203       6204       6215       6214  
      6084       6085       6096       6095       6205       6206       6217       6216  
      6085       6086       6097       6096       6206       6207       6218       6217  
      6086       6087       6098       6097       6207       6208       6219       6218  
      6087       6088       6099       6098       6208       6209       6220       6219  
      6088       6089       6100       6099       6209       6210       6221       6220  
      6089       6090       6101       6100       6210       6211       6222       6221  
      6090       6091       6102       6101       6211       6212       6223       6222  
      6091       6092       6103       6102       6212       6213       6224       6223  
      6092       6093       6104       6103       6213       6214       6225       6224  
      6093       6094       6105       6104       6214       6215       6226       6225  
      6095       6096       6107       6106       6216       6217       6228       6227  
      6096       6097       6108       6107       6217       6218       6229       6228  
      6097       6098       6109       6108       6218       6219       6230       6229  
      6098       6099       6110       6109       6219       6220       6231       6230  
      6099       6100       6111       6110       6220       6221       6232       6231  
      6100       6101       6112       6111       6221       6222       6233       6232  
      6101       6102       6113       6112       6222       6223       6234       6233  
      6102       6103       6114       6113       6223       6224       6235       6234  
      6103       6104       6115       6114       6224       6225       6236       6235  
      6104       6105       6116       6115       6225       6226       6237       6236  
      6106       6107       6118       6117       6227       6228       6239       6238  
      6107       6108       6119       6118       6228       6229       6240       6239  
      6108       6109       6120       6119       6229       6230       6241       6240  
      6109       6110       6121       6120       6230       6231       6242       6241  
      6110       6111       6122       6121       6231       6232       6243       6242  
      6111       6112       6123       6122       6232       6233       6244       6243  
      6112       6113       6124       6123       6233       6234       6245       6244  
      6113       6114       6125       6124       6234       6235       6246       6245  
      6114       6115       6126       6125       6235       6236       6247       6246  
      6115       6116       6127       6126       6236       6237       6248       6247  
      6117       6118       6129       6128       6238       6239       6250       6249  
      6118       6119       6130       6129       6239       6240       6251       6250  
      6119       6120       6131       6130       6240       6241       6252       6251  
      6120       6121       6132       6131       6241       6242       6253       6252  
      6121       6122       6133       6132       6242       6243       6254       6253  
      6122       6123       6134       6133       6243       6244       6255       6254  
      6123       6124       6135       6134       6244       6245       6256       6255  
      6124       6125       6136       6135       6245       6246       6257       6256  
      6125       6126       6137       6136       6246       6247       6258       6257  
      6126       6127       6138       6137       6247       6248       6259       6258  
      6128       6129       6140       6139       6249       6250       6261       6260  
      6129       6130       6141       6140       6250       6251       6262       6261  
      6130       6131       6142       6141       6251       6252       6263       6262  
      6131       6132       6143       6142       6252       6253       6264       6263  
      6132       6133       6144       6143       6253       6254       6265       6264  
      6133       6134       6145       6144       6254       6255       6266       6265  
      6134       6135       6146       6145       6255       6256       6267       6266  
      6135       6136       6147       6146       6256       6257       6268       6267  
      6136       6137       6148       6147       6257       6258       6269       6268  
      6137       6138       6149       6148       6258       6259       6270       6269  
      6139       6140       6151       6150       6260       6261       6272       6271  
      6140       6141       6152       6151       6261       6262       6273       6272  
      6141       6142       6153       6152       6262       6263       6274       6273  
      6142       6143       6154       6153       6263       6264       6275       6274  
      6143       6144       6155       6154       6264       6265       6276       6275  
      6144       6145       6156       6155       6265       6266       6277       6276  
      6145       6146       6157       6156       6266       6267       6278       6277  
      6146       6147       6158       6157       6267       6268       6279       6278  
      6147       6148       6159       6158       6268       6269       6280       6279  
      6148       6149       6160       6159       6269       6270       6281       6280  
      6150       6151       6162       6161       6271       6272       6283       6282  
      6151       6152       6163       6162       6272       6273       6284       6283  
      6152       6153       6164       6163       6273       6274       6285       6284  
      6153       6154       6165       6164       6274       6275       6286       6285  
      6154       6155       6166       6165       6275       6276       6287       6286  
      6155       6156       6167       6166       6276       6277       6288       6287  
      6156       6157       6168       6167       6277       6278       6289       6288  
      6157       6158       6169       6168       6278       6279       6290       6289  
      6158       6159       6170       6169       6279       6280       6291       6290  
      6159       6160       6171       6170       6280       6281       6292       6291  
      6172       6173       6184       6183       6293       6294       6305       6304  
      6173       6174       6185       6184       6294       6295       6306       6305  
      6174       6175       6186       6185       6295       6296       6307       6306  
      6175       6176       6187       6186       6296       6297       6308       6307  
      6176       6177       6188       6187       6297       6298       6309       6308  
      6177       6178       6189       6188       6298       6299       6310       6309  
      6178       6179       6190       6189       6299       6300       6311       6310  
      6179       6180       6191       6190       6300       6301       6312       6311  
      6180       6181       6192       6191       6301       6302       6313       6312  
      6181       6182       6193       6192       6302       6303       6314       6313  
      6183       6184       6195       6194       6304       6305       6316       6315  
      6184       6185       6196       6195       6305       6306       6317       6316  
      6185       6186       6197       6196       6306       6307       6318       6317  
      6186       6187       6198       6197       6307       6308       6319       6318  
      6187       6188       6199       6198       6308       6309       6320       6319  
      6188       6189       6200       6199       6309       6310       6321       6320  
      6189       6190       6201       6200       6310       6311       6322       6321  
      6190       6191       6202       6201       6311       6312       6323       6322  
      6191       6192       6203       6202       6312       6313       6324       6323  
      6192       6193       6204       6203       6313       6314       6325       6324  
      6194       6195       6206       6205       6315       6316       6327       6326  
      6195       6196       6207       6206       6316       6317       6328       6327  
      6196       6197       6208       6207       6317       6318       6329       6328  
      6197       6198       6209       6208       6318       6319       6330       6329  
      6198       6199       6210       6209       6319       6320       6331       6330  
      6199       6200       6211       6210       6320       6321       6332       6331  
      6200       6201       6212       6211       6321       6322       6333       6332  
      6201       6202       6213       6212       6322       6323       6334       6333  
      6202       6203       6214       6213       6323       6324       6335       6334  
      6203       6204       6215       6214       6324       6325       6336       6335  
      6205       6206       6217       6216       6326       6327       6338       6337  
      6206       6207       6218       6217       6327       6328       6339       6338  
      6207       6208       6219       6218       6328       6329       6340       6339  
      6208       6209       6220       6219       6329       6330       6341       6340  
      6209       6210       6221       6220       6330       6331       6342       6341  
      6210       6211       6222       6221       6331       6332       6343       6342  
      6211       6212       6223       6222       6332       6333       6344       6343  
      6212       6213       6224       6223       6333       6334       6345       6344  
      6213       6214       6225       6224       6334       6335       6346       6345  
      6214       6215       6226       6225       6335       6336       6347       6346  
      6216       6217       6228       6227       6337       6338       6349       6348  
      6217       6218       6229       6228       6338       6339       6350       6349  
      6218       6219       6230       6229       6339       6340       6351       6350  
      6219       6220       6231       6230       6340       6341       6352       6351  
      6220       6221       6232       6231       6341       6342       6353       6352  
      6221       6222       6233       6232       6342       6343       6354       6353  
      6222       6223       6234       6233       6343       6344       6355       6354  
      6223       6224       6235       6234       6344       6345       6356       6355  
      6224       6225       6236       6235       6345       6346       6357       6356  
      6225       6226       6237       6236       6346       6347       6358       6357  
      6227       6228       6239       6238       6348       6349       6360       6359  
      6228       6229       6240       6239       6349       6350       6361       6360  
      6229       6230       6241       6240       6350       6351       6362       6361  
      6230       6231       6242       6241       6351       6352       6363       6362  
      6231       6232       6243       6242       6352       6353       6364       6363  
      6232       6233       6244       6243       6353       6354       6365       6364  
      6233       6234       6245       6244       6354       6355       6366       6365  
      6234       6235       6246       6245       6355       6356       6367       6366  
      6235       6236       6247       6246       6356       6357       6368       6367  
      6236       6237       6248       6247       6357       6358       6369       6368  
      6238       6239       6250       6249       6359       6360       6371       6370  
      6239       6240       6251       6250       6360       6361       6372       6371  
      6240       6241       6252       6251       6361       6362       6373       6372  
      6241       6242       6253       6252       6362       6363       6374       6373  
      6242       6243       6254       6253       6363       6364       6375       6374  
      6243       6244       6255       6254       6364       6365       6376       6375  
      6244       6245       6256       6255       6365       6366       6377       6376  
      6245       6246       6257       6256       6366       6367       6378       6377  
      6246       6247       6258       6257       6367       6368       6379       6378  
      6247       6248       6259       6258       6368       6369       6380       6379  
      6249       6250       6261       6260       6370       6371       6382       6381  
      6250       6251       6262       6261       6371       6372       6383       6382  
      6251       6252       6263       6262       6372       6373       6384       6383  
      6252       6253       6264       6263       6373       6374       6385       6384  
      6253       6254       6265       6264       6374       6375       6386       6385  
      6254       6255       6266       6265       6375       6376       6387       6386  
      6255       6256       6267       6266       6376       6377       6388       6387  
      6256       6257       6268       6267       6377       6378       6389       6388  
      6257       6258       6269       6268       6378       6379       6390       6389  
      6258       6259       6270       6269       6379       6380       6391       6390  
      6260       6261       6272       6271       6381       6382       6393       6392  
      6261       6262       6273       6272       6382       6383       6394       6393  
      6262       6263       6274       6273       6383       6384       6395       6394  
      6263       6264       6275       6274       6384       6385       6396       6395  
      6264       6265       6276       6275       6385       6386       6397       6396  
      6265       6266       6277       6276       6386       6387       6398       6397  
      6266       6267       6278       6277       6387       6388       6399       6398  
      6267       6268       6279       6278       6388       6389       6400       6399  
      6268       6269       6280       6279       6389       6390       6401       6400  
      6269       6270       6281       6280       6390       6391       6402       6401  
      6271       6272       6283       6282       6392       6393       6404       6403  
      6272       6273       6284       6283       6393       6394       6405       6404  
      6273       6274       6285       6284       6394       6395       6406       6405  
      6274       6275       6286       6285       6395       6396       6407       6406  
      6275       6276       6287       6286       6396       6397       6408       6407  
      6276       6277       6288       6287       6397       6398       6409       6408  
      6277       6278       6289       6288       6398       6399       6410       6409  
      6278       6279       6290       6289       6399       6400       6411       6410  
      6279       6280       6291       6290       6400       6401       6412       6411  
      6280       6281       6292       6291       6401       6402       6413       6412  
      6293       6294       6305       6304       6414       6415       6426       6425  
      6294       6295       6306       6305       6415       6416       6427       6426  
      6295       6296       6307       6306       6416       6417       6428       6427  
      6296       6297       6308       6307       6417       6418       6429       6428  
      6297       6298       6309       6308       6418       6419       6430       6429  
      6298       6299       6310       6309       6419       6420       6431       6430  
      6299       6300       6311       6310       6420       6421       6432       6431  
      6300       6301       6312       6311       6421       6422       6433       6432  
      6301       6302       6313       6312       6422       6423       6434       6433  
      6302       6303       6314       6313       6423       6424       6435       6434  
      6304       6305       6316       6315       6425       6426       6437       6436  
      6305       6306       6317       6316       6426       6427       6438       6437  
      6306       6307       6318       6317       6427       6428       6439       6438  
      6307       6308       6319       6318       6428       6429       6440       6439  
      6308       6309       6320       6319       6429       6430       6441       6440  
      6309       6310       6321       6320       6430       6431       6442       6441  
      6310       6311       6322       6321       6431       6432       6443       6442  
      6311       6312       6323       6322       6432       6433       6444       6443  
      6312       6313       6324       6323       6433       6434       6445       6444  
      6313       6314       6325       6324       6434       6435       6446       6445  
      6315       6316       6327       6326       6436       6437       6448       6447  
      6316       6317       6328       6327       6437       6438       6449       6448  
      6317       6318       6329       6328       6438       6439       6450       6449  
      6318       6319       6330       6329       6439       6440       6451       6450  
      6319       6320       6331       6330       6440       6441       6452       6451  
      6320       6321       6332       6331       6441       6442       6453       6452  
      6321       6322       6333       6332       6442       6443       6454       6453  
      6322       6323       6334       6333       6443       6444       6455       6454  
      6323       6324       6335       6334       6444       6445       6456       6455  
      6324       6325       6336       6335       6445       6446       6457       6456  
      6326       6327       6338       6337       6447       6448       6459       6458  
      6327       6328       6339       6338       6448       6449       6460       6459  
      6328       6329       6340       6339       6449       6450       6461       6460  
      6329       6330       6341       6340       6450       6451       6462       6461  
      6330       6331       6342       6341       6451       6452       6463       6462  
      6331       6332       6343       6342       6452       6453       6464       6463  
      6332       6333       6344       6343       6453       6454       6465       6464  
      6333       6334       6345       6344       6454       6455       6466       6465  
      6334       6335       6346       6345       6455       6456       6467       6466  
      6335       6336       6347       6346       6456       6457       6468       6467  
      6337       6338       6349       6348       6458       6459       6470       6469  
      6338       6339       6350       6349       6459       6460       6471       6470  
      6339       6340       6351       6350       6460       6461       6472       6471  
      6340       6341       6352       6351       6461       6462       6473       6472  
      6341       6342       6353       6352       6462       6463       6474       6473  
      6342       6343       6354       6353       6463       6464       6475       6474  
      6343       6344       6355       6354       6464       6465       6476       6475  
      6344       6345       6356       6355       6465       6466       6477       6476  
      6345       6346       6357       6356       6466       6467       6478       6477  
      6346       6347       6358       6357       6467       6468       6479       6478  
      6348       6349       6360       6359       6469       6470       6481       6480  
      6349       6350       6361       6360       6470       6471       6482       6481  
      6350       6351       6362       6361       6471       6472       6483       6482  
      6351       6352       6363       6362       6472       6473       6484       6483  
      6352       6353       6364       6363       6473       6474       6485       6484  
      6353       6354       6365       6364       6474       6475       6486       6485  
      6354       6355       6366       6365       6475       6476       6487       6486  
      6355       6356       6367       6366       6476       6477       6488       6487  
      6356       6357       6368       6367       6477       6478       6489       6488  
      6357       6358       6369       6368       6478       6479       6490       6489  
      6359       6360       6371       6370       6480       6481       6492       6491  
      6360       6361       6372       6371       6481       6482       6493       6492  
      6361       6362       6373       6372       6482       6483       6494       6493  
      6362       6363       6374       6373       6483       6484       6495       6494  
      6363       6364       6375       6374       6484       6485       6496       6495  
      6364       6365       6376       6375       6485       6486       6497       6496  
      6365       6366       6377       6376       6486       6487       6498       6497  
      6366       6367       6378       6377       6487       6488       6499       6498  
      6367       6368       6379       6378       6488       6489       6500       6499  
      6368       6369       6380       6379       6489       6490       6501       6500  
      6370       6371       6382       6381       6491       6492       6503       6502  
      6371       6372       6383       6382       6492       6493       6504       6503  
      6372       6373       6384       6383       6493       6494       6505       6504  
      6373       6374       6385       6384       6494       6495       6506       6505  
      6374       6375       6386       6385       6495       6496       6507       6506  
      6375       6376       6387       6386       6496       6497       6508       6507  
      6376       6377       6388       6387       6497       6498       6509       6508  
      6377       6378       6389       6388       6498       6499       6510       6509  
      6378       6379       6390       6389       6499       6500       6511       6510  
      6379       6380       6391       6390       6500       6501       6512       6511  
      6381       6382       6393       6392       6502       6503       6514       6513  
      6382       6383       6394       6393       6503       6504       6515       6514  
      6383       6384       6395       6394       6504       6505       6516       6515  
      6384       6385       6396       6395       6505       6506       6517       6516  
      6385       6386       6397       6396       6506       6507       6518       6517  
      6386       6387       6398       6397       6507       6508       6519       6518  
      6387       6388       6399       6398       6508       6509       6520       6519  
      6388       6389       6400       6399       6509       6510       6521       6520  
      6389       6390       6401       6400       6510       6511       6522       6521  
      6390       6391       6402       6401       6511       6512       6523       6522  
      6392       6393       6404       6403       6513       6514       6525       6524  
      6393       6394       6405       6404       6514       6515       6526       6525  
      6394       6395       6406       6405       6515       6516       6527       6526  
      6395       6396       6407       6406       6516       6517       6528       6527  
      6396       6397       6408       6407       6517       6518       6529       6528  
      6397       6398       6409       6408       6518       6519       6530       6529  
      6398       6399       6410       6409       6519       6520       6531       6530  
      6399       6400       6411       6410       6520       6521       6532       6531  
      6400       6401       6412       6411       6521       6522       6533       6532  
      6401       6402       6413       6412       6522       6523       6534       6533  
      6414       6415       6426       6425       6535       6536       6547       6546  
      6415       6416       6427       6426       6536       6537       6548       6547  
      6416       6417       6428       6427       6537       6538       6549       6548  
      6417       6418       6429       6428       6538       6539       6550       6549  
      6418       6419       6430       6429       6539       6540       6551       6550  
      6419       6420       6431       6430       6540       6541       6552       6551  
      6420       6421       6432       6431       6541       6542       6553       6552  
      6421       6422       6433       6432       6542       6543       6554       6553  
      6422       6423       6434       6433       6543       6544       6555       6554  
      6423       6424       6435       6434       6544       6545       6556       6555  
      6425       6426       6437       6436       6546       6547       6558       6557  
      6426       6427       6438       6437       6547       6548       6559       6558  
      6427       6428       6439       6438       6548       6549       6560       6559  
      6428       6429       6440       6439       6549       6550       6561       6560  
      6429       6430       6441       6440       6550       6551       6562       6561  
      6430       6431       6442       6441       6551       6552       6563       6562  
      6431       6432       6443       6442       6552       6553       6564       6563  
      6432       6433       6444       6443       6553       6554       6565       6564  
      6433       6434       6445       6444       6554       6555       6566       6565  
      6434       6435       6446       6445       6555       6556       6567       6566  
      6436       6437       6448       6447       6557       6558       6569       6568  
      6437       6438       6449       6448       6558       6559       6570       6569  
      6438       6439       6450       6449       6559       6560       6571       6570  
      6439       6440       6451       6450       6560       6561       6572       6571  
      6440       6441       6452       6451       6561       6562       6573       6572  
      6441       6442       6453       6452       6562       6563       6574       6573  
      6442       6443       6454       6453       6563       6564       6575       6574  
      6443       6444       6455       6454       6564       6565       6576       6575  
      6444       6445       6456       6455       6565       6566       6577       6576  
      6445       6446       6457       6456       6566       6567       6578       6577  
      6447       6448       6459       6458       6568       6569       6580       6579  
      6448       6449       6460       6459       6569       6570       6581       6580  
      6449       6450       6461       6460       6570       6571       6582       6581  
      6450       6451       6462       6461       6571       6572       6583       6582  
      6451       6452       6463       6462       6572       6573       6584       6583  
      6452       6453       6464       6463       6573       6574       6585       6584  
      6453       6454       6465       6464       6574       6575       6586       6585  
      6454       6455       6466       6465       6575       6576       6587       6586  
      6455       6456       6467       6466       6576       6577       6588       6587  
      6456       6457       6468       6467       6577       6578       6589       6588  
      6458       6459       6470       6469       6579       6580       6591       6590  
      6459       6460       6471       6470       6580       6581       6592       6591  
      6460       6461       6472       6471       6581       6582       6593       6592  
      6461       6462       6473       6472       6582       6583       6594       6593  
      6462       6463       6474       6473       6583       6584       6595       6594  
      6463       6464       6475       6474       6584       6585       6596       6595  
      6464       6465       6476       6475       6585       6586       6597       6596  
      6465       6466       6477       6476       6586       6587       6598       6597  
      6466       6467       6478       6477       6587       6588       6599       6598  
      6467       6468       6479       6478       6588       6589       6600       6599  
      6469       6470       6481       6480       6590       6591       6602       6601  
      6470       6471       6482       6481       6591       6592       6603       6602  
      6471       6472       6483       6482       6592       6593       6604       6603  
      6472       6473       6484       6483       6593       6594       6605       6604  
      6473       6474       6485       6484       6594       6595       6606       6605  
      6474       6475       6486       6485       6595       6596       6607       6606  
      6475       6476       6487       6486       6596       6597       6608       6607  
      6476       6477       6488       6487       6597       6598       6609       6608  
      6477       6478       6489       6488       6598       6599       6610       6609  
      6478       6479       6490       6489       6599       6600       6611       6610  
      6480       6481       6492       6491       6601       6602       6613       6612  
      6481       6482       6493       6492       6602       6603       6614       6613  
      6482       6483       6494       6493       6603       6604       6615       6614  
      6483       6484       6495       6494       6604       6605       6616       6615  
      6484       6485       6496       6495       6605       6606       6617       6616  
      6485       6486       6497       6496       6606       6607       6618       6617  
      6486       6487       6498       6497       6607       6608       6619       6618  
      6487       6488       6499       6498       6608       6609       6620       6619  
      6488       6489       6500       6499       6609       6610       6621       6620  
      6489       6490       6501       6500       6610       6611       6622       6621  
      6491       6492       6503       6502       6612       6613       6624       6623  
      6492       6493       6504       6503       6613       6614       6625       6624  
      6493       6494       6505       6504       6614       6615       6626       6625  
      6494       6495       6506       6505       6615       6616       6627       6626  
      6495       6496       6507       6506       6616       6617       6628       6627  
      6496       6497       6508       6507       6617       6618       6629       6628  
      6497       6498       6509       6508       6618       6619       6630       6629  
      6498       6499       6510       6509       6619       6620       6631       6630  
      6499       6500       6511       6510       6620       6621       6632       6631  
      6500       6501       6512       6511       6621       6622       6633       6632  
      6502       6503       6514       6513       6623       6624       6635       6634  
      6503       6504       6515       6514       6624       6625       6636       6635  
      6504       6505       6516       6515       6625       6626       6637       6636  
      6505       6506       6517       6516       6626       6627       6638       6637  
      6506       6507       6518       6517       6627       6628       6639       6638  
      6507       6508       6519       6518       6628       6629       6640       6639  
      6508       6509       6520       6519       6629       6630       6641       6640  
      6509       6510       6521       6520       6630       6631       6642       6641  
      6510       6511       6522       6521       6631       6632       6643       6642  
      6511       6512       6523       6522       6632       6633       6644       6643  
      6513       6514       6525       6524       6634       6635       6646       6645  
      6514       6515       6526       6525       6635       6636       6647       6646  
      6515       6516       6527       6526       6636       6637       6648       6647  
      6516       6517       6528       6527       6637       6638       6649       6648  
      6517       6518       6529       6528       6638       6639       6650       6649  
      6518       6519       6530       6529       6639       6640       6651       6650  
      6519       6520       6531       6530       6640       6641       6652       6651  
      6520       6521       6532       6531       6641       6642       6653       6652  
      6521       6522       6533       6532       6642       6643       6654       6653  
      6522       6523       6534       6533       6643       6644       6655       6654  
      6535       6536       6547       6546       6656       6657       6668       6667  
      6536       6537       6548       6547       6657       6658       6669       6668  
      6537       6538       6549       6548       6658       6659       6670       6669  
      6538       6539       6550       6549       6659       6660       6671       6670  
      6539       6540       6551       6550       6660       6661       6672       6671  
      6540       6541       6552       6551       6661       6662       6673       6672  
      6541       6542       6553       6552       6662       6663       6674       6673  
      6542       6543       6554       6553       6663       6664       6675       6674  
      6543       6544       6555       6554       6664       6665       6676       6675  
      6544       6545       6556       6555       6665       6666       6677       6676  
      6546       6547       6558       6557       6667       6668       6679       6678  
      6547       6548       6559       6558       6668       6669       6680       6679  
      6548       6549       6560       6559       6669       6670       6681       6680  
      6549       6550       6561       6560       6670       6671       6682       6681  
      6550       6551       6562       6561       6671       6672       6683       6682  
      6551       6552       6563       6562       6672       6673       6684       6683  
      6552       6553       6564       6563       6673       6674       6685       6684  
      6553       6554       6565       6564       6674       6675       6686       6685  
      6554       6555       6566       6565       6675       6676       6687       6686  
      6555       6556       6567       6566       6676       6677       6688       6687  
      6557       6558       6569       6568       6678       6679       6690       6689  
      6558       6559       6570       6569       6679       6680       6691       6690  
      6559       6560       6571       6570       6680       6681       6692       6691  
      6560       6561       6572       6571       6681       6682       6693       6692  
      6561       6562       6573       6572       6682       6683       6694       6693  
      6562       6563       6574       6573       6683       6684       6695       6694  
      6563       6564       6575       6574       6684       6685       6696       6695  
      6564       6565       6576       6575       6685       6686       6697       6696  
      6565       6566       6577       6576       6686       6687       6698       6697  
      6566       6567       6578       6577       6687       6688       6699       6698  
      6568       6569       6580       6579       6689       6690       6701       6700  
      6569       6570       6581       6580       6690       6691       6702       6701  
      6570       6571       6582       6581       6691       6692       6703       6702  
      6571       6572       6583       6582       6692       6693       6704       6703  
      6572       6573       6584       6583       6693       6694       6705       6704  
      6573       6574       6585       6584       6694       6695       6706       6705  
      6574       6575       6586       6585       6695       6696       6707       6706  
      6575       6576       6587       6586       6696       6697       6708       6707  
      6576       6577       6588       6587       6697       6698       6709       6708  
      6577       6578       6589       6588       6698       6699       6710       6709  
      6579       6580       6591       6590       6700       6701       6712       6711  
      6580       6581       6592       6591       6701       6702       6713       6712  
      6581       6582       6593       6592       6702       6703       6714       6713  
      6582       6583       6594       6593       6703       6704       6715       6714  
      6583       6584       6595       6594       6704       6705       6716       6715  
      6584       6585       6596       6595       6705       6706       6717       6716  
      6585       6586       6597       6596       6706       6707       6718       6717  
      6586       6587       6598       6597       6707       6708       6719       6718  
      6587       6588       6599       6598       6708       6709       6720       6719  
      6588       6589       6600       6599       6709       6710       6721       6720  
      6590       6591       6602       6601       6711       6712       6723       6722  
      6591       6592       6603       6602       6712       6713       6724       6723  
      6592       6593       6604       6603       6713       6714       6725       6724  
      6593       6594       6605       6604       6714       6715       6726       6725  
      6594       6595       6606       6605       6715       6716       6727       6726  
      6595       6596       6607       6606       6716       6717       6728       6727  
      6596       6597       6608       6607       6717       6718       6729       6728  
      6597       6598       6609       6608       6718       6719       6730       6729  
      6598       6599       6610       6609       6719       6720       6731       6730  
      6599       6600       6611       6610       6720       6721       6732       6731  
      6601       6602       6613       6612       6722       6723       6734       6733  
      6602       6603       6614       6613       6723       6724       6735       6734  
      6603       6604       6615       6614       6724       6725       6736       6735  
      6604       6605       6616       6615       6725       6726       6737       6736  
      6605       6606       6617       6616       6726       6727       6738       6737  
      6606       6607       6618       6617       6727       6728       6739       6738  
      6607       6608       6619       6618       6728       6729       6740       6739  
      6608       6609       6620       6619       6729       6730       6741       6740  
      6609       6610       6621       6620       6730       6731       6742       6741  
      6610       6611       6622       6621       6731       6732       6743       6742  
      6612       6613       6624       6623       6733       6734       6745       6744  
      6613       6614       6625       6624       6734       6735       6746       6745  
      6614       6615       6626       6625       6735       6736       6747       6746  
      6615       6616       6627       6626       6736       6737       6748       6747  
      6616       6617       6628       6627       6737       6738       6749       6748  
      6617       6618       6629       6628       6738       6739       6750       6749  
      6618       6619       6630       6629       6739       6740       6751       6750  
      6619       6620       6631       6630       6740       6741       6752       6751  
      6620       6621       6632       6631       6741       6742       6753       6752  
      6621       6622       6633       6632       6742       6743       6754       6753  
      6623       6624       6635       6634       6744       6745       6756       6755  
      6624       6625       6636       6635       6745       6746       6757       6756  
      6625       6626       6637       6636       6746       6747       6758       6757  
      6626       6627       6638       6637       6747       6748       6759       6758  
      6627       6628       6639       6638       6748       6749       6760       6759  
      6628       6629       6640       6639       6749       6750       6761       6760  
      6629       6630       6641       6640       6750       6751       6762       6761  
      6630       6631       6642       6641       6751       6752       6763       6762  
      6631       6632       6643       6642       6752       6753       6764       6763  
      6632       6633       6644       6643       6753       6754       6765       6764  
      6634       6635       6646       6645       6755       6756       6767       6766  
      6635       6636       6647       6646       6756       6757       6768       6767  
      6636       6637       6648       6647       6757       6758       6769       6768  
      6637       6638       6649       6648       6758       6759       6770       6769  
      6638       6639       6650       6649       6759       6760       6771       6770  
      6639       6640       6651       6650       6760       6761       6772       6771  
      6640       6641       6652       6651       6761       6762       6773       6772  
      6641       6642       6653       6652       6762       6763       6774       6773  
      6642       6643       6654       6653       6763       6764       6775       6774  
      6643       6644       6655       6654       6764       6765       6776       6775  
      6656       6657       6668       6667       6777       6778       6789       6788  
      6657       6658       6669       6668       6778       6779       6790       6789  
      6658       6659       6670       6669       6779       6780       6791       6790  
      6659       6660       6671       6670       6780       6781       6792       6791  
      6660       6661       6672       6671       6781       6782       6793       6792  
      6661       6662       6673       6672       6782       6783       6794       6793  
      6662       6663       6674       6673       6783       6784       6795       6794  
      6663       6664       6675       6674       6784       6785       6796       6795  
      6664       6665       6676       6675       6785       6786       6797       6796  
      6665       6666       6677       6676       6786       6787       6798       6797  
      6667       6668       6679       6678       6788       6789       6800       6799  
      6668       6669       6680       6679       6789       6790       6801       6800  
      6669       6670       6681       6680       6790       6791       6802       6801  
      6670       6671       6682       6681       6791       6792       6803       6802  
      6671       6672       6683       6682       6792       6793       6804       6803  
      6672       6673       6684       6683       6793       6794       6805       6804  
      6673       6674       6685       6684       6794       6795       6806       6805  
      6674       6675       6686       6685       6795       6796       6807       6806  
      6675       6676       6687       6686       6796       6797       6808       6807  
      6676       6677       6688       6687       6797       6798       6809       6808  
      6678       6679       6690       6689       6799       6800       6811       6810  
      6679       6680       6691       6690       6800       6801       6812       6811  
      6680       6681       6692       6691       6801       6802       6813       6812  
      6681       6682       6693       6692       6802       6803       6814       6813  
      6682       6683       6694       6693       6803       6804       6815       6814  
      6683       6684       6695       6694       6804       6805       6816       6815  
      6684       6685       6696       6695       6805       6806       6817       6816  
      6685       6686       6697       6696       6806       6807       6818       6817  
      6686       6687       6698       6697       6807       6808       6819       6818  
      6687       6688       6699       6698       6808       6809       6820       6819  
      6689       6690       6701       6700       6810       6811       6822       6821  
      6690       6691       6702       6701       6811       6812       6823       6822  
      6691       6692       6703       6702       6812       6813       6824       6823  
      6692       6693       6704       6703       6813       6814       6825       6824  
      6693       6694       6705       6704       6814       6815       6826       6825  
      6694       6695       6706       6705       6815       6816       6827       6826  
      6695       6696       6707       6706       6816       6817       6828       6827  
      6696       6697       6708       6707       6817       6818       6829       6828  
      6697       6698       6709       6708       6818       6819       6830       6829  
      6698       6699       6710       6709       6819       6820       6831       6830  
      6700       6701       6712       6711       6821       6822       6833       6832  
      6701       6702       6713       6712       6822       6823       6834       6833  
      6702       6703       6714       6713       6823       6824       6835       6834  
      6703       6704       6715       6714       6824       6825       6836       6835  
      6704       6705       6716       6715       6825       6826       6837       6836  
      6705       6706       6717       6716       6826       6827       6838       6837  
      6706       6707       6718       6717       6827       6828       6839       6838  
      6707       6708       6719       6718       6828       6829       6840       6839  
      6708       6709       6720       6719       6829       6830       6841       6840  
      6709       6710       6721       6720       6830       6831       6842       6841  
      6711       6712       6723       6722       6832       6833       6844       6843  
      6712       6713       6724       6723       6833       6834       6845       6844  
      6713       6714       6725       6724       6834       6835       6846       6845  
      6714       6715       6726       6725       6835       6836       6847       6846  
      6715       6716       6727       6726       6836       6837       6848       6847  
      6716       6717       6728       6727       6837       6838       6849       6848  
      6717       6718       6729       6728       6838       6839       6850       6849  
      6718       6719       6730       6729       6839       6840       6851       6850  
      6719       6720       6731       6730       6840       6841       6852       6851  
      6720       6721       6732       6731       6841       6842       6853       6852  
      6722       6723       6734       6733       6843       6844       6855       6854  
      6723       6724       6735       6734       6844       6845       6856       6855  
      6724       6725       6736       6735       6845       6846       6857       6856  
      6725       6726       6737       6736       6846       6847       6858       6857  
      6726       6727       6738       6737       6847       6848       6859       6858  
      6727       6728       6739       6738       6848       6849       6860       6859  
      6728       6729       6740       6739       6849       6850       6861       6860  
      6729       6730       6741       6740       6850       6851       6862       6861  
      6730       6731       6742       6741       6851       6852       6863       6862  
      6731       6732       6743       6742       6852       6853       6864       6863  
      6733       6734       6745       6744       6854       6855       6866       6865  
      6734       6735       6746       6745       6855       6856       6867       6866  
      6735       6736       6747       6746       6856       6857       6868       6867  
      6736       6737       6748       6747       6857       6858       6869       6868  
      6737       6738       6749       6748       6858       6859       6870       6869  
      6738       6739       6750       6749       6859       6860       6871       6870  
      6739       6740       6751       6750       6860       6861       6872       6871  
      6740       6741       6752       6751       6861       6862       6873       6872  
      6741       6742       6753       6752       6862       6863       6874       6873  
      6742       6743       6754       6753       6863       6864       6875       6874  
      6744       6745       6756       6755       6865       6866       6877       6876  
      6745       6746       6757       6756       6866       6867       6878       6877  
      6746       6747       6758       6757       6867       6868       6879       6878  
      6747       6748       6759       6758       6868       6869       6880       6879  
      6748       6749       6760       6759       6869       6870       6881       6880  
      6749       6750       6761       6760       6870       6871       6882       6881  
      6750       6751       6762       6761       6871       6872       6883       6882  
      6751       6752       6763       6762       6872       6873       6884       6883  
      6752       6753       6764       6763       6873       6874       6885       6884  
      6753       6754       6765       6764       6874       6875       6886       6885  
      6755       6756       6767       6766       6876       6877       6888       6887  
      6756       6757       6768       6767       6877       6878       6889       6888  
      6757       6758       6769       6768       6878       6879       6890       6889  
      6758       6759       6770       6769       6879       6880       6891       6890  
      6759       6760       6771       6770       6880       6881       6892       6891  
      6760       6761       6772       6771       6881       6882       6893       6892  
      6761       6762       6773       6772       6882       6883       6894       6893  
      6762       6763       6774       6773       6883       6884       6895       6894  
      6763       6764       6775       6774       6884       6885       6896       6895  
      6764       6765       6776       6775       6885       6886       6897       6896  
      6777       6778       6789       6788       6898       6899       6910       6909  
      6778       6779       6790       6789       6899       6900       6911       6910  
      6779       6780       6791       6790       6900       6901       6912       6911  
      6780       6781       6792       6791       6901       6902       6913       6912  
      6781       6782       6793       6792       6902       6903       6914       6913  
      6782       6783       6794       6793       6903       6904       6915       6914  
      6783       6784       6795       6794       6904       6905       6916       6915  
      6784       6785       6796       6795       6905       6906       6917       6916  
      6785       6786       6797       6796       6906       6907       6918       6917  
      6786       6787       6798       6797       6907       6908       6919       6918  
      6788       6789       6800       6799       6909       6910       6921       6920  
      6789       6790       6801       6800       6910       6911       6922       6921  
      6790       6791       6802       6801       6911       6912       6923       6922  
      6791       6792       6803       6802       6912       6913       6924       6923  
      6792       6793       6804       6803       6913       6914       6925       6924  
      6793       6794       6805       6804       6914       6915       6926       6925  
      6794       6795       6806       6805       6915       6916       6927       6926  
      6795       6796       6807       6806       6916       6917       6928       6927  
      6796       6797       6808       6807       6917       6918       6929       6928  
      6797       6798       6809       6808       6918       6919       6930       6929  
      6799       6800       6811       6810       6920       6921       6932       6931  
      6800       6801       6812       6811       6921       6922       6933       6932  
      6801       6802       6813       6812       6922       6923       6934       6933  
      6802       6803       6814       6813       6923       6924       6935       6934  
      6803       6804       6815       6814       6924       6925       6936       6935  
      6804       6805       6816       6815       6925       6926       6937       6936  
      6805       6806       6817       6816       6926       6927       6938       6937  
      6806       6807       6818       6817       6927       6928       6939       6938  
      6807       6808       6819       6818       6928       6929       6940       6939  
      6808       6809       6820       6819       6929       6930       6941       6940  
      6810       6811       6822       6821       6931       6932       6943       6942  
      6811       6812       6823       6822       6932       6933       6944       6943  
      6812       6813       6824       6823       6933       6934       6945       6944  
      6813       6814       6825       6824       6934       6935       6946       6945  
      6814       6815       6826       6825       6935       6936       6947       6946  
      6815       6816       6827       6826       6936       6937       6948       6947  
      6816       6817       6828       6827       6937       6938       6949       6948  
      6817       6818       6829       6828       6938       6939       6950       6949  
      6818       6819       6830       6829       6939       6940       6951       6950  
      6819       6820       6831       6830       6940       6941       6952       6951  
      6821       6822       6833       6832       6942       6943       6954       6953  
      6822       6823       6834       6833       6943       6944       6955       6954  
      6823       6824       6835       6834       6944       6945       6956       6955  
      6824       6825       6836       6835       6945       6946       6957       6956  
      6825       6826       6837       6836       6946       6947       6958       6957  
      6826       6827       6838       6837       6947       6948       6959       6958  
      6827       6828       6839       6838       6948       6949       6960       6959  
      6828       6829       6840       6839       6949       6950       6961       6960  
      6829       6830       6841       6840       6950       6951       6962       6961  
      6830       6831       6842       6841       6951       6952       6963       6962  
      6832       6833       6844       6843       6953       6954       6965       6964  
      6833       6834       6845       6844       6954       6955       6966       6965  
      6834       6835       6846       6845       6955       6956       6967       6966  
      6835       6836       6847       6846       6956       6957       6968       6967  
      6836       6837       6848       6847       6957       6958       6969       6968  
      6837       6838       6849       6848       6958       6959       6970       6969  
      6838       6839       6850       6849       6959       6960       6971       6970  
      6839       6840       6851       6850       6960       6961       6972       6971  
      6840       6841       6852       6851       6961       6962       6973       6972  
      6841       6842       6853       6852       6962       6963       6974       6973  
      6843       6844       6855       6854       6964       6965       6976       6975  
      6844       6845       6856       6855       6965       6966       6977       6976  
      6845       6846       6857       6856       6966       6967       6978       6977  
      6846       6847       6858       6857       6967       6968       6979       6978  
      6847       6848       6859       6858       6968       6969       6980       6979  
      6848       6849       6860       6859       6969       6970       6981       6980  
      6849       6850       6861       6860       6970       6971       6982       6981  
      6850       6851       6862       6861       6971       6972       6983       6982  
      6851       6852       6863       6862       6972       6973       6984       6983  
      6852       6853       6864       6863       6973       6974       6985       6984  
      6854       6855       6866       6865       6975       6976       6987       6986  
      6855       6856       6867       6866       6976       6977       6988       6987  
      6856       6857       6868       6867       6977       6978       6989       6988  
      6857       6858       6869       6868       6978       6979       6990       6989  
      6858       6859       6870       6869       6979       6980       6991       6990  
      6859       6860       6871       6870       6980       6981       6992       6991  
      6860       6861       6872       6871       6981       6982       6993       6992  
      6861       6862       6873       6872       6982       6983       6994       6993  
      6862       6863       6874       6873       6983       6984       6995       6994  
      6863       6864       6875       6874       6984       6985       6996       6995  
      6865       6866       6877       6876       6986       6987       6998       6997  
      6866       6867       6878       6877       6987       6988       6999       6998  
      6867       6868       6879       6878       6988       6989       7000       6999  
      6868       6869       6880       6879       6989       6990       7001       7000  
      6869       6870       6881       6880       6990       6991       7002       7001  
      6870       6871       6882       6881       6991       6992       7003       7002  
      6871       6872       6883       6882       6992       6993       7004       7003  
      6872       6873       6884       6883       6993       6994       7005       7004  
      6873       6874       6885       6884       6994       6995       7006       7005  
      6874       6875       6886       6885       6995       6996       7007       7006  
      6876       6877       6888       6887       6997       6998       7009       7008  
      6877       6878       6889       6888       6998       6999       7010       7009  
      6878       6879       6890       6889       6999       7000       7011       7010  
      6879       6880       6891       6890       7000       7001       7012       7011  
      6880       6881       6892       6891       7001       7002       7013       7012  
      6881       6882       6893       6892       7002       7003       7014       7013  
      6882       6883       6894       6893       7003       7004       7015       7014  
      6883       6884       6895       6894       7004       7005       7016       7015  
      6884       6885       6896       6895       7005       7006       7017       7016  
      6885       6886       6897       6896       7006       7007       7018       7017  
      6898       6899       6910       6909       7019       7020       7031       7030  
      6899       6900       6911       6910       7020       7021       7032       7031  
      6900       6901       6912       6911       7021       7022       7033       7032  
      6901       6902       6913       6912       7022       7023       7034       7033  
      6902       6903       6914       6913       7023       7024       7035       7034  
      6903       6904       6915       6914       7024       7025       7036       7035  
      6904       6905       6916       6915       7025       7026       7037       7036  
      6905       6906       6917       6916       7026       7027       7038       7037  
      6906       6907       6918       6917       7027       7028       7039       7038  
      6907       6908       6919       6918       7028       7029       7040       7039  
      6909       6910       6921       6920       7030       7031       7042       7041  
      6910       6911       6922       6921       7031       7032       7043       7042  
      6911       6912       6923       6922       7032       7033       7044       7043  
      6912       6913       6924       6923       7033       7034       7045       7044  
      6913       6914       6925       6924       7034       7035       7046       7045  
      6914       6915       6926       6925       7035       7036       7047       7046  
      6915       6916       6927       6926       7036       7037       7048       7047  
      6916       6917       6928       6927       7037       7038       7049       7048  
      6917       6918       6929       6928       7038       7039       7050       7049  
      6918       6919       6930       6929       7039       7040       7051       7050  
      6920       6921       6932       6931       7041       7042       7053       7052  
      6921       6922       6933       6932       7042       7043       7054       7053  
      6922       6923       6934       6933       7043       7044       7055       7054  
      6923       6924       6935       6934       7044       7045       7056       7055  
      6924       6925       6936       6935       7045       7046       7057       7056  
      6925       6926       6937       6936       7046       7047       7058       7057  
      6926       6927       6938       6937       7047       7048       7059       7058  
      6927       6928       6939       6938       7048       7049       7060       7059  
      6928       6929       6940       6939       7049       7050       7061       7060  
      6929       6930       6941       6940       7050       7051       7062       7061  
      6931       6932       6943       6942       7052       7053       7064       7063  
      6932       6933       6944       6943       7053       7054       7065       7064  
      6933       6934       6945       6944       7054       7055       7066       7065  
      6934       6935       6946       6945       7055       7056       7067       7066  
      6935       6936       6947       6946       7056       7057       7068       7067  
      6936       6937       6948       6947       7057       7058       7069       7068  
      6937       6938       6949       6948       7058       7059       7070       7069  
      6938       6939       6950       6949       7059       7060       7071       7070  
      6939       6940       6951       6950       7060       7061       7072       7071  
      6940       6941       6952       6951       7061       7062       7073       7072  
      6942       6943       6954       6953       7063       7064       7075       7074  
      6943       6944       6955       6954       7064       7065       7076       7075  
      6944       6945       6956       6955       7065       7066       7077       7076  
      6945       6946       6957       6956       7066       7067       7078       7077  
      6946       6947       6958       6957       7067       7068       7079       7078  
      6947       6948       6959       6958       7068       7069       7080       7079  
      6948       6949       6960       6959       7069       7070       7081       7080  
      6949       6950       6961       6960       7070       7071       7082       7081  
      6950       6951       6962       6961       7071       7072       7083       7082  
      6951       6952       6963       6962       7072       7073       7084       7083  
      6953       6954       6965       6964       7074       7075       7086       7085  
      6954       6955       6966       6965       7075       7076       7087       7086  
      6955       6956       6967       6966       7076       7077       7088       7087  
      6956       6957       6968       6967       7077       7078       7089       7088  
      6957       6958       6969       6968       7078       7079       7090       7089  
      6958       6959       6970       6969       7079       7080       7091       7090  
      6959       6960       6971       6970       7080       7081       7092       7091  
      6960       6961       6972       6971       7081       7082       7093       7092  
      6961       6962       6973       6972       7082       7083       7094       7093  
      6962       6963       6974       6973       7083       7084       7095       7094  
      6964       6965       6976       6975       7085       7086       7097       7096  
      6965       6966       6977       6976       7086       7087       7098       7097  
      6966       6967       6978       6977       7087       7088       7099       7098  
      6967       6968       6979       6978       7088       7089       7100       7099  
      6968       6969       6980       6979       7089       7090       7101       7100  
      6969       6970       6981       6980       7090       7091       7102       7101  
      6970       6971       6982       6981       7091       7092       7103       7102  
      6971       6972       6983       6982       7092       7093       7104       7103  
      6972       6973       6984       6983       7093       7094       7105       7104  
      6973       6974       6985       6984       7094       7095       7106       7105  
      6975       6976       6987       6986       7096       7097       7108       7107  
      6976       6977       6988       6987       7097       7098       7109       7108  
      6977       6978       6989       6988       7098       7099       7110       7109  
      6978       6979       6990       6989       7099       7100       7111       7110  
      6979       6980       6991       6990       7100       7101       7112       7111  
      6980       6981       6992       6991       7101       7102       7113       7112  
      6981       6982       6993       6992       7102       7103       7114       7113  
      6982       6983       6994       6993       7103       7104       7115       7114  
      6983       6984       6995       6994       7104       7105       7116       7115  
      6984       6985       6996       6995       7105       7106       7117       7116  
      6986       6987       6998       6997       7107       7108       7119       7118  
      6987       6988       6999       6998       7108       7109       7120       7119  
      6988       6989       7000       6999       7109       7110       7121       7120  
      6989       6990       7001       7000       7110       7111       7122       7121  
      6990       6991       7002       7001       7111       7112       7123       7122  
      6991       6992       7003       7002       7112       7113       7124       7123  
      6992       6993       7004       7003       7113       7114       7125       7124  
      6993       6994       7005       7004       7114       7115       7126       7125  
      6994       6995       7006       7005       7115       7116       7127       7126  
      6995       6996       7007       7006       7116       7117       7128       7127  
      6997       6998       7009       7008       7118       7119       7130       7129  
      6998       6999       7010       7009       7119       7120       7131       7130  
      6999       7000       7011       7010       7120       7121       7132       7131  
      7000       7001       7012       7011       7121       7122       7133       7132  
      7001       7002       7013       7012       7122       7123       7134       7133  
      7002       7003       7014       7013       7123       7124       7135       7134  
      7003       7004       7015       7014       7124       7125       7136       7135  
      7004       7005       7016       7015       7125       7126       7137       7136  
      7005       7006       7017       7016       7126       7127       7138       7137  
      7006       7007       7018       7017       7127       7128       7139       7138  
      7019       7020       7031       7030       7140       7141       7152       7151  
      7020       7021       7032       7031       7141       7142       7153       7152  
      7021       7022       7033       7032       7142       7143       7154       7153  
      7022       7023       7034       7033       7143       7144       7155       7154  
      7023       7024       7035       7034       7144       7145       7156       7155  
      7024       7025       7036       7035       7145       7146       7157       7156  
      7025       7026       7037       7036       7146       7147       7158       7157  
      7026       7027       7038       7037       7147       7148       7159       7158  
      7027       7028       7039       7038       7148       7149       7160       7159  
      7028       7029       7040       7039       7149       7150       7161       7160  
      7030       7031       7042       7041       7151       7152       7163       7162  
      7031       7032       7043       7042       7152       7153       7164       7163  
      7032       7033       7044       7043       7153       7154       7165       7164  
      7033       7034       7045       7044       7154       7155       7166       7165  
      7034       7035       7046       7045       7155       7156       7167       7166  
      7035       7036       7047       7046       7156       7157       7168       7167  
      7036       7037       7048       7047       7157       7158       7169       7168  
      7037       7038       7049       7048       7158       7159       7170       7169  
      7038       7039       7050       7049       7159       7160       7171       7170  
      7039       7040       7051       7050       7160       7161       7172       7171  
      7041       7042       7053       7052       7162       7163       7174       7173  
      7042       7043       7054       7053       7163       7164       7175       7174  
      7043       7044       7055       7054       7164       7165       7176       7175  
      7044       7045       7056       7055       7165       7166       7177       7176  
      7045       7046       7057       7056       7166       7167       7178       7177  
      7046       7047       7058       7057       7167       7168       7179       7178  
      7047       7048       7059       7058       7168       7169       7180       7179  
      7048       7049       7060       7059       7169       7170       7181       7180  
      7049       7050       7061       7060       7170       7171       7182       7181  
      7050       7051       7062       7061       7171       7172       7183       7182  
      7052       7053       7064       7063       7173       7174       7185       7184  
      7053       7054       7065       7064       7174       7175       7186       7185  
      7054       7055       7066       7065       7175       7176       7187       7186  
      7055       7056       7067       7066       7176       7177       7188       7187  
      7056       7057       7068       7067       7177       7178       7189       7188  
      7057       7058       7069       7068       7178       7179       7190       7189  
      7058       7059       7070       7069       7179       7180       7191       7190  
      7059       7060       7071       7070       7180       7181       7192       7191  
      7060       7061       7072       7071       7181       7182       7193       7192  
      7061       7062       7073       7072       7182       7183       7194       7193  
      7063       7064       7075       7074       7184       7185       7196       7195  
      7064       7065       7076       7075       7185       7186       7197       7196  
      7065       7066       7077       7076       7186       7187       7198       7197  
      7066       7067       7078       7077       7187       7188       7199       7198  
      7067       7068       7079       7078       7188       7189       7200       7199  
      7068       7069       7080       7079       7189       7190       7201       7200  
      7069       7070       7081       7080       7190       7191       7202       7201  
      7070       7071       7082       7081       7191       7192       7203       7202  
      7071       7072       7083       7082       7192       7193       7204       7203  
      7072       7073       7084       7083       7193       7194       7205       7204  
      7074       7075       7086       7085       7195       7196       7207       7206  
      7075       7076       7087       7086       7196       7197       7208       7207  
      7076       7077       7088       7087       7197       7198       7209       7208  
      7077       7078       7089       7088       7198       7199       7210       7209  
      7078       7079       7090       7089       7199       7200       7211       7210  
      7079       7080       7091       7090       7200       7201       7212       7211  
      7080       7081       7092       7091       7201       7202       7213       7212  
      7081       7082       7093       7092       7202       7203       7214       7213  
      7082       7083       7094       7093       7203       7204       7215       7214  
      7083       7084       7095       7094       7204       7205       7216       7215  
      7085       7086       7097       7096       7206       7207       7218       7217  
      7086       7087       7098       7097       7207       7208       7219       7218  
      7087       7088       7099       7098       7208       7209       7220       7219  
      7088       7089       7100       7099       7209       7210       7221       7220  
      7089       7090       7101       7100       7210       7211       7222       7221  
      7090       7091       7102       7101       7211       7212       7223       7222  
      7091       7092       7103       7102       7212       7213       7224       7223  
      7092       7093       7104       7103       7213       7214       7225       7224  
      7093       7094       7105       7104       7214       7215       7226       7225  
      7094       7095       7106       7105       7215       7216       7227       7226  
      7096       7097       7108       7107       7217       7218       7229       7228  
      7097       7098       7109       7108       7218       7219       7230       7229  
      7098       7099       7110       7109       7219       7220       7231       7230  
      7099       7100       7111       7110       7220       7221       7232       7231  
      7100       7101       7112       7111       7221       7222       7233       7232  
      7101       7102       7113       7112       7222       7223       7234       7233  
      7102       7103       7114       7113       7223       7224       7235       7234  
      7103       7104       7115       7114       7224       7225       7236       7235  
      7104       7105       7116       7115       7225       7226       7237       7236  
      7105       7106       7117       7116       7226       7227       7238       7237  
      7107       7108       7119       7118       7228       7229       7240       7239  
      7108       7109       7120       7119       7229       7230       7241       7240  
      7109       7110       7121       7120       7230       7231       7242       7241  
      7110       7111       7122       7121       7231       7232       7243       7242  
      7111       7112       7123       7122       7232       7233       7244       7243  
      7112       7113       7124       7123       7233       7234       7245       7244  
      7113       7114       7125       7124       7234       7235       7246       7245  
      7114       7115       7126       7125       7235       7236       7247       7246  
      7115       7116       7127       7126       7236       7237       7248       7247  
      7116       7117       7128       7127       7237       7238       7249       7248  
      7118       7119       7130       7129       7239       7240       7251       7250  
      7119       7120       7131       7130       7240       7241       7252       7251  
      7120       7121       7132       7131       7241       7242       7253       7252  
      7121       7122       7133       7132       7242       7243       7254       7253  
      7122       7123       7134       7133       7243       7244       7255       7254  
      7123       7124       7135       7134       7244       7245       7256       7255  
      7124       7125       7136       7135       7245       7246       7257       7256  
      7125       7126       7137       7136       7246       7247       7258       7257  
      7126       7127       7138       7137       7247       7248       7259       7258  
      7127       7128       7139       7138       7248       7249       7260       7259  
      7140       7141       7152       7151       7261       7262       7273       7272  
      7141       7142       7153       7152       7262       7263       7274       7273  
      7142       7143       7154       7153       7263       7264       7275       7274  
      7143       7144       7155       7154       7264       7265       7276       7275  
      7144       7145       7156       7155       7265       7266       7277       7276  
      7145       7146       7157       7156       7266       7267       7278       7277  
      7146       7147       7158       7157       7267       7268       7279       7278  
      7147       7148       7159       7158       7268       7269       7280       7279  
      7148       7149       7160       7159       7269       7270       7281       7280  
      7149       7150       7161       7160       7270       7271       7282       7281  
      7151       7152       7163       7162       7272       7273       7284       7283  
      7152       7153       7164       7163       7273       7274       7285       7284  
      7153       7154       7165       7164       7274       7275       7286       7285  
      7154       7155       7166       7165       7275       7276       7287       7286  
      7155       7156       7167       7166       7276       7277       7288       7287  
      7156       7157       7168       7167       7277       7278       7289       7288  
      7157       7158       7169       7168       7278       7279       7290       7289  
      7158       7159       7170       7169       7279       7280       7291       7290  
      7159       7160       7171       7170       7280       7281       7292       7291  
      7160       7161       7172       7171       7281       7282       7293       7292  
      7162       7163       7174       7173       7283       7284       7295       7294  
      7163       7164       7175       7174       7284       7285       7296       7295  
      7164       7165       7176       7175       7285       7286       7297       7296  
      7165       7166       7177       7176       7286       7287       7298       7297  
      7166       7167       7178       7177       7287       7288       7299       7298  
      7167       7168       7179       7178       7288       7289       7300       7299  
      7168       7169       7180       7179       7289       7290       7301       7300  
      7169       7170       7181       7180       7290       7291       7302       7301  
      7170       7171       7182       7181       7291       7292       7303       7302  
      7171       7172       7183       7182       7292       7293       7304       7303  
      7173       7174       7185       7184       7294       7295       7306       7305  
      7174       7175       7186       7185       7295       7296       7307       7306  
      7175       7176       7187       7186       7296       7297       7308       7307  
      7176       7177       7188       7187       7297       7298       7309       7308  
      7177       7178       7189       7188       7298       7299       7310       7309  
      7178       7179       7190       7189       7299       7300       7311       7310  
      7179       7180       7191       7190       7300       7301       7312       7311  
      7180       7181       7192       7191       7301       7302       7313       7312  
      7181       7182       7193       7192       7302       7303       7314       7313  
      7182       7183       7194       7193       7303       7304       7315       7314  
      7184       7185       7196       7195       7305       7306       7317       7316  
      7185       7186       7197       7196       7306       7307       7318       7317  
      7186       7187       7198       7197       7307       7308       7319       7318  
      7187       7188       7199       7198       7308       7309       7320       7319  
      7188       7189       7200       7199       7309       7310       7321       7320  
      7189       7190       7201       7200       7310       7311       7322       7321  
      7190       7191       7202       7201       7311       7312       7323       7322  
      7191       7192       7203       7202       7312       7313       7324       7323  
      7192       7193       7204       7203       7313       7314       7325       7324  
      7193       7194       7205       7204       7314       7315       7326       7325  
      7195       7196       7207       7206       7316       7317       7328       7327  
      7196       7197       7208       7207       7317       7318       7329       7328  
      7197       7198       7209       7208       7318       7319       7330       7329  
      7198       7199       7210       7209       7319       7320       7331       7330  
      7199       7200       7211       7210       7320       7321       7332       7331  
      7200       7201       7212       7211       7321       7322       7333       7332  
      7201       7202       7213       7212       7322       7323       7334       7333  
      7202       7203       7214       7213       7323       7324       7335       7334  
      7203       7204       7215       7214       7324       7325       7336       7335  
      7204       7205       7216       7215       7325       7326       7337       7336  
      7206       7207       7218       7217       7327       7328       7339       7338  
      7207       7208       7219       7218       7328       7329       7340       7339  
      7208       7209       7220       7219       7329       7330       7341       7340  
      7209       7210       7221       7220       7330       7331       7342       7341  
      7210       7211       7222       7221       7331       7332       7343       7342  
      7211       7212       7223       7222       7332       7333       7344       7343  
      7212       7213       7224       7223       7333       7334       7345       7344  
      7213       7214       7225       7224       7334       7335       7346       7345  
      7214       7215       7226       7225       7335       7336       7347       7346  
      7215       7216       7227       7226       7336       7337       7348       7347  
      7217       7218       7229       7228       7338       7339       7350       7349  
      7218       7219       7230       7229       7339       7340       7351       7350  
      7219       7220       7231       7230       7340       7341       7352       7351  
      7220       7221       7232       7231       7341       7342       7353       7352  
      7221       7222       7233       7232       7342       7343       7354       7353  
      7222       7223       7234       7233       7343       7344       7355       7354  
      7223       7224       7235       7234       7344       7345       7356       7355  
      7224       7225       7236       7235       7345       7346       7357       7356  
      7225       7226       7237       7236       7346       7347       7358       7357  
      7226       7227       7238       7237       7347       7348       7359       7358  
      7228       7229       7240       7239       7349       7350       7361       7360  
      7229       7230       7241       7240       7350       7351       7362       7361  
      7230       7231       7242       7241       7351       7352       7363       7362  
      7231       7232       7243       7242       7352       7353       7364       7363  
      7232       7233       7244       7243       7353       7354       7365       7364  
      7233       7234       7245       7244       7354       7355       7366       7365  
      7234       7235       7246       7245       7355       7356       7367       7366  
      7235       7236       7247       7246       7356       7357       7368       7367  
      7236       7237       7248       7247       7357       7358       7369       7368  
      7237       7238       7249       7248       7358       7359       7370       7369  
      7239       7240       7251       7250       7360       7361       7372       7371  
      7240       7241       7252       7251       7361       7362       7373       7372  
      7241       7242       7253       7252       7362       7363       7374       7373  
      7242       7243       7254       7253       7363       7364       7375       7374  
      7243       7244       7255       7254       7364       7365       7376       7375  
      7244       7245       7256       7255       7365       7366       7377       7376  
      7245       7246       7257       7256       7366       7367       7378       7377  
      7246       7247       7258       7257       7367       7368       7379       7378  
      7247       7248       7259       7258       7368       7369       7380       7379  
      7248       7249       7260       7259       7369       7370       7381       7380  
      7261       7262       7273       7272       7382       7383       7394       7393  
      7262       7263       7274       7273       7383       7384       7395       7394  
      7263       7264       7275       7274       7384       7385       7396       7395  
      7264       7265       7276       7275       7385       7386       7397       7396  
      7265       7266       7277       7276       7386       7387       7398       7397  
      7266       7267       7278       7277       7387       7388       7399       7398  
      7267       7268       7279       7278       7388       7389       7400       7399  
      7268       7269       7280       7279       7389       7390       7401       7400  
      7269       7270       7281       7280       7390       7391       7402       7401  
      7270       7271       7282       7281       7391       7392       7403       7402  
      7272       7273       7284       7283       7393       7394       7405       7404  
      7273       7274       7285       7284       7394       7395       7406       7405  
      7274       7275       7286       7285       7395       7396       7407       7406  
      7275       7276       7287       7286       7396       7397       7408       7407  
      7276       7277       7288       7287       7397       7398       7409       7408  
      7277       7278       7289       7288       7398       7399       7410       7409  
      7278       7279       7290       7289       7399       7400       7411       7410  
      7279       7280       7291       7290       7400       7401       7412       7411  
      7280       7281       7292       7291       7401       7402       7413       7412  
      7281       7282       7293       7292       7402       7403       7414       7413  
      7283       7284       7295       7294       7404       7405       7416       7415  
      7284       7285       7296       7295       7405       7406       7417       7416  
      7285       7286       7297       7296       7406       7407       7418       7417  
      7286       7287       7298       7297       7407       7408       7419       7418  
      7287       7288       7299       7298       7408       7409       7420       7419  
      7288       7289       7300       7299       7409       7410       7421       7420  
      7289       7290       7301       7300       7410       7411       7422       7421  
      7290       7291       7302       7301       7411       7412       7423       7422  
      7291       7292       7303       7302       7412       7413       7424       7423  
      7292       7293       7304       7303       7413       7414       7425       7424  
      7294       7295       7306       7305       7415       7416       7427       7426  
      7295       7296       7307       7306       7416       7417       7428       7427  
      7296       7297       7308       7307       7417       7418       7429       7428  
      7297       7298       7309       7308       7418       7419       7430       7429  
      7298       7299       7310       7309       7419       7420       7431       7430  
      7299       7300       7311       7310       7420       7421       7432       7431  
      7300       7301       7312       7311       7421       7422       7433       7432  
      7301       7302       7313       7312       7422       7423       7434       7433  
      7302       7303       7314       7313       7423       7424       7435       7434  
      7303       7304       7315       7314       7424       7425       7436       7435  
      7305       7306       7317       7316       7426       7427       7438       7437  
      7306       7307       7318       7317       7427       7428       7439       7438  
      7307       7308       7319       7318       7428       7429       7440       7439  
      7308       7309       7320       7319       7429       7430       7441       7440  
      7309       7310       7321       7320       7430       7431       7442       7441  
      7310       7311       7322       7321       7431       7432       7443       7442  
      7311       7312       7323       7322       7432       7433       7444       7443  
      7312       7313       7324       7323       7433       7434       7445       7444  
      7313       7314       7325       7324       7434       7435       7446       7445  
      7314       7315       7326       7325       7435       7436       7447       7446  
      7316       7317       7328       7327       7437       7438       7449       7448  
      7317       7318       7329       7328       7438       7439       7450       7449  
      7318       7319       7330       7329       7439       7440       7451       7450  
      7319       7320       7331       7330       7440       7441       7452       7451  
      7320       7321       7332       7331       7441       7442       7453       7452  
      7321       7322       7333       7332       7442       7443       7454       7453  
      7322       7323       7334       7333       7443       7444       7455       7454  
      7323       7324       7335       7334       7444       7445       7456       7455  
      7324       7325       7336       7335       7445       7446       7457       7456  
      7325       7326       7337       7336       7446       7447       7458       7457  
      7327       7328       7339       7338       7448       7449       7460       7459  
      7328       7329       7340       7339       7449       7450       7461       7460  
      7329       7330       7341       7340       7450       7451       7462       7461  
      7330       7331       7342       7341       7451       7452       7463       7462  
      7331       7332       7343       7342       7452       7453       7464       7463  
      7332       7333       7344       7343       7453       7454       7465       7464  
      7333       7334       7345       7344       7454       7455       7466       7465  
      7334       7335       7346       7345       7455       7456       7467       7466  
      7335       7336       7347       7346       7456       7457       7468       7467  
      7336       7337       7348       7347       7457       7458       7469       7468  
      7338       7339       7350       7349       7459       7460       7471       7470  
      7339       7340       7351       7350       7460       7461       7472       7471  
      7340       7341       7352       7351       7461       7462       7473       7472  
      7341       7342       7353       7352       7462       7463       7474       7473  
      7342       7343       7354       7353       7463       7464       7475       7474  
      7343       7344       7355       7354       7464       7465       7476       7475  
      7344       7345       7356       7355       7465       7466       7477       7476  
      7345       7346       7357       7356       7466       7467       7478       7477  
      7346       7347       7358       7357       7467       7468       7479       7478  
      7347       7348       7359       7358       7468       7469       7480       7479  
      7349       7350       7361       7360       7470       7471       7482       7481  
      7350       7351       7362       7361       7471       7472       7483       7482  
      7351       7352       7363       7362       7472       7473       7484       7483  
      7352       7353       7364       7363       7473       7474       7485       7484  
      7353       7354       7365       7364       7474       7475       7486       7485  
      7354       7355       7366       7365       7475       7476       7487       7486  
      7355       7356       7367       7366       7476       7477       7488       7487  
      7356       7357       7368       7367       7477       7478       7489       7488  
      7357       7358       7369       7368       7478       7479       7490       7489  
      7358       7359       7370       7369       7479       7480       7491       7490  
      7360       7361       7372       7371       7481       7482       7493       7492  
      7361       7362       7373       7372       7482       7483       7494       7493  
      7362       7363       7374       7373       7483       7484       7495       7494  
      7363       7364       7375       7374       7484       7485       7496       7495  
      7364       7365       7376       7375       7485       7486       7497       7496  
      7365       7366       7377       7376       7486       7487       7498       7497  
      7366       7367       7378       7377       7487       7488       7499       7498  
      7367       7368       7379       7378       7488       7489       7500       7499  
      7368       7369       7380       7379       7489       7490       7501       7500  
      7369       7370       7381       7380       7490       7491       7502       7501  
      7382       7383       7394       7393       7503       7504       7515       7514  
      7383       7384       7395       7394       7504       7505       7516       7515  
      7384       7385       7396       7395       7505       7506       7517       7516  
      7385       7386       7397       7396       7506       7507       7518       7517  
      7386       7387       7398       7397       7507       7508       7519       7518  
      7387       7388       7399       7398       7508       7509       7520       7519  
      7388       7389       7400       7399       7509       7510       7521       7520  
      7389       7390       7401       7400       7510       7511       7522       7521  
      7390       7391       7402       7401       7511       7512       7523       7522  
      7391       7392       7403       7402       7512       7513       7524       7523  
      7393       7394       7405       7404       7514       7515       7526       7525  
      7394       7395       7406       7405       7515       7516       7527       7526  
      7395       7396       7407       7406       7516       7517       7528       7527  
      7396       7397       7408       7407       7517       7518       7529       7528  
      7397       7398       7409       7408       7518       7519       7530       7529  
      7398       7399       7410       7409       7519       7520       7531       7530  
      7399       7400       7411       7410       7520       7521       7532       7531  
      7400       7401       7412       7411       7521       7522       7533       7532  
      7401       7402       7413       7412       7522       7523       7534       7533  
      7402       7403       7414       7413       7523       7524       7535       7534  
      7404       7405       7416       7415       7525       7526       7537       7536  
      7405       7406       7417       7416       7526       7527       7538       7537  
      7406       7407       7418       7417       7527       7528       7539       7538  
      7407       7408       7419       7418       7528       7529       7540       7539  
      7408       7409       7420       7419       7529       7530       7541       7540  
      7409       7410       7421       7420       7530       7531       7542       7541  
      7410       7411       7422       7421       7531       7532       7543       7542  
      7411       7412       7423       7422       7532       7533       7544       7543  
      7412       7413       7424       7423       7533       7534       7545       7544  
      7413       7414       7425       7424       7534       7535       7546       7545  
      7415       7416       7427       7426       7536       7537       7548       7547  
      7416       7417       7428       7427       7537       7538       7549       7548  
      7417       7418       7429       7428       7538       7539       7550       7549  
      7418       7419       7430       7429       7539       7540       7551       7550  
      7419       7420       7431       7430       7540       7541       7552       7551  
      7420       7421       7432       7431       7541       7542       7553       7552  
      7421       7422       7433       7432       7542       7543       7554       7553  
      7422       7423       7434       7433       7543       7544       7555       7554  
      7423       7424       7435       7434       7544       7545       7556       7555  
      7424       7425       7436       7435       7545       7546       7557       7556  
      7426       7427       7438       7437       7547       7548       7559       7558  
      7427       7428       7439       7438       7548       7549       7560       7559  
      7428       7429       7440       7439       7549       7550       7561       7560  
      7429       7430       7441       7440       7550       7551       7562       7561  
      7430       7431       7442       7441       7551       7552       7563       7562  
      7431       7432       7443       7442       7552       7553       7564       7563  
      7432       7433       7444       7443       7553       7554       7565       7564  
      7433       7434       7445       7444       7554       7555       7566       7565  
      7434       7435       7446       7445       7555       7556       7567       7566  
      7435       7436       7447       7446       7556       7557       7568       7567  
      7437       7438       7449       7448       7558       7559       7570       7569  
      7438       7439       7450       7449       7559       7560       7571       7570  
      7439       7440       7451       7450       7560       7561       7572       7571  
      7440       7441       7452       7451       7561       7562       7573       7572  
      7441       7442       7453       7452       7562       7563       7574       7573  
      7442       7443       7454       7453       7563       7564       7575       7574  
      7443       7444       7455       7454       7564       7565       7576       7575  
      7444       7445       7456       7455       7565       7566       7577       7576  
      7445       7446       7457       7456       7566       7567       7578       7577  
      7446       7447       7458       7457       7567       7568       7579       7578  
      7448       7449       7460       7459       7569       7570       7581       7580  
      7449       7450       7461       7460       7570       7571       7582       7581  
      7450       7451       7462       7461       7571       7572       7583       7582  
      7451       7452       7463       7462       7572       7573       7584       7583  
      7452       7453       7464       7463       7573       7574       7585       7584  
      7453       7454       7465       7464       7574       7575       7586       7585  
      7454       7455       7466       7465       7575       7576       7587       7586  
      7455       7456       7467       7466       7576       7577       7588       7587  
      7456       7457       7468       7467       7577       7578       7589       7588  
      7457       7458       7469       7468       7578       7579       7590       7589  
      7459       7460       7471       7470       7580       7581       7592       7591  
      7460       7461       7472       7471       7581       7582       7593       7592  
      7461       7462       7473       7472       7582       7583       7594       7593  
      7462       7463       7474       7473       7583       7584       7595       7594  
      7463       7464       7475       7474       7584       7585       7596       7595  
      7464       7465       7476       7475       7585       7586       7597       7596  
      7465       7466       7477       7476       7586       7587       7598       7597  
      7466       7467       7478       7477       7587       7588       7599       7598  
      7467       7468       7479       7478       7588       7589       7600       7599  
      7468       7469       7480       7479       7589       7590       7601       7600  
      7470       7471       7482       7481       7591       7592       7603       7602  
      7471       7472       7483       7482       7592       7593       7604       7603  
      7472       7473       7484       7483       7593       7594       7605       7604  
      7473       7474       7485       7484       7594       7595       7606       7605  
      7474       7475       7486       7485       7595       7596       7607       7606  
      7475       7476       7487       7486       7596       7597       7608       7607  
      7476       7477       7488       7487       7597       7598       7609       7608  
      7477       7478       7489       7488       7598       7599       7610       7609  
      7478       7479       7490       7489       7599       7600       7611       7610  
      7479       7480       7491       7490       7600       7601       7612       7611  
      7481       7482       7493       7492       7602       7603       7614       7613  
      7482       7483       7494       7493       7603       7604       7615       7614  
      7483       7484       7495       7494       7604       7605       7616       7615  
      7484       7485       7496       7495       7605       7606       7617       7616  
      7485       7486       7497       7496       7606       7607       7618       7617  
      7486       7487       7498       7497       7607       7608       7619       7618  
      7487       7488       7499       7498       7608       7609       7620       7619  
      7488       7489       7500       7499       7609       7610       7621       7620  
      7489       7490       7501       7500       7610       7611       7622       7621  
      7490       7491       7502       7501       7611       7612       7623       7622  
      7503       7504       7515       7514       7624       7625       7636       7635  
      7504       7505       7516       7515       7625       7626       7637       7636  
      7505       7506       7517       7516       7626       7627       7638       7637  
      7506       7507       7518       7517       7627       7628       7639       7638  
      7507       7508       7519       7518       7628       7629       7640       7639  
      7508       7509       7520       7519       7629       7630       7641       7640  
      7509       7510       7521       7520       7630       7631       7642       7641  
      7510       7511       7522       7521       7631       7632       7643       7642  
      7511       7512       7523       7522       7632       7633       7644       7643  
      7512       7513       7524       7523       7633       7634       7645       7644  
      7514       7515       7526       7525       7635       7636       7647       7646  
      7515       7516       7527       7526       7636       7637       7648       7647  
      7516       7517       7528       7527       7637       7638       7649       7648  
      7517       7518       7529       7528       7638       7639       7650       7649  
      7518       7519       7530       7529       7639       7640       7651       7650  
      7519       7520       7531       7530       7640       7641       7652       7651  
      7520       7521       7532       7531       7641       7642       7653       7652  
      7521       7522       7533       7532       7642       7643       7654       7653  
      7522       7523       7534       7533       7643       7644       7655       7654  
      7523       7524       7535       7534       7644       7645       7656       7655  
      7525       7526       7537       7536       7646       7647       7658       7657  
      7526       7527       7538       7537       7647       7648       7659       7658  
      7527       7528       7539       7538       7648       7649       7660       7659  
      7528       7529       7540       7539       7649       7650       7661       7660  
      7529       7530       7541       7540       7650       7651       7662       7661  
      7530       7531       7542       7541       7651       7652       7663       7662  
      7531       7532       7543       7542       7652       7653       7664       7663  
      7532       7533       7544       7543       7653       7654       7665       7664  
      7533       7534       7545       7544       7654       7655       7666       7665  
      7534       7535       7546       7545       7655       7656       7667       7666  
      7536       7537       7548       7547       7657       7658       7669       7668  
      7537       7538       7549       7548       7658       7659       7670       7669  
      7538       7539       7550       7549       7659       7660       7671       7670  
      7539       7540       7551       7550       7660       7661       7672       7671  
      7540       7541       7552       7551       7661       7662       7673       7672  
      7541       7542       7553       7552       7662       7663       7674       7673  
      7542       7543       7554       7553       7663       7664       7675       7674  
      7543       7544       7555       7554       7664       7665       7676       7675  
      7544       7545       7556       7555       7665       7666       7677       7676  
      7545       7546       7557       7556       7666       7667       7678       7677  
      7547       7548       7559       7558       7668       7669       7680       7679  
      7548       7549       7560       7559       7669       7670       7681       7680  
      7549       7550       7561       7560       7670       7671       7682       7681  
      7550       7551       7562       7561       7671       7672       7683       7682  
      7551       7552       7563       7562       7672       7673       7684       7683  
      7552       7553       7564       7563       7673       7674       7685       7684  
      7553       7554       7565       7564       7674       7675       7686       7685  
      7554       7555       7566       7565       7675       7676       7687       7686  
      7555       7556       7567       7566       7676       7677       7688       7687  
      7556       7557       7568       7567       7677       7678       7689       7688  
      7558       7559       7570       7569       7679       7680       7691       7690  
      7559       7560       7571       7570       7680       7681       7692       7691  
      7560       7561       7572       7571       7681       7682       7693       7692  
      7561       7562       7573       7572       7682       7683       7694       7693  
      7562       7563       7574       7573       7683       7684       7695       7694  
      7563       7564       7575       7574       7684       7685       7696       7695  
      7564       7565       7576       7575       7685       7686       7697       7696  
      7565       7566       7577       7576       7686       7687       7698       7697  
      7566       7567       7578       7577       7687       7688       7699       7698  
      7567       7568       7579       7578       7688       7689       7700       7699  
      7569       7570       7581       7580       7690       7691       7702       7701  
      7570       7571       7582       7581       7691       7692       7703       7702  
      7571       7572       7583       7582       7692       7693       7704       7703  
      7572       7573       7584       7583       7693       7694       7705       7704  
      7573       7574       7585       7584       7694       7695       7706       7705  
      7574       7575       7586       7585       7695       7696       7707       7706  
      7575       7576       7587       7586       7696       7697       7708       7707  
      7576       7577       7588       7587       7697       7698       7709       7708  
      7577       7578       7589       7588       7698       7699       7710       7709  
      7578       7579       7590       7589       7699       7700       7711       7710  
      7580       7581       7592       7591       7701       7702       7713       7712  
      7581       7582       7593       7592       7702       7703       7714       7713  
      7582       7583       7594       7593       7703       7704       7715       7714  
      7583       7584       7595       7594       7704       7705       7716       7715  
      7584       7585       7596       7595       7705       7706       7717       7716  
      7585       7586       7597       7596       7706       7707       7718       7717  
      7586       7587       7598       7597       7707       7708       7719       7718  
      7587       7588       7599       7598       7708       7709       7720       7719  
      7588       7589       7600       7599       7709       7710       7721       7720  
      7589       7590       7601       7600       7710       7711       7722       7721  
      7591       7592       7603       7602       7712       7713       7724       7723  
      7592       7593       7604       7603       7713       7714       7725       7724  
      7593       7594       7605       7604       7714       7715       7726       7725  
      7594       7595       7606       7605       7715       7716       7727       7726  
      7595       7596       7607       7606       7716       7717       7728       7727  
      7596       7597       7608       7607       7717       7718       7729       7728  
      7597       7598       7609       7608       7718       7719       7730       7729  
      7598       7599       7610       7609       7719       7720       7731       7730  
      7599       7600       7611       7610       7720       7721       7732       7731  
      7600       7601       7612       7611       7721       7722       7733       7732  
      7602       7603       7614       7613       7723       7724       7735       7734  
      7603       7604       7615       7614       7724       7725       7736       7735  
      7604       7605       7616       7615       7725       7726       7737       7736  
      7605       7606       7617       7616       7726       7727       7738       7737  
      7606       7607       7618       7617       7727       7728       7739       7738  
      7607       7608       7619       7618       7728       7729       7740       7739  
      7608       7609       7620       7619       7729       7730       7741       7740  
      7609       7610       7621       7620       7730       7731       7742       7741  
      7610       7611       7622       7621       7731       7732       7743       7742  
      7611       7612       7623       7622       7732       7733       7744       7743  
      7624       7625       7636       7635       7745       7746       7757       7756  
      7625       7626       7637       7636       7746       7747       7758       7757  
      7626       7627       7638       7637       7747       7748       7759       7758  
      7627       7628       7639       7638       7748       7749       7760       7759  
      7628       7629       7640       7639       7749       7750       7761       7760  
      7629       7630       7641       7640       7750       7751       7762       7761  
      7630       7631       7642       7641       7751       7752       7763       7762  
      7631       7632       7643       7642       7752       7753       7764       7763  
      7632       7633       7644       7643       7753       7754       7765       7764  
      7633       7634       7645       7644       7754       7755       7766       7765  
      7635       7636       7647       7646       7756       7757       7768       7767  
      7636       7637       7648       7647       7757       7758       7769       7768  
      7637       7638       7649       7648       7758       7759       7770       7769  
      7638       7639       7650       7649       7759       7760       7771       7770  
      7639       7640       7651       7650       7760       7761       7772       7771  
      7640       7641       7652       7651       7761       7762       7773       7772  
      7641       7642       7653       7652       7762       7763       7774       7773  
      7642       7643       7654       7653       7763       7764       7775       7774  
      7643       7644       7655       7654       7764       7765       7776       7775  
      7644       7645       7656       7655       7765       7766       7777       7776  
      7646       7647       7658       7657       7767       7768       7779       7778  
      7647       7648       7659       7658       7768       7769       7780       7779  
      7648       7649       7660       7659       7769       7770       7781       7780  
      7649       7650       7661       7660       7770       7771       7782       7781  
      7650       7651       7662       7661       7771       7772       7783       7782  
      7651       7652       7663       7662       7772       7773       7784       7783  
      7652       7653       7664       7663       7773       7774       7785       7784  
      7653       7654       7665       7664       7774       7775       7786       7785  
      7654       7655       7666       7665       7775       7776       7787       7786  
      7655       7656       7667       7666       7776       7777       7788       7787  
      7657       7658       7669       7668       7778       7779       7790       7789  
      7658       7659       7670       7669       7779       7780       7791       7790  
      7659       7660       7671       7670       7780       7781       7792       7791  
      7660       7661       7672       7671       7781       7782       7793       7792  
      7661       7662       7673       7672       7782       7783       7794       7793  
      7662       7663       7674       7673       7783       7784       7795       7794  
      7663       7664       7675       7674       7784       7785       7796       7795  
      7664       7665       7676       7675       7785       7786       7797       7796  
      7665       7666       7677       7676       7786       7787       7798       7797  
      7666       7667       7678       7677       7787       7788       7799       7798  
      7668       7669       7680       7679       7789       7790       7801       7800  
      7669       7670       7681       7680       7790       7791       7802       7801  
      7670       7671       7682       7681       7791       7792       7803       7802  
      7671       7672       7683       7682       7792       7793       7804       7803  
      7672       7673       7684       7683       7793       7794       7805       7804  
      7673       7674       7685       7684       7794       7795       7806       7805  
      7674       7675       7686       7685       7795       7796       7807       7806  
      7675       7676       7687       7686       7796       7797       7808       7807  
      7676       7677       7688       7687       7797       7798       7809       7808  
      7677       7678       7689       7688       7798       7799       7810       7809  
      7679       7680       7691       7690       7800       7801       7812       7811  
      7680       7681       7692       7691       7801       7802       7813       7812  
      7681       7682       7693       7692       7802       7803       7814       7813  
      7682       7683       7694       7693       7803       7804       7815       7814  
      7683       7684       7695       7694       7804       7805       7816       7815  
      7684       7685       7696       7695       7805       7806       7817       7816  
      7685       7686       7697       7696       7806       7807       7818       7817  
      7686       7687       7698       7697       7807       7808       7819       7818  
      7687       7688       7699       7698       7808       7809       7820       7819  
      7688       7689       7700       7699       7809       7810       7821       7820  
      7690       7691       7702       7701       7811       7812       7823       7822  
      7691       7692       7703       7702       7812       7813       7824       7823  
      7692       7693       7704       7703       7813       7814       7825       7824  
      7693       7694       7705       7704       7814       7815       7826       7825  
      7694       7695       7706       7705       7815       7816       7827       7826  
      7695       7696       7707       7706       7816       7817       7828       7827  
      7696       7697       7708       7707       7817       7818       7829       7828  
      7697       7698       7709       7708       7818       7819       7830       7829  
      7698       7699       7710       7709       7819       7820       7831       7830  
      7699       7700       7711       7710       7820       7821       7832       7831  
      7701       7702       7713       7712       7822       7823       7834       7833  
      7702       7703       7714       7713       7823       7824       7835       7834  
      7703       7704       7715       7714       7824       7825       7836       7835  
      7704       7705       7716       7715       7825       7826       7837       7836  
      7705       7706       7717       7716       7826       7827       7838       7837  
      7706       7707       7718       7717       7827       7828       7839       7838  
      7707       7708       7719       7718       7828       7829       7840       7839  
      7708       7709       7720       7719       7829       7830       7841       7840  
      7709       7710       7721       7720       7830       7831       7842       7841  
      7710       7711       7722       7721       7831       7832       7843       7842  
      7712       7713       7724       7723       7833       7834       7845       7844  
      7713       7714       7725       7724       7834       7835       7846       7845  
      7714       7715       7726       7725       7835       7836       7847       7846  
      7715       7716       7727       7726       7836       7837       7848       7847  
      7716       7717       7728       7727       7837       7838       7849       7848  
      7717       7718       7729       7728       7838       7839       7850       7849  
      7718       7719       7730       7729       7839       7840       7851       7850  
      7719       7720       7731       7730       7840       7841       7852       7851  
      7720       7721       7732       7731       7841       7842       7853       7852  
      7721       7722       7733       7732       7842       7843       7854       7853  
      7723       7724       7735       7734       7844       7845       7856       7855  
      7724       7725       7736       7735       7845       7846       7857       7856  
      7725       7726       7737       7736       7846       7847       7858       7857  
      7726       7727       7738       7737       7847       7848       7859       7858  
      7727       7728       7739       7738       7848       7849       7860       7859  
      7728       7729       7740       7739       7849       7850       7861       7860  
      7729       7730       7741       7740       7850       7851       7862       7861  
      7730       7731       7742       7741       7851       7852       7863       7862  
      7731       7732       7743       7742       7852       7853       7864       7863  
      7732       7733       7744       7743       7853       7854       7865       7864  
      7745       7746       7757       7756       7866       7867       7878       7877  
      7746       7747       7758       7757       7867       7868       7879       7878  
      7747       7748       7759       7758       7868       7869       7880       7879  
      7748       7749       7760       7759       7869       7870       7881       7880  
      7749       7750       7761       7760       7870       7871       7882       7881  
      7750       7751       7762       7761       7871       7872       7883       7882  
      7751       7752       7763       7762       7872       7873       7884       7883  
      7752       7753       7764       7763       7873       7874       7885       7884  
      7753       7754       7765       7764       7874       7875       7886       7885  
      7754       7755       7766       7765       7875       7876       7887       7886  
      7756       7757       7768       7767       7877       7878       7889       7888  
      7757       7758       7769       7768       7878       7879       7890       7889  
      7758       7759       7770       7769       7879       7880       7891       7890  
      7759       7760       7771       7770       7880       7881       7892       7891  
      7760       7761       7772       7771       7881       7882       7893       7892  
      7761       7762       7773       7772       7882       7883       7894       7893  
      7762       7763       7774       7773       7883       7884       7895       7894  
      7763       7764       7775       7774       7884       7885       7896       7895  
      7764       7765       7776       7775       7885       7886       7897       7896  
      7765       7766       7777       7776       7886       7887       7898       7897  
      7767       7768       7779       7778       7888       7889       7900       7899  
      7768       7769       7780       7779       7889       7890       7901       7900  
      7769       7770       7781       7780       7890       7891       7902       7901  
      7770       7771       7782       7781       7891       7892       7903       7902  
      7771       7772       7783       7782       7892       7893       7904       7903  
      7772       7773       7784       7783       7893       7894       7905       7904  
      7773       7774       7785       7784       7894       7895       7906       7905  
      7774       7775       7786       7785       7895       7896       7907       7906  
      7775       7776       7787       7786       7896       7897       7908       7907  
      7776       7777       7788       7787       7897       7898       7909       7908  
      7778       7779       7790       7789       7899       7900       7911       7910  
      7779       7780       7791       7790       7900       7901       7912       7911  
      7780       7781       7792       7791       7901       7902       7913       7912  
      7781       7782       7793       7792       7902       7903       7914       7913  
      7782       7783       7794       7793       7903       7904       7915       7914  
      7783       7784       7795       7794       7904       7905       7916       7915  
      7784       7785       7796       7795       7905       7906       7917       7916  
      7785       7786       7797       7796       7906       7907       7918       7917  
      7786       7787       7798       7797       7907       7908       7919       7918  
      7787       7788       7799       7798       7908       7909       7920       7919  
      7789       7790       7801       7800       7910       7911       7922       7921  
      7790       7791       7802       7801       7911       7912       7923       7922  
      7791       7792       7803       7802       7912       7913       7924       7923  
      7792       7793       7804       7803       7913       7914       7925       7924  
      7793       7794       7805       7804       7914       7915       7926       7925  
      7794       7795       7806       7805       7915       7916       7927       7926  
      7795       7796       7807       7806       7916       7917       7928       7927  
      7796       7797       7808       7807       7917       7918       7929       7928  
      7797       7798       7809       7808       7918       7919       7930       7929  
      7798       7799       7810       7809       7919       7920       7931       7930  
      7800       7801       7812       7811       7921       7922       7933       7932  
      7801       7802       7813       7812       7922       7923       7934       7933  
      7802       7803       7814       7813       7923       7924       7935       7934  
      7803       7804       7815       7814       7924       7925       7936       7935  
      7804       7805       7816       7815       7925       7926       7937       7936  
      7805       7806       7817       7816       7926       7927       7938       7937  
      7806       7807       7818       7817       7927       7928       7939       7938  
      7807       7808       7819       7818       7928       7929       7940       7939  
      7808       7809       7820       7819       7929       7930       7941       7940  
      7809       7810       7821       7820       7930       7931       7942       7941  
      7811       7812       7823       7822       7932       7933       7944       7943  
      7812       7813       7824       7823       7933       7934       7945       7944  
      7813       7814       7825       7824       7934       7935       7946       7945  
      7814       7815       7826       7825       7935       7936       7947       7946  
      7815       7816       7827       7826       7936       7937       7948       7947  
      7816       7817       7828       7827       7937       7938       7949       7948  
      7817       7818       7829       7828       7938       7939       7950       7949  
      7818       7819       7830       7829       7939       7940       7951       7950  
      7819       7820       7831       7830       7940       7941       7952       7951  
      7820       7821       7832       7831       7941       7942       7953       7952  
      7822       7823       7834       7833       7943       7944       7955       7954  
      7823       7824       7835       7834       7944       7945       7956       7955  
      7824       7825       7836       7835       7945       7946       7957       7956  
      7825       7826       7837       7836       7946       7947       7958       7957  
      7826       7827       7838       7837       7947       7948       7959       7958  
      7827       7828       7839       7838       7948       7949       7960       7959  
      7828       7829       7840       7839       7949       7950       7961       7960  
      7829       7830       7841       7840       7950       7951       7962       7961  
      7830       7831       7842       7841       7951       7952       7963       7962  
      7831       7832       7843       7842       7952       7953       7964       7963  
      7833       7834       7845       7844       7954       7955       7966       7965  
      7834       7835       7846       7845       7955       7956       7967       7966  
      7835       7836       7847       7846       7956       7957       7968       7967  
      7836       7837       7848       7847       7957       7958       7969       7968  
      7837       7838       7849       7848       7958       7959       7970       7969  
      7838       7839       7850       7849       7959       7960       7971       7970  
      7839       7840       7851       7850       7960       7961       7972       7971  
      7840       7841       7852       7851       7961       7962       7973       7972  
      7841       7842       7853       7852       7962       7963       7974       7973  
      7842       7843       7854       7853       7963       7964       7975       7974  
      7844       7845       7856       7855       7965       7966       7977       7976  
      7845       7846       7857       7856       7966       7967       7978       7977  
      7846       7847       7858       7857       7967       7968       7979       7978  
      7847       7848       7859       7858       7968       7969       7980       7979  
      7848       7849       7860       7859       7969       7970       7981       7980  
      7849       7850       7861       7860       7970       7971       7982       7981  
      7850       7851       7862       7861       7971       7972       7983       7982  
      7851       7852       7863       7862       7972       7973       7984       7983  
      7852       7853       7864       7863       7973       7974       7985       7984  
      7853       7854       7865       7864       7974       7975       7986       7985  
      7866       7867       7878       7877       7987       7988       7999       7998  
      7867       7868       7879       7878       7988       7989       8000       7999  
      7868       7869       7880       7879       7989       7990       8001       8000  
      7869       7870       7881       7880       7990       7991       8002       8001  
      7870       7871       7882       7881       7991       7992       8003       8002  
      7871       7872       7883       7882       7992       7993       8004       8003  
      7872       7873       7884       7883       7993       7994       8005       8004  
      7873       7874       7885       7884       7994       7995       8006       8005  
      7874       7875       7886       7885       7995       7996       8007       8006  
      7875       7876       7887       7886       7996       7997       8008       8007  
      7877       7878       7889       7888       7998       7999       8010       8009  
      7878       7879       7890       7889       7999       8000       8011       8010  
      7879       7880       7891       7890       8000       8001       8012       8011  
      7880       7881       7892       7891       8001       8002       8013       8012  
      7881       7882       7893       7892       8002       8003       8014       8013  
      7882       7883       7894       7893       8003       8004       8015       8014  
      7883       7884       7895       7894       8004       8005       8016       8015  
      7884       7885       7896       7895       8005       8006       8017       8016  
      7885       7886       7897       7896       8006       8007       8018       8017  
      7886       7887       7898       7897       8007       8008       8019       8018  
      7888       7889       7900       7899       8009       8010       8021       8020  
      7889       7890       7901       7900       8010       8011       8022       8021  
      7890       7891       7902       7901       8011       8012       8023       8022  
      7891       7892       7903       7902       8012       8013       8024       8023  
      7892       7893       7904       7903       8013       8014       8025       8024  
      7893       7894       7905       7904       8014       8015       8026       8025  
      7894       7895       7906       7905       8015       8016       8027       8026  
      7895       7896       7907       7906       8016       8017       8028       8027  
      7896       7897       7908       7907       8017       8018       8029       8028  
      7897       7898       7909       7908       8018       8019       8030       8029  
      7899       7900       7911       7910       8020       8021       8032       8031  
      7900       7901       7912       7911       8021       8022       8033       8032  
      7901       7902       7913       7912       8022       8023       8034       8033  
      7902       7903       7914       7913       8023       8024       8035       8034  
      7903       7904       7915       7914       8024       8025       8036       8035  
      7904       7905       7916       7915       8025       8026       8037       8036  
      7905       7906       7917       7916       8026       8027       8038       8037  
      7906       7907       7918       7917       8027       8028       8039       8038  
      7907       7908       7919       7918       8028       8029       8040       8039  
      7908       7909       7920       7919       8029       8030       8041       8040  
      7910       7911       7922       7921       8031       8032       8043       8042  
      7911       7912       7923       7922       8032       8033       8044       8043  
      7912       7913       7924       7923       8033       8034       8045       8044  
      7913       7914       7925       7924       8034       8035       8046       8045  
      7914       7915       7926       7925       8035       8036       8047       8046  
      7915       7916       7927       7926       8036       8037       8048       8047  
      7916       7917       7928       7927       8037       8038       8049       8048  
      7917       7918       7929       7928       8038       8039       8050       8049  
      7918       7919       7930       7929       8039       8040       8051       8050  
      7919       7920       7931       7930       8040       8041       8052       8051  
      7921       7922       7933       7932       8042       8043       8054       8053  
      7922       7923       7934       7933       8043       8044       8055       8054  
      7923       7924       7935       7934       8044       8045       8056       8055  
      7924       7925       7936       7935       8045       8046       8057       8056  
      7925       7926       7937       7936       8046       8047       8058       8057  
      7926       7927       7938       7937       8047       8048       8059       8058  
      7927       7928       7939       7938       8048       8049       8060       8059  
      7928       7929       7940       7939       8049       8050       8061       8060  
      7929       7930       7941       7940       8050       8051       8062       8061  
      7930       7931       7942       7941       8051       8052       8063       8062  
      7932       7933       7944       7943       8053       8054       8065       8064  
      7933       7934       7945       7944       8054       8055       8066       8065  
      7934       7935       7946       7945       8055       8056       8067       8066  
      7935       7936       7947       7946       8056       8057       8068       8067  
      7936       7937       7948       7947       8057       8058       8069       8068  
      7937       7938       7949       7948       8058       8059       8070       8069  
      7938       7939       7950       7949       8059       8060       8071       8070  
      7939       7940       7951       7950       8060       8061       8072       8071  
      7940       7941       7952       7951       8061       8062       8073       8072  
      7941       7942       7953       7952       8062       8063       8074       8073  
      7943       7944       7955       7954       8064       8065       8076       8075  
      7944       7945       7956       7955       8065       8066       8077       8076  
      7945       7946       7957       7956       8066       8067       8078       8077  
      7946       7947       7958       7957       8067       8068       8079       8078  
      7947       7948       7959       7958       8068       8069       8080       8079  
      7948       7949       7960       7959       8069       8070       8081       8080  
      7949       7950       7961       7960       8070       8071       8082       8081  
      7950       7951       7962       7961       8071       8072       8083       8082  
      7951       7952       7963       7962       8072       8073       8084       8083  
      7952       7953       7964       7963       8073       8074       8085       8084  
      7954       7955       7966       7965       8075       8076       8087       8086  
      7955       7956       7967       7966       8076       8077       8088       8087  
      7956       7957       7968       7967       8077       8078       8089       8088  
      7957       7958       7969       7968       8078       8079       8090       8089  
      7958       7959       7970       7969       8079       8080       8091       8090  
      7959       7960       7971       7970       8080       8081       8092       8091  
      7960       7961       7972       7971       8081       8082       8093       8092  
      7961       7962       7973       7972       8082       8083       8094       8093  
      7962       7963       7974       7973       8083       8084       8095       8094  
      7963       7964       7975       7974       8084       8085       8096       8095  
      7965       7966       7977       7976       8086       8087       8098       8097  
      7966       7967       7978       7977       8087       8088       8099       8098  
      7967       7968       7979       7978       8088       8089       8100       8099  
      7968       7969       7980       7979       8089       8090       8101       8100  
      7969       7970       7981       7980       8090       8091       8102       8101  
      7970       7971       7982       7981       8091       8092       8103       8102  
      7971       7972       7983       7982       8092       8093       8104       8103  
      7972       7973       7984       7983       8093       8094       8105       8104  
      7973       7974       7985       7984       8094       8095       8106       8105  
      7974       7975       7986       7985       8095       8096       8107       8106  
      7987       7988       7999       7998       8108       8109       8120       8119  
      7988       7989       8000       7999       8109       8110       8121       8120  
      7989       7990       8001       8000       8110       8111       8122       8121  
      7990       7991       8002       8001       8111       8112       8123       8122  
      7991       7992       8003       8002       8112       8113       8124       8123  
      7992       7993       8004       8003       8113       8114       8125       8124  
      7993       7994       8005       8004       8114       8115       8126       8125  
      7994       7995       8006       8005       8115       8116       8127       8126  
      7995       7996       8007       8006       8116       8117       8128       8127  
      7996       7997       8008       8007       8117       8118       8129       8128  
      7998       7999       8010       8009       8119       8120       8131       8130  
      7999       8000       8011       8010       8120       8121       8132       8131  
      8000       8001       8012       8011       8121       8122       8133       8132  
      8001       8002       8013       8012       8122       8123       8134       8133  
      8002       8003       8014       8013       8123       8124       8135       8134  
      8003       8004       8015       8014       8124       8125       8136       8135  
      8004       8005       8016       8015       8125       8126       8137       8136  
      8005       8006       8017       8016       8126       8127       8138       8137  
      8006       8007       8018       8017       8127       8128       8139       8138  
      8007       8008       8019       8018       8128       8129       8140       8139  
      8009       8010       8021       8020       8130       8131       8142       8141  
      8010       8011       8022       8021       8131       8132       8143       8142  
      8011       8012       8023       8022       8132       8133       8144       8143  
      8012       8013       8024       8023       8133       8134       8145       8144  
      8013       8014       8025       8024       8134       8135       8146       8145  
      8014       8015       8026       8025       8135       8136       8147       8146  
      8015       8016       8027       8026       8136       8137       8148       8147  
      8016       8017       8028       8027       8137       8138       8149       8148  
      8017       8018       8029       8028       8138       8139       8150       8149  
      8018       8019       8030       8029       8139       8140       8151       8150  
      8020       8021       8032       8031       8141       8142       8153       8152  
      8021       8022       8033       8032       8142       8143       8154       8153  
      8022       8023       8034       8033       8143       8144       8155       8154  
      8023       8024       8035       8034       8144       8145       8156       8155  
      8024       8025       8036       8035       8145       8146       8157       8156  
      8025       8026       8037       8036       8146       8147       8158       8157  
      8026       8027       8038       8037       8147       8148       8159       8158  
      8027       8028       8039       8038       8148       8149       8160       8159  
      8028       8029       8040       8039       8149       8150       8161       8160  
      8029       8030       8041       8040       8150       8151       8162       8161  
      8031       8032       8043       8042       8152       8153       8164       8163  
      8032       8033       8044       8043       8153       8154       8165       8164  
      8033       8034       8045       8044       8154       8155       8166       8165  
      8034       8035       8046       8045       8155       8156       8167       8166  
      8035       8036       8047       8046       8156       8157       8168       8167  
      8036       8037       8048       8047       8157       8158       8169       8168  
      8037       8038       8049       8048       8158       8159       8170       8169  
      8038       8039       8050       8049       8159       8160       8171       8170  
      8039       8040       8051       8050       8160       8161       8172       8171  
      8040       8041       8052       8051       8161       8162       8173       8172  
      8042       8043       8054       8053       8163       8164       8175       8174  
      8043       8044       8055       8054       8164       8165       8176       8175  
      8044       8045       8056       8055       8165       8166       8177       8176  
      8045       8046       8057       8056       8166       8167       8178       8177  
      8046       8047       8058       8057       8167       8168       8179       8178  
      8047       8048       8059       8058       8168       8169       8180       8179  
      8048       8049       8060       8059       8169       8170       8181       8180  
      8049       8050       8061       8060       8170       8171       8182       8181  
      8050       8051       8062       8061       8171       8172       8183       8182  
      8051       8052       8063       8062       8172       8173       8184       8183  
      8053       8054       8065       8064       8174       8175       8186       8185  
      8054       8055       8066       8065       8175       8176       8187       8186  
      8055       8056       8067       8066       8176       8177       8188       8187  
      8056       8057       8068       8067       8177       8178       8189       8188  
      8057       8058       8069       8068       8178       8179       8190       8189  
      8058       8059       8070       8069       8179       8180       8191       8190  
      8059       8060       8071       8070       8180       8181       8192       8191  
      8060       8061       8072       8071       8181       8182       8193       8192  
      8061       8062       8073       8072       8182       8183       8194       8193  
      8062       8063       8074       8073       8183       8184       8195       8194  
      8064       8065       8076       8075       8185       8186       8197       8196  
      8065       8066       8077       8076       8186       8187       8198       8197  
      8066       8067       8078       8077       8187       8188       8199       8198  
      8067       8068       8079       8078       8188       8189       8200       8199  
      8068       8069       8080       8079       8189       8190       8201       8200  
      8069       8070       8081       8080       8190       8191       8202       8201  
      8070       8071       8082       8081       8191       8192       8203       8202  
      8071       8072       8083       8082       8192       8193       8204       8203  
      8072       8073       8084       8083       8193       8194       8205       8204  
      8073       8074       8085       8084       8194       8195       8206       8205  
      8075       8076       8087       8086       8196       8197       8208       8207  
      8076       8077       8088       8087       8197       8198       8209       8208  
      8077       8078       8089       8088       8198       8199       8210       8209  
      8078       8079       8090       8089       8199       8200       8211       8210  
      8079       8080       8091       8090       8200       8201       8212       8211  
      8080       8081       8092       8091       8201       8202       8213       8212  
      8081       8082       8093       8092       8202       8203       8214       8213  
      8082       8083       8094       8093       8203       8204       8215       8214  
      8083       8084       8095       8094       8204       8205       8216       8215  
      8084       8085       8096       8095       8205       8206       8217       8216  
      8086       8087       8098       8097       8207       8208       8219       8218  
      8087       8088       8099       8098       8208       8209       8220       8219  
      8088       8089       8100       8099       8209       8210       8221       8220  
      8089       8090       8101       8100       8210       8211       8222       8221  
      8090       8091       8102       8101       8211       8212       8223       8222  
      8091       8092       8103       8102       8212       8213       8224       8223  
      8092       8093       8104       8103       8213       8214       8225       8224  
      8093       8094       8105       8104       8214       8215       8226       8225  
      8094       8095       8106       8105       8215       8216       8227       8226  
      8095       8096       8107       8106       8216       8217       8228       8227  
      8108       8109       8120       8119       8229       8230       8241       8240  
      8109       8110       8121       8120       8230       8231       8242       8241  
      8110       8111       8122       8121       8231       8232       8243       8242  
      8111       8112       8123       8122       8232       8233       8244       8243  
      8112       8113       8124       8123       8233       8234       8245       8244  
      8113       8114       8125       8124       8234       8235       8246       8245  
      8114       8115       8126       8125       8235       8236       8247       8246  
      8115       8116       8127       8126       8236       8237       8248       8247  
      8116       8117       8128       8127       8237       8238       8249       8248  
      8117       8118       8129       8128       8238       8239       8250       8249  
      8119       8120       8131       8130       8240       8241       8252       8251  
      8120       8121       8132       8131       8241       8242       8253       8252  
      8121       8122       8133       8132       8242       8243       8254       8253  
      8122       8123       8134       8133       8243       8244       8255       8254  
      8123       8124       8135       8134       8244       8245       8256       8255  
      8124       8125       8136       8135       8245       8246       8257       8256  
      8125       8126       8137       8136       8246       8247       8258       8257  
      8126       8127       8138       8137       8247       8248       8259       8258  
      8127       8128       8139       8138       8248       8249       8260       8259  
      8128       8129       8140       8139       8249       8250       8261       8260  
      8130       8131       8142       8141       8251       8252       8263       8262  
      8131       8132       8143       8142       8252       8253       8264       8263  
      8132       8133       8144       8143       8253       8254       8265       8264  
      8133       8134       8145       8144       8254       8255       8266       8265  
      8134       8135       8146       8145       8255       8256       8267       8266  
      8135       8136       8147       8146       8256       8257       8268       8267  
      8136       8137       8148       8147       8257       8258       8269       8268  
      8137       8138       8149       8148       8258       8259       8270       8269  
      8138       8139       8150       8149       8259       8260       8271       8270  
      8139       8140       8151       8150       8260       8261       8272       8271  
      8141       8142       8153       8152       8262       8263       8274       8273  
      8142       8143       8154       8153       8263       8264       8275       8274  
      8143       8144       8155       8154       8264       8265       8276       8275  
      8144       8145       8156       8155       8265       8266       8277       8276  
      8145       8146       8157       8156       8266       8267       8278       8277  
      8146       8147       8158       8157       8267       8268       8279       8278  
      8147       8148       8159       8158       8268       8269       8280       8279  
      8148       8149       8160       8159       8269       8270       8281       8280  
      8149       8150       8161       8160       8270       8271       8282       8281  
      8150       8151       8162       8161       8271       8272       8283       8282  
      8152       8153       8164       8163       8273       8274       8285       8284  
      8153       8154       8165       8164       8274       8275       8286       8285  
      8154       8155       8166       8165       8275       8276       8287       8286  
      8155       8156       8167       8166       8276       8277       8288       8287  
      8156       8157       8168       8167       8277       8278       8289       8288  
      8157       8158       8169       8168       8278       8279       8290       8289  
      8158       8159       8170       8169       8279       8280       8291       8290  
      8159       8160       8171       8170       8280       8281       8292       8291  
      8160       8161       8172       8171       8281       8282       8293       8292  
      8161       8162       8173       8172       8282       8283       8294       8293  
      8163       8164       8175       8174       8284       8285       8296       8295  
      8164       8165       8176       8175       8285       8286       8297       8296  
      8165       8166       8177       8176       8286       8287       8298       8297  
      8166       8167       8178       8177       8287       8288       8299       8298  
      8167       8168       8179       8178       8288       8289       8300       8299  
      8168       8169       8180       8179       8289       8290       8301       8300  
      8169       8170       8181       8180       8290       8291       8302       8301  
      8170       8171       8182       8181       8291       8292       8303       8302  
      8171       8172       8183       8182       8292       8293       8304       8303  
      8172       8173       8184       8183       8293       8294       8305       8304  
      8174       8175       8186       8185       8295       8296       8307       8306  
      8175       8176       8187       8186       8296       8297       8308       8307  
      8176       8177       8188       8187       8297       8298       8309       8308  
      8177       8178       8189       8188       8298       8299       8310       8309  
      8178       8179       8190       8189       8299       8300       8311       8310  
      8179       8180       8191       8190       8300       8301       8312       8311  
      8180       8181       8192       8191       8301       8302       8313       8312  
      8181       8182       8193       8192       8302       8303       8314       8313  
      8182       8183       8194       8193       8303       8304       8315       8314  
      8183       8184       8195       8194       8304       8305       8316       8315  
      8185       8186       8197       8196       8306       8307       8318       8317  
      8186       8187       8198       8197       8307       8308       8319       8318  
      8187       8188       8199       8198       8308       8309       8320       8319  
      8188       8189       8200       8199       8309       8310       8321       8320  
      8189       8190       8201       8200       8310       8311       8322       8321  
      8190       8191       8202       8201       8311       8312       8323       8322  
      8191       8192       8203       8202       8312       8313       8324       8323  
      8192       8193       8204       8203       8313       8314       8325       8324  
      8193       8194       8205       8204       8314       8315       8326       8325  
      8194       8195       8206       8205       8315       8316       8327       8326  
      8196       8197       8208       8207       8317       8318       8329       8328  
      8197       8198       8209       8208       8318       8319       8330       8329  
      8198       8199       8210       8209       8319       8320       8331       8330  
      8199       8200       8211       8210       8320       8321       8332       8331  
      8200       8201       8212       8211       8321       8322       8333       8332  
      8201       8202       8213       8212       8322       8323       8334       8333  
      8202       8203       8214       8213       8323       8324       8335       8334  
      8203       8204       8215       8214       8324       8325       8336       8335  
      8204       8205       8216       8215       8325       8326       8337       8336  
      8205       8206       8217       8216       8326       8327       8338       8337  
      8207       8208       8219       8218       8328       8329       8340       8339  
      8208       8209       8220       8219       8329       8330       8341       8340  
      8209       8210       8221       8220       8330       8331       8342       8341  
      8210       8211       8222       8221       8331       8332       8343       8342  
      8211       8212       8223       8222       8332       8333       8344       8343  
      8212       8213       8224       8223       8333       8334       8345       8344  
      8213       8214       8225       8224       8334       8335       8346       8345  
      8214       8215       8226       8225       8335       8336       8347       8346  
      8215       8216       8227       8226       8336       8337       8348       8347  
      8216       8217       8228       8227       8337       8338       8349       8348  
      8229       8230       8241       8240       8350       8351       8362       8361  
      8230       8231       8242       8241       8351       8352       8363       8362  
      8231       8232       8243       8242       8352       8353       8364       8363  
      8232       8233       8244       8243       8353       8354       8365       8364  
      8233       8234       8245       8244       8354       8355       8366       8365  
      8234       8235       8246       8245       8355       8356       8367       8366  
      8235       8236       8247       8246       8356       8357       8368       8367  
      8236       8237       8248       8247       8357       8358       8369       8368  
      8237       8238       8249       8248       8358       8359       8370       8369  
      8238       8239       8250       8249       8359       8360       8371       8370  
      8240       8241       8252       8251       8361       8362       8373       8372  
      8241       8242       8253       8252       8362       8363       8374       8373  
      8242       8243       8254       8253       8363       8364       8375       8374  
      8243       8244       8255       8254       8364       8365       8376       8375  
      8244       8245       8256       8255       8365       8366       8377       8376  
      8245       8246       8257       8256       8366       8367       8378       8377  
      8246       8247       8258       8257       8367       8368       8379       8378  
      8247       8248       8259       8258       8368       8369       8380       8379  
      8248       8249       8260       8259       8369       8370       8381       8380  
      8249       8250       8261       8260       8370       8371       8382       8381  
      8251       8252       8263       8262       8372       8373       8384       8383  
      8252       8253       8264       8263       8373       8374       8385       8384  
      8253       8254       8265       8264       8374       8375       8386       8385  
      8254       8255       8266       8265       8375       8376       8387       8386  
      8255       8256       8267       8266       8376       8377       8388       8387  
      8256       8257       8268       8267       8377       8378       8389       8388  
      8257       8258       8269       8268       8378       8379       8390       8389  
      8258       8259       8270       8269       8379       8380       8391       8390  
      8259       8260       8271       8270       8380       8381       8392       8391  
      8260       8261       8272       8271       8381       8382       8393       8392  
      8262       8263       8274       8273       8383       8384       8395       8394  
      8263       8264       8275       8274       8384       8385       8396       8395  
      8264       8265       8276       8275       8385       8386       8397       8396  
      8265       8266       8277       8276       8386       8387       8398       8397  
      8266       8267       8278       8277       8387       8388       8399       8398  
      8267       8268       8279       8278       8388       8389       8400       8399  
      8268       8269       8280       8279       8389       8390       8401       8400  
      8269       8270       8281       8280       8390       8391       8402       8401  
      8270       8271       8282       8281       8391       8392       8403       8402  
      8271       8272       8283       8282       8392       8393       8404       8403  
      8273       8274       8285       8284       8394       8395       8406       8405  
      8274       8275       8286       8285       8395       8396       8407       8406  
      8275       8276       8287       8286       8396       8397       8408       8407  
      8276       8277       8288       8287       8397       8398       8409       8408  
      8277       8278       8289       8288       8398       8399       8410       8409  
      8278       8279       8290       8289       8399       8400       8411       8410  
      8279       8280       8291       8290       8400       8401       8412       8411  
      8280       8281       8292       8291       8401       8402       8413       8412  
      8281       8282       8293       8292       8402       8403       8414       8413  
      8282       8283       8294       8293       8403       8404       8415       8414  
      8284       8285       8296       8295       8405       8406       8417       8416  
      8285       8286       8297       8296       8406       8407       8418       8417  
      8286       8287       8298       8297       8407       8408       8419       8418  
      8287       8288       8299       8298       8408       8409       8420       8419  
      8288       8289       8300       8299       8409       8410       8421       8420  
      8289       8290       8301       8300       8410       8411       8422       8421  
      8290       8291       8302       8301       8411       8412       8423       8422  
      8291       8292       8303       8302       8412       8413       8424       8423  
      8292       8293       8304       8303       8413       8414       8425       8424  
      8293       8294       8305       8304       8414       8415       8426       8425  
      8295       8296       8307       8306       8416       8417       8428       8427  
      8296       8297       8308       8307       8417       8418       8429       8428  
      8297       8298       8309       8308       8418       8419       8430       8429  
      8298       8299       8310       8309       8419       8420       8431       8430  
      8299       8300       8311       8310       8420       8421       8432       8431  
      8300       8301       8312       8311       8421       8422       8433       8432  
      8301       8302       8313       8312       8422       8423       8434       8433  
      8302       8303       8314       8313       8423       8424       8435       8434  
      8303       8304       8315       8314       8424       8425       8436       8435  
      8304       8305       8316       8315       8425       8426       8437       8436  
      8306       8307       8318       8317       8427       8428       8439       8438  
      8307       8308       8319       8318       8428       8429       8440       8439  
      8308       8309       8320       8319       8429       8430       8441       8440  
      8309       8310       8321       8320       8430       8431       8442       8441  
      8310       8311       8322       8321       8431       8432       8443       8442  
      8311       8312       8323       8322       8432       8433       8444       8443  
      8312       8313       8324       8323       8433       8434       8445       8444  
      8313       8314       8325       8324       8434       8435       8446       8445  
      8314       8315       8326       8325       8435       8436       8447       8446  
      8315       8316       8327       8326       8436       8437       8448       8447  
      8317       8318       8329       8328       8438       8439       8450       8449  
      8318       8319       8330       8329       8439       8440       8451       8450  
      8319       8320       8331       8330       8440       8441       8452       8451  
      8320       8321       8332       8331       8441       8442       8453       8452  
      8321       8322       8333       8332       8442       8443       8454       8453  
      8322       8323       8334       8333       8443       8444       8455       8454  
      8323       8324       8335       8334       8444       8445       8456       8455  
      8324       8325       8336       8335       8445       8446       8457       8456  
      8325       8326       8337       8336       8446       8447       8458       8457  
      8326       8327       8338       8337       8447       8448       8459       8458  
      8328       8329       8340       8339       8449       8450       8461       8460  
      8329       8330       8341       8340       8450       8451       8462       8461  
      8330       8331       8342       8341       8451       8452       8463       8462  
      8331       8332       8343       8342       8452       8453       8464       8463  
      8332       8333       8344       8343       8453       8454       8465       8464  
      8333       8334       8345       8344       8454       8455       8466       8465  
      8334       8335       8346       8345       8455       8456       8467       8466  
      8335       8336       8347       8346       8456       8457       8468       8467  
      8336       8337       8348       8347       8457       8458       8469       8468  
      8337       8338       8349       8348       8458       8459       8470       8469  
      8350       8351       8362       8361       8471       8472       8483       8482  
      8351       8352       8363       8362       8472       8473       8484       8483  
      8352       8353       8364       8363       8473       8474       8485       8484  
      8353       8354       8365       8364       8474       8475       8486       8485  
      8354       8355       8366       8365       8475       8476       8487       8486  
      8355       8356       8367       8366       8476       8477       8488       8487  
      8356       8357       8368       8367       8477       8478       8489       8488  
      8357       8358       8369       8368       8478       8479       8490       8489  
      8358       8359       8370       8369       8479       8480       8491       8490  
      8359       8360       8371       8370       8480       8481       8492       8491  
      8361       8362       8373       8372       8482       8483       8494       8493  
      8362       8363       8374       8373       8483       8484       8495       8494  
      8363       8364       8375       8374       8484       8485       8496       8495  
      8364       8365       8376       8375       8485       8486       8497       8496  
      8365       8366       8377       8376       8486       8487       8498       8497  
      8366       8367       8378       8377       8487       8488       8499       8498  
      8367       8368       8379       8378       8488       8489       8500       8499  
      8368       8369       8380       8379       8489       8490       8501       8500  
      8369       8370       8381       8380       8490       8491       8502       8501  
      8370       8371       8382       8381       8491       8492       8503       8502  
      8372       8373       8384       8383       8493       8494       8505       8504  
      8373       8374       8385       8384       8494       8495       8506       8505  
      8374       8375       8386       8385       8495       8496       8507       8506  
      8375       8376       8387       8386       8496       8497       8508       8507  
      8376       8377       8388       8387       8497       8498       8509       8508  
      8377       8378       8389       8388       8498       8499       8510       8509  
      8378       8379       8390       8389       8499       8500       8511       8510  
      8379       8380       8391       8390       8500       8501       8512       8511  
      8380       8381       8392       8391       8501       8502       8513       8512  
      8381       8382       8393       8392       8502       8503       8514       8513  
      8383       8384       8395       8394       8504       8505       8516       8515  
      8384       8385       8396       8395       8505       8506       8517       8516  
      8385       8386       8397       8396       8506       8507       8518       8517  
      8386       8387       8398       8397       8507       8508       8519       8518  
      8387       8388       8399       8398       8508       8509       8520       8519  
      8388       8389       8400       8399       8509       8510       8521       8520  
      8389       8390       8401       8400       8510       8511       8522       8521  
      8390       8391       8402       8401       8511       8512       8523       8522  
      8391       8392       8403       8402       8512       8513       8524       8523  
      8392       8393       8404       8403       8513       8514       8525       8524  
      8394       8395       8406       8405       8515       8516       8527       8526  
      8395       8396       8407       8406       8516       8517       8528       8527  
      8396       8397       8408       8407       8517       8518       8529       8528  
      8397       8398       8409       8408       8518       8519       8530       8529  
      8398       8399       8410       8409       8519       8520       8531       8530  
      8399       8400       8411       8410       8520       8521       8532       8531  
      8400       8401       8412       8411       8521       8522       8533       8532  
      8401       8402       8413       8412       8522       8523       8534       8533  
      8402       8403       8414       8413       8523       8524       8535       8534  
      8403       8404       8415       8414       8524       8525       8536       8535  
      8405       8406       8417       8416       8526       8527       8538       8537  
      8406       8407       8418       8417       8527       8528       8539       8538  
      8407       8408       8419       8418       8528       8529       8540       8539  
      8408       8409       8420       8419       8529       8530       8541       8540  
      8409       8410       8421       8420       8530       8531       8542       8541  
      8410       8411       8422       8421       8531       8532       8543       8542  
      8411       8412       8423       8422       8532       8533       8544       8543  
      8412       8413       8424       8423       8533       8534       8545       8544  
      8413       8414       8425       8424       8534       8535       8546       8545  
      8414       8415       8426       8425       8535       8536       8547       8546  
      8416       8417       8428       8427       8537       8538       8549       8548  
      8417       8418       8429       8428       8538       8539       8550       8549  
      8418       8419       8430       8429       8539       8540       8551       8550  
      8419       8420       8431       8430       8540       8541       8552       8551  
      8420       8421       8432       8431       8541       8542       8553       8552  
      8421       8422       8433       8432       8542       8543       8554       8553  
      8422       8423       8434       8433       8543       8544       8555       8554  
      8423       8424       8435       8434       8544       8545       8556       8555  
      8424       8425       8436       8435       8545       8546       8557       8556  
      8425       8426       8437       8436       8546       8547       8558       8557  
      8427       8428       8439       8438       8548       8549       8560       8559  
      8428       8429       8440       8439       8549       8550       8561       8560  
      8429       8430       8441       8440       8550       8551       8562       8561  
      8430       8431       8442       8441       8551       8552       8563       8562  
      8431       8432       8443       8442       8552       8553       8564       8563  
      8432       8433       8444       8443       8553       8554       8565       8564  
      8433       8434       8445       8444       8554       8555       8566       8565  
      8434       8435       8446       8445       8555       8556       8567       8566  
      8435       8436       8447       8446       8556       8557       8568       8567  
      8436       8437       8448       8447       8557       8558       8569       8568  
      8438       8439       8450       8449       8559       8560       8571       8570  
      8439       8440       8451       8450       8560       8561       8572       8571  
      8440       8441       8452       8451       8561       8562       8573       8572  
      8441       8442       8453       8452       8562       8563       8574       8573  
      8442       8443       8454       8453       8563       8564       8575       8574  
      8443       8444       8455       8454       8564       8565       8576       8575  
      8444       8445       8456       8455       8565       8566       8577       8576  
      8445       8446       8457       8456       8566       8567       8578       8577  
      8446       8447       8458       8457       8567       8568       8579       8578  
      8447       8448       8459       8458       8568       8569       8580       8579  
      8449       8450       8461       8460       8570       8571       8582       8581  
      8450       8451       8462       8461       8571       8572       8583       8582  
      8451       8452       8463       8462       8572       8573       8584       8583  
      8452       8453       8464       8463       8573       8574       8585       8584  
      8453       8454       8465       8464       8574       8575       8586       8585  
      8454       8455       8466       8465       8575       8576       8587       8586  
      8455       8456       8467       8466       8576       8577       8588       8587  
      8456       8457       8468       8467       8577       8578       8589       8588  
      8457       8458       8469       8468       8578       8579       8590       8589  
      8458       8459       8470       8469       8579       8580       8591       8590  
      8471       8472       8483       8482       8592       8593       8604       8603  
      8472       8473       8484       8483       8593       8594       8605       8604  
      8473       8474       8485       8484       8594       8595       8606       8605  
      8474       8475       8486       8485       8595       8596       8607       8606  
      8475       8476       8487       8486       8596       8597       8608       8607  
      8476       8477       8488       8487       8597       8598       8609       8608  
      8477       8478       8489       8488       8598       8599       8610       8609  
      8478       8479       8490       8489       8599       8600       8611       8610  
      8479       8480       8491       8490       8600       8601       8612       8611  
      8480       8481       8492       8491       8601       8602       8613       8612  
      8482       8483       8494       8493       8603       8604       8615       8614  
      8483       8484       8495       8494       8604       8605       8616       8615  
      8484       8485       8496       8495       8605       8606       8617       8616  
      8485       8486       8497       8496       8606       8607       8618       8617  
      8486       8487       8498       8497       8607       8608       8619       8618  
      8487       8488       8499       8498       8608       8609       8620       8619  
      8488       8489       8500       8499       8609       8610       8621       8620  
      8489       8490       8501       8500       8610       8611       8622       8621  
      8490       8491       8502       8501       8611       8612       8623       8622  
      8491       8492       8503       8502       8612       8613       8624       8623  
      8493       8494       8505       8504       8614       8615       8626       8625  
      8494       8495       8506       8505       8615       8616       8627       8626  
      8495       8496       8507       8506       8616       8617       8628       8627  
      8496       8497       8508       8507       8617       8618       8629       8628  
      8497       8498       8509       8508       8618       8619       8630       8629  
      8498       8499       8510       8509       8619       8620       8631       8630  
      8499       8500       8511       8510       8620       8621       8632       8631  
      8500       8501       8512       8511       8621       8622       8633       8632  
      8501       8502       8513       8512       8622       8623       8634       8633  
      8502       8503       8514       8513       8623       8624       8635       8634  
      8504       8505       8516       8515       8625       8626       8637       8636  
      8505       8506       8517       8516       8626       8627       8638       8637  
      8506       8507       8518       8517       8627       8628       8639       8638  
      8507       8508       8519       8518       8628       8629       8640       8639  
      8508       8509       8520       8519       8629       8630       8641       8640  
      8509       8510       8521       8520       8630       8631       8642       8641  
      8510       8511       8522       8521       8631       8632       8643       8642  
      8511       8512       8523       8522       8632       8633       8644       8643  
      8512       8513       8524       8523       8633       8634       8645       8644  
      8513       8514       8525       8524       8634       8635       8646       8645  
      8515       8516       8527       8526       8636       8637       8648       8647  
      8516       8517       8528       8527       8637       8638       8649       8648  
      8517       8518       8529       8528       8638       8639       8650       8649  
      8518       8519       8530       8529       8639       8640       8651       8650  
      8519       8520       8531       8530       8640       8641       8652       8651  
      8520       8521       8532       8531       8641       8642       8653       8652  
      8521       8522       8533       8532       8642       8643       8654       8653  
      8522       8523       8534       8533       8643       8644       8655       8654  
      8523       8524       8535       8534       8644       8645       8656       8655  
      8524       8525       8536       8535       8645       8646       8657       8656  
      8526       8527       8538       8537       8647       8648       8659       8658  
      8527       8528       8539       8538       8648       8649       8660       8659  
      8528       8529       8540       8539       8649       8650       8661       8660  
      8529       8530       8541       8540       8650       8651       8662       8661  
      8530       8531       8542       8541       8651       8652       8663       8662  
      8531       8532       8543       8542       8652       8653       8664       8663  
      8532       8533       8544       8543       8653       8654       8665       8664  
      8533       8534       8545       8544       8654       8655       8666       8665  
      8534       8535       8546       8545       8655       8656       8667       8666  
      8535       8536       8547       8546       8656       8657       8668       8667  
      8537       8538       8549       8548       8658       8659       8670       8669  
      8538       8539       8550       8549       8659       8660       8671       8670  
      8539       8540       8551       8550       8660       8661       8672       8671  
      8540       8541       8552       8551       8661       8662       8673       8672  
      8541       8542       8553       8552       8662       8663       8674       8673  
      8542       8543       8554       8553       8663       8664       8675       8674  
      8543       8544       8555       8554       8664       8665       8676       8675  
      8544       8545       8556       8555       8665       8666       8677       8676  
      8545       8546       8557       8556       8666       8667       8678       8677  
      8546       8547       8558       8557       8667       8668       8679       8678  
      8548       8549       8560       8559       8669       8670       8681       8680  
      8549       8550       8561       8560       8670       8671       8682       8681  
      8550       8551       8562       8561       8671       8672       8683       8682  
      8551       8552       8563       8562       8672       8673       8684       8683  
      8552       8553       8564       8563       8673       8674       8685       8684  
      8553       8554       8565       8564       8674       8675       8686       8685  
      8554       8555       8566       8565       8675       8676       8687       8686  
      8555       8556       8567       8566       8676       8677       8688       8687  
      8556       8557       8568       8567       8677       8678       8689       8688  
      8557       8558       8569       8568       8678       8679       8690       8689  
      8559       8560       8571       8570       8680       8681       8692       8691  
      8560       8561       8572       8571       8681       8682       8693       8692  
      8561       8562       8573       8572       8682       8683       8694       8693  
      8562       8563       8574       8573       8683       8684       8695       8694  
      8563       8564       8575       8574       8684       8685       8696       8695  
      8564       8565       8576       8575       8685       8686       8697       8696  
      8565       8566       8577       8576       8686       8687       8698       8697  
      8566       8567       8578       8577       8687       8688       8699       8698  
      8567       8568       8579       8578       8688       8689       8700       8699  
      8568       8569       8580       8579       8689       8690       8701       8700  
      8570       8571       8582       8581       8691       8692       8703       8702  
      8571       8572       8583       8582       8692       8693       8704       8703  
      8572       8573       8584       8583       8693       8694       8705       8704  
      8573       8574       8585       8584       8694       8695       8706       8705  
      8574       8575       8586       8585       8695       8696       8707       8706  
      8575       8576       8587       8586       8696       8697       8708       8707  
      8576       8577       8588       8587       8697       8698       8709       8708  
      8577       8578       8589       8588       8698       8699       8710       8709  
      8578       8579       8590       8589       8699       8700       8711       8710  
      8579       8580       8591       8590       8700       8701       8712       8711  
      8592       8593       8604       8603       8713       8714       8725       8724  
      8593       8594       8605       8604       8714       8715       8726       8725  
      8594       8595       8606       8605       8715       8716       8727       8726  
      8595       8596       8607       8606       8716       8717       8728       8727  
      8596       8597       8608       8607       8717       8718       8729       8728  
      8597       8598       8609       8608       8718       8719       8730       8729  
      8598       8599       8610       8609       8719       8720       8731       8730  
      8599       8600       8611       8610       8720       8721       8732       8731  
      8600       8601       8612       8611       8721       8722       8733       8732  
      8601       8602       8613       8612       8722       8723       8734       8733  
      8603       8604       8615       8614       8724       8725       8736       8735  
      8604       8605       8616       8615       8725       8726       8737       8736  
      8605       8606       8617       8616       8726       8727       8738       8737  
      8606       8607       8618       8617       8727       8728       8739       8738  
      8607       8608       8619       8618       8728       8729       8740       8739  
      8608       8609       8620       8619       8729       8730       8741       8740  
      8609       8610       8621       8620       8730       8731       8742       8741  
      8610       8611       8622       8621       8731       8732       8743       8742  
      8611       8612       8623       8622       8732       8733       8744       8743  
      8612       8613       8624       8623       8733       8734       8745       8744  
      8614       8615       8626       8625       8735       8736       8747       8746  
      8615       8616       8627       8626       8736       8737       8748       8747  
      8616       8617       8628       8627       8737       8738       8749       8748  
      8617       8618       8629       8628       8738       8739       8750       8749  
      8618       8619       8630       8629       8739       8740       8751       8750  
      8619       8620       8631       8630       8740       8741       8752       8751  
      8620       8621       8632       8631       8741       8742       8753       8752  
      8621       8622       8633       8632       8742       8743       8754       8753  
      8622       8623       8634       8633       8743       8744       8755       8754  
      8623       8624       8635       8634       8744       8745       8756       8755  
      8625       8626       8637       8636       8746       8747       8758       8757  
      8626       8627       8638       8637       8747       8748       8759       8758  
      8627       8628       8639       8638       8748       8749       8760       8759  
      8628       8629       8640       8639       8749       8750       8761       8760  
      8629       8630       8641       8640       8750       8751       8762       8761  
      8630       8631       8642       8641       8751       8752       8763       8762  
      8631       8632       8643       8642       8752       8753       8764       8763  
      8632       8633       8644       8643       8753       8754       8765       8764  
      8633       8634       8645       8644       8754       8755       8766       8765  
      8634       8635       8646       8645       8755       8756       8767       8766  
      8636       8637       8648       8647       8757       8758       8769       8768  
      8637       8638       8649       8648       8758       8759       8770       8769  
      8638       8639       8650       8649       8759       8760       8771       8770  
      8639       8640       8651       8650       8760       8761       8772       8771  
      8640       8641       8652       8651       8761       8762       8773       8772  
      8641       8642       8653       8652       8762       8763       8774       8773  
      8642       8643       8654       8653       8763       8764       8775       8774  
      8643       8644       8655       8654       8764       8765       8776       8775  
      8644       8645       8656       8655       8765       8766       8777       8776  
      8645       8646       8657       8656       8766       8767       8778       8777  
      8647       8648       8659       8658       8768       8769       8780       8779  
      8648       8649       8660       8659       8769       8770       8781       8780  
      8649       8650       8661       8660       8770       8771       8782       8781  
      8650       8651       8662       8661       8771       8772       8783       8782  
      8651       8652       8663       8662       8772       8773       8784       8783  
      8652       8653       8664       8663       8773       8774       8785       8784  
      8653       8654       8665       8664       8774       8775       8786       8785  
      8654       8655       8666       8665       8775       8776       8787       8786  
      8655       8656       8667       8666       8776       8777       8788       8787  
      8656       8657       8668       8667       8777       8778       8789       8788  
      8658       8659       8670       8669       8779       8780       8791       8790  
      8659       8660       8671       8670       8780       8781       8792       8791  
      8660       8661       8672       8671       8781       8782       8793       8792  
      8661       8662       8673       8672       8782       8783       8794       8793  
      8662       8663       8674       8673       8783       8784       8795       8794  
      8663       8664       8675       8674       8784       8785       8796       8795  
      8664       8665       8676       8675       8785       8786       8797       8796  
      8665       8666       8677       8676       8786       8787       8798       8797  
      8666       8667       8678       8677       8787       8788       8799       8798  
      8667       8668       8679       8678       8788       8789       8800       8799  
      8669       8670       8681       8680       8790       8791       8802       8801  
      8670       8671       8682       8681       8791       8792       8803       8802  
      8671       8672       8683       8682       8792       8793       8804       8803  
      8672       8673       8684       8683       8793       8794       8805       8804  
      8673       8674       8685       8684       8794       8795       8806       8805  
      8674       8675       8686       8685       8795       8796       8807       8806  
      8675       8676       8687       8686       8796       8797       8808       8807  
      8676       8677       8688       8687       8797       8798       8809       8808  
      8677       8678       8689       8688       8798       8799       8810       8809  
      8678       8679       8690       8689       8799       8800       8811       8810  
      8680       8681       8692       8691       8801       8802       8813       8812  
      8681       8682       8693       8692       8802       8803       8814       8813  
      8682       8683       8694       8693       8803       8804       8815       8814  
      8683       8684       8695       8694       8804       8805       8816       8815  
      8684       8685       8696       8695       8805       8806       8817       8816  
      8685       8686       8697       8696       8806       8807       8818       8817  
      8686       8687       8698       8697       8807       8808       8819       8818  
      8687       8688       8699       8698       8808       8809       8820       8819  
      8688       8689       8700       8699       8809       8810       8821       8820  
      8689       8690       8701       8700       8810       8811       8822       8821  
      8691       8692       8703       8702       8812       8813       8824       8823  
      8692       8693       8704       8703       8813       8814       8825       8824  
      8693       8694       8705       8704       8814       8815       8826       8825  
      8694       8695       8706       8705       8815       8816       8827       8826  
      8695       8696       8707       8706       8816       8817       8828       8827  
      8696       8697       8708       8707       8817       8818       8829       8828  
      8697       8698       8709       8708       8818       8819       8830       8829  
      8698       8699       8710       8709       8819       8820       8831       8830  
      8699       8700       8711       8710       8820       8821       8832       8831  
      8700       8701       8712       8711       8821       8822       8833       8832  
      8713       8714       8725       8724       8834       8835       8846       8845  
      8714       8715       8726       8725       8835       8836       8847       8846  
      8715       8716       8727       8726       8836       8837       8848       8847  
      8716       8717       8728       8727       8837       8838       8849       8848  
      8717       8718       8729       8728       8838       8839       8850       8849  
      8718       8719       8730       8729       8839       8840       8851       8850  
      8719       8720       8731       8730       8840       8841       8852       8851  
      8720       8721       8732       8731       8841       8842       8853       8852  
      8721       8722       8733       8732       8842       8843       8854       8853  
      8722       8723       8734       8733       8843       8844       8855       8854  
      8724       8725       8736       8735       8845       8846       8857       8856  
      8725       8726       8737       8736       8846       8847       8858       8857  
      8726       8727       8738       8737       8847       8848       8859       8858  
      8727       8728       8739       8738       8848       8849       8860       8859  
      8728       8729       8740       8739       8849       8850       8861       8860  
      8729       8730       8741       8740       8850       8851       8862       8861  
      8730       8731       8742       8741       8851       8852       8863       8862  
      8731       8732       8743       8742       8852       8853       8864       8863  
      8732       8733       8744       8743       8853       8854       8865       8864  
      8733       8734       8745       8744       8854       8855       8866       8865  
      8735       8736       8747       8746       8856       8857       8868       8867  
      8736       8737       8748       8747       8857       8858       8869       8868  
      8737       8738       8749       8748       8858       8859       8870       8869  
      8738       8739       8750       8749       8859       8860       8871       8870  
      8739       8740       8751       8750       8860       8861       8872       8871  
      8740       8741       8752       8751       8861       8862       8873       8872  
      8741       8742       8753       8752       8862       8863       8874       8873  
      8742       8743       8754       8753       8863       8864       8875       8874  
      8743       8744       8755       8754       8864       8865       8876       8875  
      8744       8745       8756       8755       8865       8866       8877       8876  
      8746       8747       8758       8757       8867       8868       8879       8878  
      8747       8748       8759       8758       8868       8869       8880       8879  
      8748       8749       8760       8759       8869       8870       8881       8880  
      8749       8750       8761       8760       8870       8871       8882       8881  
      8750       8751       8762       8761       8871       8872       8883       8882  
      8751       8752       8763       8762       8872       8873       8884       8883  
      8752       8753       8764       8763       8873       8874       8885       8884  
      8753       8754       8765       8764       8874       8875       8886       8885  
      8754       8755       8766       8765       8875       8876       8887       8886  
      8755       8756       8767       8766       8876       8877       8888       8887  
      8757       8758       8769       8768       8878       8879       8890       8889  
      8758       8759       8770       8769       8879       8880       8891       8890  
      8759       8760       8771       8770       8880       8881       8892       8891  
      8760       8761       8772       8771       8881       8882       8893       8892  
      8761       8762       8773       8772       8882       8883       8894       8893  
      8762       8763       8774       8773       8883       8884       8895       8894  
      8763       8764       8775       8774       8884       8885       8896       8895  
      8764       8765       8776       8775       8885       8886       8897       8896  
      8765       8766       8777       8776       8886       8887       8898       8897  
      8766       8767       8778       8777       8887       8888       8899       8898  
      8768       8769       8780       8779       8889       8890       8901       8900  
      8769       8770       8781       8780       8890       8891       8902       8901  
      8770       8771       8782       8781       8891       8892       8903       8902  
      8771       8772       8783       8782       8892       8893       8904       8903  
      8772       8773       8784       8783       8893       8894       8905       8904  
      8773       8774       8785       8784       8894       8895       8906       8905  
      8774       8775       8786       8785       8895       8896       8907       8906  
      8775       8776       8787       8786       8896       8897       8908       8907  
      8776       8777       8788       8787       8897       8898       8909       8908  
      8777       8778       8789       8788       8898       8899       8910       8909  
      8779       8780       8791       8790       8900       8901       8912       8911  
      8780       8781       8792       8791       8901       8902       8913       8912  
      8781       8782       8793       8792       8902       8903       8914       8913  
      8782       8783       8794       8793       8903       8904       8915       8914  
      8783       8784       8795       8794       8904       8905       8916       8915  
      8784       8785       8796       8795       8905       8906       8917       8916  
      8785       8786       8797       8796       8906       8907       8918       8917  
      8786       8787       8798       8797       8907       8908       8919       8918  
      8787       8788       8799       8798       8908       8909       8920       8919  
      8788       8789       8800       8799       8909       8910       8921       8920  
      8790       8791       8802       8801       8911       8912       8923       8922  
      8791       8792       8803       8802       8912       8913       8924       8923  
      8792       8793       8804       8803       8913       8914       8925       8924  
      8793       8794       8805       8804       8914       8915       8926       8925  
      8794       8795       8806       8805       8915       8916       8927       8926  
      8795       8796       8807       8806       8916       8917       8928       8927  
      8796       8797       8808       8807       8917       8918       8929       8928  
      8797       8798       8809       8808       8918       8919       8930       8929  
      8798       8799       8810       8809       8919       8920       8931       8930  
      8799       8800       8811       8810       8920       8921       8932       8931  
      8801       8802       8813       8812       8922       8923       8934       8933  
      8802       8803       8814       8813       8923       8924       8935       8934  
      8803       8804       8815       8814       8924       8925       8936       8935  
      8804       8805       8816       8815       8925       8926       8937       8936  
      8805       8806       8817       8816       8926       8927       8938       8937  
      8806       8807       8818       8817       8927       8928       8939       8938  
      8807       8808       8819       8818       8928       8929       8940       8939  
      8808       8809       8820       8819       8929       8930       8941       8940  
      8809       8810       8821       8820       8930       8931       8942       8941  
      8810       8811       8822       8821       8931       8932       8943       8942  
      8812       8813       8824       8823       8933       8934       8945       8944  
      8813       8814       8825       8824       8934       8935       8946       8945  
      8814       8815       8826       8825       8935       8936       8947       8946  
      8815       8816       8827       8826       8936       8937       8948       8947  
      8816       8817       8828       8827       8937       8938       8949       8948  
      8817       8818       8829       8828       8938       8939       8950       8949  
      8818       8819       8830       8829       8939       8940       8951       8950  
      8819       8820       8831       8830       8940       8941       8952       8951  
      8820       8821       8832       8831       8941       8942       8953       8952  
      8821       8822       8833       8832       8942       8943       8954       8953  
      8834       8835       8846       8845       8955       8956       8967       8966  
      8835       8836       8847       8846       8956       8957       8968       8967  
      8836       8837       8848       8847       8957       8958       8969       8968  
      8837       8838       8849       8848       8958       8959       8970       8969  
      8838       8839       8850       8849       8959       8960       8971       8970  
      8839       8840       8851       8850       8960       8961       8972       8971  
      8840       8841       8852       8851       8961       8962       8973       8972  
      8841       8842       8853       8852       8962       8963       8974       8973  
      8842       8843       8854       8853       8963       8964       8975       8974  
      8843       8844       8855       8854       8964       8965       8976       8975  
      8845       8846       8857       8856       8966       8967       8978       8977  
      8846       8847       8858       8857       8967       8968       8979       8978  
      8847       8848       8859       8858       8968       8969       8980       8979  
      8848       8849       8860       8859       8969       8970       8981       8980  
      8849       8850       8861       8860       8970       8971       8982       8981  
      8850       8851       8862       8861       8971       8972       8983       8982  
      8851       8852       8863       8862       8972       8973       8984       8983  
      8852       8853       8864       8863       8973       8974       8985       8984  
      8853       8854       8865       8864       8974       8975       8986       8985  
      8854       8855       8866       8865       8975       8976       8987       8986  
      8856       8857       8868       8867       8977       8978       8989       8988  
      8857       8858       8869       8868       8978       8979       8990       8989  
      8858       8859       8870       8869       8979       8980       8991       8990  
      8859       8860       8871       8870       8980       8981       8992       8991  
      8860       8861       8872       8871       8981       8982       8993       8992  
      8861       8862       8873       8872       8982       8983       8994       8993  
      8862       8863       8874       8873       8983       8984       8995       8994  
      8863       8864       8875       8874       8984       8985       8996       8995  
      8864       8865       8876       8875       8985       8986       8997       8996  
      8865       8866       8877       8876       8986       8987       8998       8997  
      8867       8868       8879       8878       8988       8989       9000       8999  
      8868       8869       8880       8879       8989       8990       9001       9000  
      8869       8870       8881       8880       8990       8991       9002       9001  
      8870       8871       8882       8881       8991       8992       9003       9002  
      8871       8872       8883       8882       8992       8993       9004       9003  
      8872       8873       8884       8883       8993       8994       9005       9004  
      8873       8874       8885       8884       8994       8995       9006       9005  
      8874       8875       8886       8885       8995       8996       9007       9006  
      8875       8876       8887       8886       8996       8997       9008       9007  
      8876       8877       8888       8887       8997       8998       9009       9008  
      8878       8879       8890       8889       8999       9000       9011       9010  
      8879       8880       8891       8890       9000       9001       9012       9011  
      8880       8881       8892       8891       9001       9002       9013       9012  
      8881       8882       8893       8892       9002       9003       9014       9013  
      8882       8883       8894       8893       9003       9004       9015       9014  
      8883       8884       8895       8894       9004       9005       9016       9015  
      8884       8885       8896       8895       9005       9006       9017       9016  
      8885       8886       8897       8896       9006       9007       9018       9017  
      8886       8887       8898       8897       9007       9008       9019       9018  
      8887       8888       8899       8898       9008       9009       9020       9019  
      8889       8890       8901       8900       9010       9011       9022       9021  
      8890       8891       8902       8901       9011       9012       9023       9022  
      8891       8892       8903       8902       9012       9013       9024       9023  
      8892       8893       8904       8903       9013       9014       9025       9024  
      8893       8894       8905       8904       9014       9015       9026       9025  
      8894       8895       8906       8905       9015       9016       9027       9026  
      8895       8896       8907       8906       9016       9017       9028       9027  
      8896       8897       8908       8907       9017       9018       9029       9028  
      8897       8898       8909       8908       9018       9019       9030       9029  
      8898       8899       8910       8909       9019       9020       9031       9030  
      8900       8901       8912       8911       9021       9022       9033       9032  
      8901       8902       8913       8912       9022       9023       9034       9033  
      8902       8903       8914       8913       9023       9024       9035       9034  
      8903       8904       8915       8914       9024       9025       9036       9035  
      8904       8905       8916       8915       9025       9026       9037       9036  
      8905       8906       8917       8916       9026       9027       9038       9037  
      8906       8907       8918       8917       9027       9028       9039       9038  
      8907       8908       8919       8918       9028       9029       9040       9039  
      8908       8909       8920       8919       9029       9030       9041       9040  
      8909       8910       8921       8920       9030       9031       9042       9041  
      8911       8912       8923       8922       9032       9033       9044       9043  
      8912       8913       8924       8923       9033       9034       9045       9044  
      8913       8914       8925       8924       9034       9035       9046       9045  
      8914       8915       8926       8925       9035       9036       9047       9046  
      8915       8916       8927       8926       9036       9037       9048       9047  
      8916       8917       8928       8927       9037       9038       9049       9048  
      8917       8918       8929       8928       9038       9039       9050       9049  
      8918       8919       8930       8929       9039       9040       9051       9050  
      8919       8920       8931       8930       9040       9041       9052       9051  
      8920       8921       8932       8931       9041       9042       9053       9052  
      8922       8923       8934       8933       9043       9044       9055       9054  
      8923       8924       8935       8934       9044       9045       9056       9055  
      8924       8925       8936       8935       9045       9046       9057       9056  
      8925       8926       8937       8936       9046       9047       9058       9057  
      8926       8927       8938       8937       9047       9048       9059       9058  
      8927       8928       8939       8938       9048       9049       9060       9059  
      8928       8929       8940       8939       9049       9050       9061       9060  
      8929       8930       8941       8940       9050       9051       9062       9061  
      8930       8931       8942       8941       9051       9052       9063       9062  
      8931       8932       8943       8942       9052       9053       9064       9063  
      8933       8934       8945       8944       9054       9055       9066       9065  
      8934       8935       8946       8945       9055       9056       9067       9066  
      8935       8936       8947       8946       9056       9057       9068       9067  
      8936       8937       8948       8947       9057       9058       9069       9068  
      8937       8938       8949       8948       9058       9059       9070       9069  
      8938       8939       8950       8949       9059       9060       9071       9070  
      8939       8940       8951       8950       9060       9061       9072       9071  
      8940       8941       8952       8951       9061       9062       9073       9072  
      8941       8942       8953       8952       9062       9063       9074       9073  
      8942       8943       8954       8953       9063       9064       9075       9074  
      8955       8956       8967       8966       9076       9077       9088       9087  
      8956       8957       8968       8967       9077       9078       9089       9088  
      8957       8958       8969       8968       9078       9079       9090       9089  
      8958       8959       8970       8969       9079       9080       9091       9090  
      8959       8960       8971       8970       9080       9081       9092       9091  
      8960       8961       8972       8971       9081       9082       9093       9092  
      8961       8962       8973       8972       9082       9083       9094       9093  
      8962       8963       8974       8973       9083       9084       9095       9094  
      8963       8964       8975       8974       9084       9085       9096       9095  
      8964       8965       8976       8975       9085       9086       9097       9096  
      8966       8967       8978       8977       9087       9088       9099       9098  
      8967       8968       8979       8978       9088       9089       9100       9099  
      8968       8969       8980       8979       9089       9090       9101       9100  
      8969       8970       8981       8980       9090       9091       9102       9101  
      8970       8971       8982       8981       9091       9092       9103       9102  
      8971       8972       8983       8982       9092       9093       9104       9103  
      8972       8973       8984       8983       9093       9094       9105       9104  
      8973       8974       8985       8984       9094       9095       9106       9105  
      8974       8975       8986       8985       9095       9096       9107       9106  
      8975       8976       8987       8986       9096       9097       9108       9107  
      8977       8978       8989       8988       9098       9099       9110       9109  
      8978       8979       8990       8989       9099       9100       9111       9110  
      8979       8980       8991       8990       9100       9101       9112       9111  
      8980       8981       8992       8991       9101       9102       9113       9112  
      8981       8982       8993       8992       9102       9103       9114       9113  
      8982       8983       8994       8993       9103       9104       9115       9114  
      8983       8984       8995       8994       9104       9105       9116       9115  
      8984       8985       8996       8995       9105       9106       9117       9116  
      8985       8986       8997       8996       9106       9107       9118       9117  
      8986       8987       8998       8997       9107       9108       9119       9118  
      8988       8989       9000       8999       9109       9110       9121       9120  
      8989       8990       9001       9000       9110       9111       9122       9121  
      8990       8991       9002       9001       9111       9112       9123       9122  
      8991       8992       9003       9002       9112       9113       9124       9123  
      8992       8993       9004       9003       9113       9114       9125       9124  
      8993       8994       9005       9004       9114       9115       9126       9125  
      8994       8995       9006       9005       9115       9116       9127       9126  
      8995       8996       9007       9006       9116       9117       9128       9127  
      8996       8997       9008       9007       9117       9118       9129       9128  
      8997       8998       9009       9008       9118       9119       9130       9129  
      8999       9000       9011       9010       9120       9121       9132       9131  
      9000       9001       9012       9011       9121       9122       9133       9132  
      9001       9002       9013       9012       9122       9123       9134       9133  
      9002       9003       9014       9013       9123       9124       9135       9134  
      9003       9004       9015       9014       9124       9125       9136       9135  
      9004       9005       9016       9015       9125       9126       9137       9136  
      9005       9006       9017       9016       9126       9127       9138       9137  
      9006       9007       9018       9017       9127       9128       9139       9138  
      9007       9008       9019       9018       9128       9129       9140       9139  
      9008       9009       9020       9019       9129       9130       9141       9140  
      9010       9011       9022       9021       9131       9132       9143       9142  
      9011       9012       9023       9022       9132       9133       9144       9143  
      9012       9013       9024       9023       9133       9134       9145       9144  
      9013       9014       9025       9024       9134       9135       9146       9145  
      9014       9015       9026       9025       9135       9136       9147       9146  
      9015       9016       9027       9026       9136       9137       9148       9147  
      9016       9017       9028       9027       9137       9138       9149       9148  
      9017       9018       9029       9028       9138       9139       9150       9149  
      9018       9019       9030       9029       9139       9140       9151       9150  
      9019       9020       9031       9030       9140       9141       9152       9151  
      9021       9022       9033       9032       9142       9143       9154       9153  
      9022       9023       9034       9033       9143       9144       9155       9154  
      9023       9024       9035       9034       9144       9145       9156       9155  
      9024       9025       9036       9035       9145       9146       9157       9156  
      9025       9026       9037       9036       9146       9147       9158       9157  
      9026       9027       9038       9037       9147       9148       9159       9158  
      9027       9028       9039       9038       9148       9149       9160       9159  
      9028       9029       9040       9039       9149       9150       9161       9160  
      9029       9030       9041       9040       9150       9151       9162       9161  
      9030       9031       9042       9041       9151       9152       9163       9162  
      9032       9033       9044       9043       9153       9154       9165       9164  
      9033       9034       9045       9044       9154       9155       9166       9165  
      9034       9035       9046       9045       9155       9156       9167       9166  
      9035       9036       9047       9046       9156       9157       9168       9167  
      9036       9037       9048       9047       9157       9158       9169       9168  
      9037       9038       9049       9048       9158       9159       9170       9169  
      9038       9039       9050       9049       9159       9160       9171       9170  
      9039       9040       9051       9050       9160       9161       9172       9171  
      9040       9041       9052       9051       9161       9162       9173       9172  
      9041       9042       9053       9052       9162       9163       9174       9173  
      9043       9044       9055       9054       9164       9165       9176       9175  
      9044       9045       9056       9055       9165       9166       9177       9176  
      9045       9046       9057       9056       9166       9167       9178       9177  
      9046       9047       9058       9057       9167       9168       9179       9178  
      9047       9048       9059       9058       9168       9169       9180       9179  
      9048       9049       9060       9059       9169       9170       9181       9180  
      9049       9050       9061       9060       9170       9171       9182       9181  
      9050       9051       9062       9061       9171       9172       9183       9182  
      9051       9052       9063       9062       9172       9173       9184       9183  
      9052       9053       9064       9063       9173       9174       9185       9184  
      9054       9055       9066       9065       9175       9176       9187       9186  
      9055       9056       9067       9066       9176       9177       9188       9187  
      9056       9057       9068       9067       9177       9178       9189       9188  
      9057       9058       9069       9068       9178       9179       9190       9189  
      9058       9059       9070       9069       9179       9180       9191       9190  
      9059       9060       9071       9070       9180       9181       9192       9191  
      9060       9061       9072       9071       9181       9182       9193       9192  
      9061       9062       9073       9072       9182       9183       9194       9193  
      9062       9063       9074       9073       9183       9184       9195       9194  
      9063       9064       9075       9074       9184       9185       9196       9195  
      9076       9077       9088       9087       9197       9198       9209       9208  
      9077       9078       9089       9088       9198       9199       9210       9209  
      9078       9079       9090       9089       9199       9200       9211       9210  
      9079       9080       9091       9090       9200       9201       9212       9211  
      9080       9081       9092       9091       9201       9202       9213       9212  
      9081       9082       9093       9092       9202       9203       9214       9213  
      9082       9083       9094       9093       9203       9204       9215       9214  
      9083       9084       9095       9094       9204       9205       9216       9215  
      9084       9085       9096       9095       9205       9206       9217       9216  
      9085       9086       9097       9096       9206       9207       9218       9217  
      9087       9088       9099       9098       9208       9209       9220       9219  
      9088       9089       9100       9099       9209       9210       9221       9220  
      9089       9090       9101       9100       9210       9211       9222       9221  
      9090       9091       9102       9101       9211       9212       9223       9222  
      9091       9092       9103       9102       9212       9213       9224       9223  
      9092       9093       9104       9103       9213       9214       9225       9224  
      9093       9094       9105       9104       9214       9215       9226       9225  
      9094       9095       9106       9105       9215       9216       9227       9226  
      9095       9096       9107       9106       9216       9217       9228       9227  
      9096       9097       9108       9107       9217       9218       9229       9228  
      9098       9099       9110       9109       9219       9220       9231       9230  
      9099       9100       9111       9110       9220       9221       9232       9231  
      9100       9101       9112       9111       9221       9222       9233       9232  
      9101       9102       9113       9112       9222       9223       9234       9233  
      9102       9103       9114       9113       9223       9224       9235       9234  
      9103       9104       9115       9114       9224       9225       9236       9235  
      9104       9105       9116       9115       9225       9226       9237       9236  
      9105       9106       9117       9116       9226       9227       9238       9237  
      9106       9107       9118       9117       9227       9228       9239       9238  
      9107       9108       9119       9118       9228       9229       9240       9239  
      9109       9110       9121       9120       9230       9231       9242       9241  
      9110       9111       9122       9121       9231       9232       9243       9242  
      9111       9112       9123       9122       9232       9233       9244       9243  
      9112       9113       9124       9123       9233       9234       9245       9244  
      9113       9114       9125       9124       9234       9235       9246       9245  
      9114       9115       9126       9125       9235       9236       9247       9246  
      9115       9116       9127       9126       9236       9237       9248       9247  
      9116       9117       9128       9127       9237       9238       9249       9248  
      9117       9118       9129       9128       9238       9239       9250       9249  
      9118       9119       9130       9129       9239       9240       9251       9250  
      9120       9121       9132       9131       9241       9242       9253       9252  
      9121       9122       9133       9132       9242       9243       9254       9253  
      9122       9123       9134       9133       9243       9244       9255       9254  
      9123       9124       9135       9134       9244       9245       9256       9255  
      9124       9125       9136       9135       9245       9246       9257       9256  
      9125       9126       9137       9136       9246       9247       9258       9257  
      9126       9127       9138       9137       9247       9248       9259       9258  
      9127       9128       9139       9138       9248       9249       9260       9259  
      9128       9129       9140       9139       9249       9250       9261       9260  
      9129       9130       9141       9140       9250       9251       9262       9261  
      9131       9132       9143       9142       9252       9253       9264       9263  
      9132       9133       9144       9143       9253       9254       9265       9264  
      9133       9134       9145       9144       9254       9255       9266       9265  
      9134       9135       9146       9145       9255       9256       9267       9266  
      9135       9136       9147       9146       9256       9257       9268       9267  
      9136       9137       9148       9147       9257       9258       9269       9268  
      9137       9138       9149       9148       9258       9259       9270       9269  
      9138       9139       9150       9149       9259       9260       9271       9270  
      9139       9140       9151       9150       9260       9261       9272       9271  
      9140       9141       9152       9151       9261       9262       9273       9272  
      9142       9143       9154       9153       9263       9264       9275       9274  
      9143       9144       9155       9154       9264       9265       9276       9275  
      9144       9145       9156       9155       9265       9266       9277       9276  
      9145       9146       9157       9156       9266       9267       9278       9277  
      9146       9147       9158       9157       9267       9268       9279       9278  
      9147       9148       9159       9158       9268       9269       9280       9279  
      9148       9149       9160       9159       9269       9270       9281       9280  
      9149       9150       9161       9160       9270       9271       9282       9281  
      9150       9151       9162       9161       9271       9272       9283       9282  
      9151       9152       9163       9162       9272       9273       9284       9283  
      9153       9154       9165       9164       9274       9275       9286       9285  
      9154       9155       9166       9165       9275       9276       9287       9286  
      9155       9156       9167       9166       9276       9277       9288       9287  
      9156       9157       9168       9167       9277       9278       9289       9288  
      9157       9158       9169       9168       9278       9279       9290       9289  
      9158       9159       9170       9169       9279       9280       9291       9290  
      9159       9160       9171       9170       9280       9281       9292       9291  
      9160       9161       9172       9171       9281       9282       9293       9292  
      9161       9162       9173       9172       9282       9283       9294       9293  
      9162       9163       9174       9173       9283       9284       9295       9294  
      9164       9165       9176       9175       9285       9286       9297       9296  
      9165       9166       9177       9176       9286       9287       9298       9297  
      9166       9167       9178       9177       9287       9288       9299       9298  
      9167       9168       9179       9178       9288       9289       9300       9299  
      9168       9169       9180       9179       9289       9290       9301       9300  
      9169       9170       9181       9180       9290       9291       9302       9301  
      9170       9171       9182       9181       9291       9292       9303       9302  
      9171       9172       9183       9182       9292       9293       9304       9303  
      9172       9173       9184       9183       9293       9294       9305       9304  
      9173       9174       9185       9184       9294       9295       9306       9305  
      9175       9176       9187       9186       9296       9297       9308       9307  
      9176       9177       9188       9187       9297       9298       9309       9308  
      9177       9178       9189       9188       9298       9299       9310       9309  
      9178       9179       9190       9189       9299       9300       9311       9310  
      9179       9180       9191       9190       9300       9301       9312       9311  
      9180       9181       9192       9191       9301       9302       9313       9312  
      9181       9182       9193       9192       9302       9303       9314       9313  
      9182       9183       9194       9193       9303       9304       9315       9314  
      9183       9184       9195       9194       9304       9305       9316       9315  
      9184       9185       9196       9195       9305       9306       9317       9316  
      9197       9198       9209       9208       9318       9319       9330       9329  
      9198       9199       9210       9209       9319       9320       9331       9330  
      9199       9200       9211       9210       9320       9321       9332       9331  
      9200       9201       9212       9211       9321       9322       9333       9332  
      9201       9202       9213       9212       9322       9323       9334       9333  
      9202       9203       9214       9213       9323       9324       9335       9334  
      9203       9204       9215       9214       9324       9325       9336       9335  
      9204       9205       9216       9215       9325       9326       9337       9336  
      9205       9206       9217       9216       9326       9327       9338       9337  
      9206       9207       9218       9217       9327       9328       9339       9338  
      9208       9209       9220       9219       9329       9330       9341       9340  
      9209       9210       9221       9220       9330       9331       9342       9341  
      9210       9211       9222       9221       9331       9332       9343       9342  
      9211       9212       9223       9222       9332       9333       9344       9343  
      9212       9213       9224       9223       9333       9334       9345       9344  
      9213       9214       9225       9224       9334       9335       9346       9345  
      9214       9215       9226       9225       9335       9336       9347       9346  
      9215       9216       9227       9226       9336       9337       9348       9347  
      9216       9217       9228       9227       9337       9338       9349       9348  
      9217       9218       9229       9228       9338       9339       9350       9349  
      9219       9220       9231       9230       9340       9341       9352       9351  
      9220       9221       9232       9231       9341       9342       9353       9352  
      9221       9222       9233       9232       9342       9343       9354       9353  
      9222       9223       9234       9233       9343       9344       9355       9354  
      9223       9224       9235       9234       9344       9345       9356       9355  
      9224       9225       9236       9235       9345       9346       9357       9356  
      9225       9226       9237       9236       9346       9347       9358       9357  
      9226       9227       9238       9237       9347       9348       9359       9358  
      9227       9228       9239       9238       9348       9349       9360       9359  
      9228       9229       9240       9239       9349       9350       9361       9360  
      9230       9231       9242       9241       9351       9352       9363       9362  
      9231       9232       9243       9242       9352       9353       9364       9363  
      9232       9233       9244       9243       9353       9354       9365       9364  
      9233       9234       9245       9244       9354       9355       9366       9365  
      9234       9235       9246       9245       9355       9356       9367       9366  
      9235       9236       9247       9246       9356       9357       9368       9367  
      9236       9237       9248       9247       9357       9358       9369       9368  
      9237       9238       9249       9248       9358       9359       9370       9369  
      9238       9239       9250       9249       9359       9360       9371       9370  
      9239       9240       9251       9250       9360       9361       9372       9371  
      9241       9242       9253       9252       9362       9363       9374       9373  
      9242       9243       9254       9253       9363       9364       9375       9374  
      9243       9244       9255       9254       9364       9365       9376       9375  
      9244       9245       9256       9255       9365       9366       9377       9376  
      9245       9246       9257       9256       9366       9367       9378       9377  
      9246       9247       9258       9257       9367       9368       9379       9378  
      9247       9248       9259       9258       9368       9369       9380       9379  
      9248       9249       9260       9259       9369       9370       9381       9380  
      9249       9250       9261       9260       9370       9371       9382       9381  
      9250       9251       9262       9261       9371       9372       9383       9382  
      9252       9253       9264       9263       9373       9374       9385       9384  
      9253       9254       9265       9264       9374       9375       9386       9385  
      9254       9255       9266       9265       9375       9376       9387       9386  
      9255       9256       9267       9266       9376       9377       9388       9387  
      9256       9257       9268       9267       9377       9378       9389       9388  
      9257       9258       9269       9268       9378       9379       9390       9389  
      9258       9259       9270       9269       9379       9380       9391       9390  
      9259       9260       9271       9270       9380       9381       9392       9391  
      9260       9261       9272       9271       9381       9382       9393       9392  
      9261       9262       9273       9272       9382       9383       9394       9393  
      9263       9264       9275       9274       9384       9385       9396       9395  
      9264       9265       9276       9275       9385       9386       9397       9396  
      9265       9266       9277       9276       9386       9387       9398       9397  
      9266       9267       9278       9277       9387       9388       9399       9398  
      9267       9268       9279       9278       9388       9389       9400       9399  
      9268       9269       9280       9279       9389       9390       9401       9400  
      9269       9270       9281       9280       9390       9391       9402       9401  
      9270       9271       9282       9281       9391       9392       9403       9402  
      9271       9272       9283       9282       9392       9393       9404       9403  
      9272       9273       9284       9283       9393       9394       9405       9404  
      9274       9275       9286       9285       9395       9396       9407       9406  
      9275       9276       9287       9286       9396       9397       9408       9407  
      9276       9277       9288       9287       9397       9398       9409       9408  
      9277       9278       9289       9288       9398       9399       9410       9409  
      9278       9279       9290       9289       9399       9400       9411       9410  
      9279       9280       9291       9290       9400       9401       9412       9411  
      9280       9281       9292       9291       9401       9402       9413       9412  
      9281       9282       9293       9292       9402       9403       9414       9413  
      9282       9283       9294       9293       9403       9404       9415       9414  
      9283       9284       9295       9294       9404       9405       9416       9415  
      9285       9286       9297       9296       9406       9407       9418       9417  
      9286       9287       9298       9297       9407       9408       9419       9418  
      9287       9288       9299       9298       9408       9409       9420       9419  
      9288       9289       9300       9299       9409       9410       9421       9420  
      9289       9290       9301       9300       9410       9411       9422       9421  
      9290       9291       9302       9301       9411       9412       9423       9422  
      9291       9292       9303       9302       9412       9413       9424       9423  
      9292       9293       9304       9303       9413       9414       9425       9424  
      9293       9294       9305       9304       9414       9415       9426       9425  
      9294       9295       9306       9305       9415       9416       9427       9426  
      9296       9297       9308       9307       9417       9418       9429       9428  
      9297       9298       9309       9308       9418       9419       9430       9429  
      9298       9299       9310       9309       9419       9420       9431       9430  
      9299       9300       9311       9310       9420       9421       9432       9431  
      9300       9301       9312       9311       9421       9422       9433       9432  
      9301       9302       9313       9312       9422       9423       9434       9433  
      9302       9303       9314       9313       9423       9424       9435       9434  
      9303       9304       9315       9314       9424       9425       9436       9435  
      9304       9305       9316       9315       9425       9426       9437       9436  
      9305       9306       9317       9316       9426       9427       9438       9437  
      9318       9319       9330       9329       9439       9440       9451       9450  
      9319       9320       9331       9330       9440       9441       9452       9451  
      9320       9321       9332       9331       9441       9442       9453       9452  
      9321       9322       9333       9332       9442       9443       9454       9453  
      9322       9323       9334       9333       9443       9444       9455       9454  
      9323       9324       9335       9334       9444       9445       9456       9455  
      9324       9325       9336       9335       9445       9446       9457       9456  
      9325       9326       9337       9336       9446       9447       9458       9457  
      9326       9327       9338       9337       9447       9448       9459       9458  
      9327       9328       9339       9338       9448       9449       9460       9459  
      9329       9330       9341       9340       9450       9451       9462       9461  
      9330       9331       9342       9341       9451       9452       9463       9462  
      9331       9332       9343       9342       9452       9453       9464       9463  
      9332       9333       9344       9343       9453       9454       9465       9464  
      9333       9334       9345       9344       9454       9455       9466       9465  
      9334       9335       9346       9345       9455       9456       9467       9466  
      9335       9336       9347       9346       9456       9457       9468       9467  
      9336       9337       9348       9347       9457       9458       9469       9468  
      9337       9338       9349       9348       9458       9459       9470       9469  
      9338       9339       9350       9349       9459       9460       9471       9470  
      9340       9341       9352       9351       9461       9462       9473       9472  
      9341       9342       9353       9352       9462       9463       9474       9473  
      9342       9343       9354       9353       9463       9464       9475       9474  
      9343       9344       9355       9354       9464       9465       9476       9475  
      9344       9345       9356       9355       9465       9466       9477       9476  
      9345       9346       9357       9356       9466       9467       9478       9477  
      9346       9347       9358       9357       9467       9468       9479       9478  
      9347       9348       9359       9358       9468       9469       9480       9479  
      9348       9349       9360       9359       9469       9470       9481       9480  
      9349       9350       9361       9360       9470       9471       9482       9481  
      9351       9352       9363       9362       9472       9473       9484       9483  
      9352       9353       9364       9363       9473       9474       9485       9484  
      9353       9354       9365       9364       9474       9475       9486       9485  
      9354       9355       9366       9365       9475       9476       9487       9486  
      9355       9356       9367       9366       9476       9477       9488       9487  
      9356       9357       9368       9367       9477       9478       9489       9488  
      9357       9358       9369       9368       9478       9479       9490       9489  
      9358       9359       9370       9369       9479       9480       9491       9490  
      9359       9360       9371       9370       9480       9481       9492       9491  
      9360       9361       9372       9371       9481       9482       9493       9492  
      9362       9363       9374       9373       9483       9484       9495       9494  
      9363       9364       9375       9374       9484       9485       9496       9495  
      9364       9365       9376       9375       9485       9486       9497       9496  
      9365       9366       9377       9376       9486       9487       9498       9497  
      9366       9367       9378       9377       9487       9488       9499       9498  
      9367       9368       9379       9378       9488       9489       9500       9499  
      9368       9369       9380       9379       9489       9490       9501       9500  
      9369       9370       9381       9380       9490       9491       9502       9501  
      9370       9371       9382       9381       9491       9492       9503       9502  
      9371       9372       9383       9382       9492       9493       9504       9503  
      9373       9374       9385       9384       9494       9495       9506       9505  
      9374       9375       9386       9385       9495       9496       9507       9506  
      9375       9376       9387       9386       9496       9497       9508       9507  
      9376       9377       9388       9387       9497       9498       9509       9508  
      9377       9378       9389       9388       9498       9499       9510       9509  
      9378       9379       9390       9389       9499       9500       9511       9510  
      9379       9380       9391       9390       9500       9501       9512       9511  
      9380       9381       9392       9391       9501       9502       9513       9512  
      9381       9382       9393       9392       9502       9503       9514       9513  
      9382       9383       9394       9393       9503       9504       9515       9514  
      9384       9385       9396       9395       9505       9506       9517       9516  
      9385       9386       9397       9396       9506       9507       9518       9517  
      9386       9387       9398       9397       9507       9508       9519       9518  
      9387       9388       9399       9398       9508       9509       9520       9519  
      9388       9389       9400       9399       9509       9510       9521       9520  
      9389       9390       9401       9400       9510       9511       9522       9521  
      9390       9391       9402       9401       9511       9512       9523       9522  
      9391       9392       9403       9402       9512       9513       9524       9523  
      9392       9393       9404       9403       9513       9514       9525       9524  
      9393       9394       9405       9404       9514       9515       9526       9525  
      9395       9396       9407       9406       9516       9517       9528       9527  
      9396       9397       9408       9407       9517       9518       9529       9528  
      9397       9398       9409       9408       9518       9519       9530       9529  
      9398       9399       9410       9409       9519       9520       9531       9530  
      9399       9400       9411       9410       9520       9521       9532       9531  
      9400       9401       9412       9411       9521       9522       9533       9532  
      9401       9402       9413       9412       9522       9523       9534       9533  
      9402       9403       9414       9413       9523       9524       9535       9534  
      9403       9404       9415       9414       9524       9525       9536       9535  
      9404       9405       9416       9415       9525       9526       9537       9536  
      9406       9407       9418       9417       9527       9528       9539       9538  
      9407       9408       9419       9418       9528       9529       9540       9539  
      9408       9409       9420       9419       9529       9530       9541       9540  
      9409       9410       9421       9420       9530       9531       9542       9541  
      9410       9411       9422       9421       9531       9532       9543       9542  
      9411       9412       9423       9422       9532       9533       9544       9543  
      9412       9413       9424       9423       9533       9534       9545       9544  
      9413       9414       9425       9424       9534       9535       9546       9545  
      9414       9415       9426       9425       9535       9536       9547       9546  
      9415       9416       9427       9426       9536       9537       9548       9547  
      9417       9418       9429       9428       9538       9539       9550       9549  
      9418       9419       9430       9429       9539       9540       9551       9550  
      9419       9420       9431       9430       9540       9541       9552       9551  
      9420       9421       9432       9431       9541       9542       9553       9552  
      9421       9422       9433       9432       9542       9543       9554       9553  
      9422       9423       9434       9433       9543       9544       9555       9554  
      9423       9424       9435       9434       9544       9545       9556       9555  
      9424       9425       9436       9435       9545       9546       9557       9556  
      9425       9426       9437       9436       9546       9547       9558       9557  
      9426       9427       9438       9437       9547       9548       9559       9558  
      9439       9440       9451       9450       9560       9561       9572       9571  
      9440       9441       9452       9451       9561       9562       9573       9572  
      9441       9442       9453       9452       9562       9563       9574       9573  
      9442       9443       9454       9453       9563       9564       9575       9574  
      9443       9444       9455       9454       9564       9565       9576       9575  
      9444       9445       9456       9455       9565       9566       9577       9576  
      9445       9446       9457       9456       9566       9567       9578       9577  
      9446       9447       9458       9457       9567       9568       9579       9578  
      9447       9448       9459       9458       9568       9569       9580       9579  
      9448       9449       9460       9459       9569       9570       9581       9580  
      9450       9451       9462       9461       9571       9572       9583       9582  
      9451       9452       9463       9462       9572       9573       9584       9583  
      9452       9453       9464       9463       9573       9574       9585       9584  
      9453       9454       9465       9464       9574       9575       9586       9585  
      9454       9455       9466       9465       9575       9576       9587       9586  
      9455       9456       9467       9466       9576       9577       9588       9587  
      9456       9457       9468       9467       9577       9578       9589       9588  
      9457       9458       9469       9468       9578       9579       9590       9589  
      9458       9459       9470       9469       9579       9580       9591       9590  
      9459       9460       9471       9470       9580       9581       9592       9591  
      9461       9462       9473       9472       9582       9583       9594       9593  
      9462       9463       9474       9473       9583       9584       9595       9594  
      9463       9464       9475       9474       9584       9585       9596       9595  
      9464       9465       9476       9475       9585       9586       9597       9596  
      9465       9466       9477       9476       9586       9587       9598       9597  
      9466       9467       9478       9477       9587       9588       9599       9598  
      9467       9468       9479       9478       9588       9589       9600       9599  
      9468       9469       9480       9479       9589       9590       9601       9600  
      9469       9470       9481       9480       9590       9591       9602       9601  
      9470       9471       9482       9481       9591       9592       9603       9602  
      9472       9473       9484       9483       9593       9594       9605       9604  
      9473       9474       9485       9484       9594       9595       9606       9605  
      9474       9475       9486       9485       9595       9596       9607       9606  
      9475       9476       9487       9486       9596       9597       9608       9607  
      9476       9477       9488       9487       9597       9598       9609       9608  
      9477       9478       9489       9488       9598       9599       9610       9609  
      9478       9479       9490       9489       9599       9600       9611       9610  
      9479       9480       9491       9490       9600       9601       9612       9611  
      9480       9481       9492       9491       9601       9602       9613       9612  
      9481       9482       9493       9492       9602       9603       9614       9613  
      9483       9484       9495       9494       9604       9605       9616       9615  
      9484       9485       9496       9495       9605       9606       9617       9616  
      9485       9486       9497       9496       9606       9607       9618       9617  
      9486       9487       9498       9497       9607       9608       9619       9618  
      9487       9488       9499       9498       9608       9609       9620       9619  
      9488       9489       9500       9499       9609       9610       9621       9620  
      9489       9490       9501       9500       9610       9611       9622       9621  
      9490       9491       9502       9501       9611       9612       9623       9622  
      9491       9492       9503       9502       9612       9613       9624       9623  
      9492       9493       9504       9503       9613       9614       9625       9624  
      9494       9495       9506       9505       9615       9616       9627       9626  
      9495       9496       9507       9506       9616       9617       9628       9627  
      9496       9497       9508       9507       9617       9618       9629       9628  
      9497       9498       9509       9508       9618       9619       9630       9629  
      9498       9499       9510       9509       9619       9620       9631       9630  
      9499       9500       9511       9510       9620       9621       9632       9631  
      9500       9501       9512       9511       9621       9622       9633       9632  
      9501       9502       9513       9512       9622       9623       9634       9633  
      9502       9503       9514       9513       9623       9624       9635       9634  
      9503       9504       9515       9514       9624       9625       9636       9635  
      9505       9506       9517       9516       9626       9627       9638       9637  
      9506       9507       9518       9517       9627       9628       9639       9638  
      9507       9508       9519       9518       9628       9629       9640       9639  
      9508       9509       9520       9519       9629       9630       9641       9640  
      9509       9510       9521       9520       9630       9631       9642       9641  
      9510       9511       9522       9521       9631       9632       9643       9642  
      9511       9512       9523       9522       9632       9633       9644       9643  
      9512       9513       9524       9523       9633       9634       9645       9644  
      9513       9514       9525       9524       9634       9635       9646       9645  
      9514       9515       9526       9525       9635       9636       9647       9646  
      9516       9517       9528       9527       9637       9638       9649       9648  
      9517       9518       9529       9528       9638       9639       9650       9649  
      9518       9519       9530       9529       9639       9640       9651       9650  
      9519       9520       9531       9530       9640       9641       9652       9651  
      9520       9521       9532       9531       9641       9642       9653       9652  
      9521       9522       9533       9532       9642       9643       9654       9653  
      9522       9523       9534       9533       9643       9644       9655       9654  
      9523       9524       9535       9534       9644       9645       9656       9655  
      9524       9525       9536       9535       9645       9646       9657       9656  
      9525       9526       9537       9536       9646       9647       9658       9657  
      9527       9528       9539       9538       9648       9649       9660       9659  
      9528       9529       9540       9539       9649       9650       9661       9660  
      9529       9530       9541       9540       9650       9651       9662       9661  
      9530       9531       9542       9541       9651       9652       9663       9662  
      9531       9532       9543       9542       9652       9653       9664       9663  
      9532       9533       9544       9543       9653       9654       9665       9664  
      9533       9534       9545       9544       9654       9655       9666       9665  
      9534       9535       9546       9545       9655       9656       9667       9666  
      9535       9536       9547       9546       9656       9657       9668       9667  
      9536       9537       9548       9547       9657       9658       9669       9668  
      9538       9539       9550       9549       9659       9660       9671       9670  
      9539       9540       9551       9550       9660       9661       9672       9671  
      9540       9541       9552       9551       9661       9662       9673       9672  
      9541       9542       9553       9552       9662       9663       9674       9673  
      9542       9543       9554       9553       9663       9664       9675       9674  
      9543       9544       9555       9554       9664       9665       9676       9675  
      9544       9545       9556       9555       9665       9666       9677       9676  
      9545       9546       9557       9556       9666       9667       9678       9677  
      9546       9547       9558       9557       9667       9668       9679       9678  
      9547       9548       9559       9558       9668       9669       9680       9679  
      9560       9561       9572       9571       9681       9682       9693       9692  
      9561       9562       9573       9572       9682       9683       9694       9693  
      9562       9563       9574       9573       9683       9684       9695       9694  
      9563       9564       9575       9574       9684       9685       9696       9695  
      9564       9565       9576       9575       9685       9686       9697       9696  
      9565       9566       9577       9576       9686       9687       9698       9697  
      9566       9567       9578       9577       9687       9688       9699       9698  
      9567       9568       9579       9578       9688       9689       9700       9699  
      9568       9569       9580       9579       9689       9690       9701       9700  
      9569       9570       9581       9580       9690       9691       9702       9701  
      9571       9572       9583       9582       9692       9693       9704       9703  
      9572       9573       9584       9583       9693       9694       9705       9704  
      9573       9574       9585       9584       9694       9695       9706       9705  
      9574       9575       9586       9585       9695       9696       9707       9706  
      9575       9576       9587       9586       9696       9697       9708       9707  
      9576       9577       9588       9587       9697       9698       9709       9708  
      9577       9578       9589       9588       9698       9699       9710       9709  
      9578       9579       9590       9589       9699       9700       9711       9710  
      9579       9580       9591       9590       9700       9701       9712       9711  
      9580       9581       9592       9591       9701       9702       9713       9712  
      9582       9583       9594       9593       9703       9704       9715       9714  
      9583       9584       9595       9594       9704       9705       9716       9715  
      9584       9585       9596       9595       9705       9706       9717       9716  
      9585       9586       9597       9596       9706       9707       9718       9717  
      9586       9587       9598       9597       9707       9708       9719       9718  
      9587       9588       9599       9598       9708       9709       9720       9719  
      9588       9589       9600       9599       9709       9710       9721       9720  
      9589       9590       9601       9600       9710       9711       9722       9721  
      9590       9591       9602       9601       9711       9712       9723       9722  
      9591       9592       9603       9602       9712       9713       9724       9723  
      9593       9594       9605       9604       9714       9715       9726       9725  
      9594       9595       9606       9605       9715       9716       9727       9726  
      9595       9596       9607       9606       9716       9717       9728       9727  
      9596       9597       9608       9607       9717       9718       9729       9728  
      9597       9598       9609       9608       9718       9719       9730       9729  
      9598       9599       9610       9609       9719       9720       9731       9730  
      9599       9600       9611       9610       9720       9721       9732       9731  
      9600       9601       9612       9611       9721       9722       9733       9732  
      9601       9602       9613       9612       9722       9723       9734       9733  
      9602       9603       9614       9613       9723       9724       9735       9734  
      9604       9605       9616       9615       9725       9726       9737       9736  
      9605       9606       9617       9616       9726       9727       9738       9737  
      9606       9607       9618       9617       9727       9728       9739       9738  
      9607       9608       9619       9618       9728       9729       9740       9739  
      9608       9609       9620       9619       9729       9730       9741       9740  
      9609       9610       9621       9620       9730       9731       9742       9741  
      9610       9611       9622       9621       9731       9732       9743       9742  
      9611       9612       9623       9622       9732       9733       9744       9743  
      9612       9613       9624       9623       9733       9734       9745       9744  
      9613       9614       9625       9624       9734       9735       9746       9745  
      9615       9616       9627       9626       9736       9737       9748       9747  
      9616       9617       9628       9627       9737       9738       9749       9748  
      9617       9618       9629       9628       9738       9739       9750       9749  
      9618       9619       9630       9629       9739       9740       9751       9750  
      9619       9620       9631       9630       9740       9741       9752       9751  
      9620       9621       9632       9631       9741       9742       9753       9752  
      9621       9622       9633       9632       9742       9743       9754       9753  
      9622       9623       9634       9633       9743       9744       9755       9754  
      9623       9624       9635       9634       9744       9745       9756       9755  
      9624       9625       9636       9635       9745       9746       9757       9756  
      9626       9627       9638       9637       9747       9748       9759       9758  
      9627       9628       9639       9638       9748       9749       9760       9759  
      9628       9629       9640       9639       9749       9750       9761       9760  
      9629       9630       9641       9640       9750       9751       9762       9761  
      9630       9631       9642       9641       9751       9752       9763       9762  
      9631       9632       9643       9642       9752       9753       9764       9763  
      9632       9633       9644       9643       9753       9754       9765       9764  
      9633       9634       9645       9644       9754       9755       9766       9765  
      9634       9635       9646       9645       9755       9756       9767       9766  
      9635       9636       9647       9646       9756       9757       9768       9767  
      9637       9638       9649       9648       9758       9759       9770       9769  
      9638       9639       9650       9649       9759       9760       9771       9770  
      9639       9640       9651       9650       9760       9761       9772       9771  
      9640       9641       9652       9651       9761       9762       9773       9772  
      9641       9642       9653       9652       9762       9763       9774       9773  
      9642       9643       9654       9653       9763       9764       9775       9774  
      9643       9644       9655       9654       9764       9765       9776       9775  
      9644       9645       9656       9655       9765       9766       9777       9776  
      9645       9646       9657       9656       9766       9767       9778       9777  
      9646       9647       9658       9657       9767       9768       9779       9778  
      9648       9649       9660       9659       9769       9770       9781       9780  
      9649       9650       9661       9660       9770       9771       9782       9781  
      9650       9651       9662       9661       9771       9772       9783       9782  
      9651       9652       9663       9662       9772       9773       9784       9783  
      9652       9653       9664       9663       9773       9774       9785       9784  
      9653       9654       9665       9664       9774       9775       9786       9785  
      9654       9655       9666       9665       9775       9776       9787       9786  
      9655       9656       9667       9666       9776       9777       9788       9787  
      9656       9657       9668       9667       9777       9778       9789       9788  
      9657       9658       9669       9668       9778       9779       9790       9789  
      9659       9660       9671       9670       9780       9781       9792       9791  
      9660       9661       9672       9671       9781       9782       9793       9792  
      9661       9662       9673       9672       9782       9783       9794       9793  
      9662       9663       9674       9673       9783       9784       9795       9794  
      9663       9664       9675       9674       9784       9785       9796       9795  
      9664       9665       9676       9675       9785       9786       9797       9796  
      9665       9666       9677       9676       9786       9787       9798       9797  
      9666       9667       9678       9677       9787       9788       9799       9798  
      9667       9668       9679       9678       9788       9789       9800       9799  
      9668       9669       9680       9679       9789       9790       9801       9800  
      9681       9682       9693       9692       9802       9803       9814       9813  
      9682       9683       9694       9693       9803       9804       9815       9814  
      9683       9684       9695       9694       9804       9805       9816       9815  
      9684       9685       9696       9695       9805       9806       9817       9816  
      9685       9686       9697       9696       9806       9807       9818       9817  
      9686       9687       9698       9697       9807       9808       9819       9818  
      9687       9688       9699       9698       9808       9809       9820       9819  
      9688       9689       9700       9699       9809       9810       9821       9820  
      9689       9690       9701       9700       9810       9811       9822       9821  
      9690       9691       9702       9701       9811       9812       9823       9822  
      9692       9693       9704       9703       9813       9814       9825       9824  
      9693       9694       9705       9704       9814       9815       9826       9825  
      9694       9695       9706       9705       9815       9816       9827       9826  
      9695       9696       9707       9706       9816       9817       9828       9827  
      9696       9697       9708       9707       9817       9818       9829       9828  
      9697       9698       9709       9708       9818       9819       9830       9829  
      9698       9699       9710       9709       9819       9820       9831       9830  
      9699       9700       9711       9710       9820       9821       9832       9831  
      9700       9701       9712       9711       9821       9822       9833       9832  
      9701       9702       9713       9712       9822       9823       9834       9833  
      9703       9704       9715       9714       9824       9825       9836       9835  
      9704       9705       9716       9715       9825       9826       9837       9836  
      9705       9706       9717       9716       9826       9827       9838       9837  
      9706       9707       9718       9717       9827       9828       9839       9838  
      9707       9708       9719       9718       9828       9829       9840       9839  
      9708       9709       9720       9719       9829       9830       9841       9840  
      9709       9710       9721       9720       9830       9831       9842       9841  
      9710       9711       9722       9721       9831       9832       9843       9842  
      9711       9712       9723       9722       9832       9833       9844       9843  
      9712       9713       9724       9723       9833       9834       9845       9844  
      9714       9715       9726       9725       9835       9836       9847       9846  
      9715       9716       9727       9726       9836       9837       9848       9847  
      9716       9717       9728       9727       9837       9838       9849       9848  
      9717       9718       9729       9728       9838       9839       9850       9849  
      9718       9719       9730       9729       9839       9840       9851       9850  
      9719       9720       9731       9730       9840       9841       9852       9851  
      9720       9721       9732       9731       9841       9842       9853       9852  
      9721       9722       9733       9732       9842       9843       9854       9853  
      9722       9723       9734       9733       9843       9844       9855       9854  
      9723       9724       9735       9734       9844       9845       9856       9855  
      9725       9726       9737       9736       9846       9847       9858       9857  
      9726       9727       9738       9737       9847       9848       9859       9858  
      9727       9728       9739       9738       9848       9849       9860       9859  
      9728       9729       9740       9739       9849       9850       9861       9860  
      9729       9730       9741       9740       9850       9851       9862       9861  
      9730       9731       9742       9741       9851       9852       9863       9862  
      9731       9732       9743       9742       9852       9853       9864       9863  
      9732       9733       9744       9743       9853       9854       9865       9864  
      9733       9734       9745       9744       9854       9855       9866       9865  
      9734       9735       9746       9745       9855       9856       9867       9866  
      9736       9737       9748       9747       9857       9858       9869       9868  
      9737       9738       9749       9748       9858       9859       9870       9869  
      9738       9739       9750       9749       9859       9860       9871       9870  
      9739       9740       9751       9750       9860       9861       9872       9871  
      9740       9741       9752       9751       9861       9862       9873       9872  
      9741       9742       9753       9752       9862       9863       9874       9873  
      9742       9743       9754       9753       9863       9864       9875       9874  
      9743       9744       9755       9754       9864       9865       9876       9875  
      9744       9745       9756       9755       9865       9866       9877       9876  
      9745       9746       9757       9756       9866       9867       9878       9877  
      9747       9748       9759       9758       9868       9869       9880       9879  
      9748       9749       9760       9759       9869       9870       9881       9880  
      9749       9750       9761       9760       9870       9871       9882       9881  
      9750       9751       9762       9761       9871       9872       9883       9882  
      9751       9752       9763       9762       9872       9873       9884       9883  
      9752       9753       9764       9763       9873       9874       9885       9884  
      9753       9754       9765       9764       9874       9875       9886       9885  
      9754       9755       9766       9765       9875       9876       9887       9886  
      9755       9756       9767       9766       9876       9877       9888       9887  
      9756       9757       9768       9767       9877       9878       9889       9888  
      9758       9759       9770       9769       9879       9880       9891       9890  
      9759       9760       9771       9770       9880       9881       9892       9891  
      9760       9761       9772       9771       9881       9882       9893       9892  
      9761       9762       9773       9772       9882       9883       9894       9893  
      9762       9763       9774       9773       9883       9884       9895       9894  
      9763       9764       9775       9774       9884       9885       9896       9895  
      9764       9765       9776       9775       9885       9886       9897       9896  
      9765       9766       9777       9776       9886       9887       9898       9897  
      9766       9767       9778       9777       9887       9888       9899       9898  
      9767       9768       9779       9778       9888       9889       9900       9899  
      9769       9770       9781       9780       9890       9891       9902       9901  
      9770       9771       9782       9781       9891       9892       9903       9902  
      9771       9772       9783       9782       9892       9893       9904       9903  
      9772       9773       9784       9783       9893       9894       9905       9904  
      9773       9774       9785       9784       9894       9895       9906       9905  
      9774       9775       9786       9785       9895       9896       9907       9906  
      9775       9776       9787       9786       9896       9897       9908       9907  
      9776       9777       9788       9787       9897       9898       9909       9908  
      9777       9778       9789       9788       9898       9899       9910       9909  
      9778       9779       9790       9789       9899       9900       9911       9910  
      9780       9781       9792       9791       9901       9902       9913       9912  
      9781       9782       9793       9792       9902       9903       9914       9913  
      9782       9783       9794       9793       9903       9904       9915       9914  
      9783       9784       9795       9794       9904       9905       9916       9915  
      9784       9785       9796       9795       9905       9906       9917       9916  
      9785       9786       9797       9796       9906       9907       9918       9917  
      9786       9787       9798       9797       9907       9908       9919       9918  
      9787       9788       9799       9798       9908       9909       9920       9919  
      9788       9789       9800       9799       9909       9910       9921       9920  
      9789       9790       9801       9800       9910       9911       9922       9921  
      9802       9803       9814       9813       9923       9924       9935       9934  
      9803       9804       9815       9814       9924       9925       9936       9935  
      9804       9805       9816       9815       9925       9926       9937       9936  
      9805       9806       9817       9816       9926       9927       9938       9937  
      9806       9807       9818       9817       9927       9928       9939       9938  
      9807       9808       9819       9818       9928       9929       9940       9939  
      9808       9809       9820       9819       9929       9930       9941       9940  
      9809       9810       9821       9820       9930       9931       9942       9941  
      9810       9811       9822       9821       9931       9932       9943       9942  
      9811       9812       9823       9822       9932       9933       9944       9943  
      9813       9814       9825       9824       9934       9935       9946       9945  
      9814       9815       9826       9825       9935       9936       9947       9946  
      9815       9816       9827       9826       9936       9937       9948       9947  
      9816       9817       9828       9827       9937       9938       9949       9948  
      9817       9818       9829       9828       9938       9939       9950       9949  
      9818       9819       9830       9829       9939       9940       9951       9950  
      9819       9820       9831       9830       9940       9941       9952       9951  
      9820       9821       9832       9831       9941       9942       9953       9952  
      9821       9822       9833       9832       9942       9943       9954       9953  
      9822       9823       9834       9833       9943       9944       9955       9954  
      9824       9825       9836       9835       9945       9946       9957       9956  
      9825       9826       9837       9836       9946       9947       9958       9957  
      9826       9827       9838       9837       9947       9948       9959       9958  
      9827       9828       9839       9838       9948       9949       9960       9959  
      9828       9829       9840       9839       9949       9950       9961       9960  
      9829       9830       9841       9840       9950       9951       9962       9961  
      9830       9831       9842       9841       9951       9952       9963       9962  
      9831       9832       9843       9842       9952       9953       9964       9963  
      9832       9833       9844       9843       9953       9954       9965       9964  
      9833       9834       9845       9844       9954       9955       9966       9965  
      9835       9836       9847       9846       9956       9957       9968       9967  
      9836       9837       9848       9847       9957       9958       9969       9968  
      9837       9838       9849       9848       9958       9959       9970       9969  
      9838       9839       9850       9849       9959       9960       9971       9970  
      9839       9840       9851       9850       9960       9961       9972       9971  
      9840       9841       9852       9851       9961       9962       9973       9972  
      9841       9842       9853       9852       9962       9963       9974       9973  
      9842       9843       9854       9853       9963       9964       9975       9974  
      9843       9844       9855       9854       9964       9965       9976       9975  
      9844       9845       9856       9855       9965       9966       9977       9976  
      9846       9847       9858       9857       9967       9968       9979       9978  
      9847       9848       9859       9858       9968       9969       9980       9979  
      9848       9849       9860       9859       9969       9970       9981       9980  
      9849       9850       9861       9860       9970       9971       9982       9981  
      9850       9851       9862       9861       9971       9972       9983       9982  
      9851       9852       9863       9862       9972       9973       9984       9983  
      9852       9853       9864       9863       9973       9974       9985       9984  
      9853       9854       9865       9864       9974       9975       9986       9985  
      9854       9855       9866       9865       9975       9976       9987       9986  
      9855       9856       9867       9866       9976       9977       9988       9987  
      9857       9858       9869       9868       9978       9979       9990       9989  
      9858       9859       9870       9869       9979       9980       9991       9990  
      9859       9860       9871       9870       9980       9981       9992       9991  
      9860       9861       9872       9871       9981       9982       9993       9992  
      9861       9862       9873       9872       9982       9983       9994       9993  
      9862       9863       9874       9873       9983       9984       9995       9994  
      9863       9864       9875       9874       9984       9985       9996       9995  
      9864       9865       9876       9875       9985       9986       9997       9996  
      9865       9866       9877       9876       9986       9987       9998       9997  
      9866       9867       9878       9877       9987       9988       9999       9998  
      9868       9869       9880       9879       9989       9990      10001      10000  
      9869       9870       9881       9880       9990       9991      10002      10001  
      9870       9871       9882       9881       9991       9992      10003      10002  
      9871       9872       9883       9882       9992       9993      10004      10003  
      9872       9873       9884       9883       9993       9994      10005      10004  
      9873       9874       9885       9884       9994       9995      10006      10005  
      9874       9875       9886       9885       9995       9996      10007      10006  
      9875       9876       9887       9886       9996       9997      10008      10007  
      9876       9877       9888       9887       9997       9998      10009      10008  
      9877       9878       9889       9888       9998       9999      10010      10009  
      9879       9880       9891       9890      10000      10001      10012      10011  
      9880       9881       9892       9891      10001      10002      10013      10012  
      9881       9882       9893       9892      10002      10003      10014      10013  
      9882       9883       9894       9893      10003      10004      10015      10014  
      9883       9884       9895       9894      10004      10005      10016      10015  
      9884       9885       9896       9895      10005      10006      10017      10016  
      9885       9886       9897       9896      10006      10007      10018      10017  
      9886       9887       9898       9897      10007      10008      10019      10018  
      9887       9888       9899       9898      10008      10009      10020      10019  
      9888       9889       9900       9899      10009      10010      10021      10020  
      9890       9891       9902       9901      10011      10012      10023      10022  
      9891       9892       9903       9902      10012      10013      10024      10023  
      9892       9893       9904       9903      10013      10014      10025      10024  
      9893       9894       9905       9904      10014      10015      10026      10025  
      9894       9895       9906       9905      10015      10016      10027      10026  
      9895       9896       9907       9906      10016      10017      10028      10027  
      9896       9897       9908       9907      10017      10018      10029      10028  
      9897       9898       9909       9908      10018      10019      10030      10029  
      9898       9899       9910       9909      10019      10020      10031      10030  
      9899       9900       9911       9910      10020      10021      10032      10031  
      9901       9902       9913       9912      10022      10023      10034      10033  
      9902       9903       9914       9913      10023      10024      10035      10034  
      9903       9904       9915       9914      10024      10025      10036      10035  
      9904       9905       9916       9915      10025      10026      10037      10036  
      9905       9906       9917       9916      10026      10027      10038      10037  
      9906       9907       9918       9917      10027      10028      10039      10038  
      9907       9908       9919       9918      10028      10029      10040      10039  
      9908       9909       9920       9919      10029      10030      10041      10040  
      9909       9910       9921       9920      10030      10031      10042      10041  
      9910       9911       9922       9921      10031      10032      10043      10042  
      9923       9924       9935       9934      10044      10045      10056      10055  
      9924       9925       9936       9935      10045      10046      10057      10056  
      9925       9926       9937       9936      10046      10047      10058      10057  
      9926       9927       9938       9937      10047      10048      10059      10058  
      9927       9928       9939       9938      10048      10049      10060      10059  
      9928       9929       9940       9939      10049      10050      10061      10060  
      9929       9930       9941       9940      10050      10051      10062      10061  
      9930       9931       9942       9941      10051      10052      10063      10062  
      9931       9932       9943       9942      10052      10053      10064      10063  
      9932       9933       9944       9943      10053      10054      10065      10064  
      9934       9935       9946       9945      10055      10056      10067      10066  
      9935       9936       9947       9946      10056      10057      10068      10067  
      9936       9937       9948       9947      10057      10058      10069      10068  
      9937       9938       9949       9948      10058      10059      10070      10069  
      9938       9939       9950       9949      10059      10060      10071      10070  
      9939       9940       9951       9950      10060      10061      10072      10071  
      9940       9941       9952       9951      10061      10062      10073      10072  
      9941       9942       9953       9952      10062      10063      10074      10073  
      9942       9943       9954       9953      10063      10064      10075      10074  
      9943       9944       9955       9954      10064      10065      10076      10075  
      9945       9946       9957       9956      10066      10067      10078      10077  
      9946       9947       9958       9957      10067      10068      10079      10078  
      9947       9948       9959       9958      10068      10069      10080      10079  
      9948       9949       9960       9959      10069      10070      10081      10080  
      9949       9950       9961       9960      10070      10071      10082      10081  
      9950       9951       9962       9961      10071      10072      10083      10082  
      9951       9952       9963       9962      10072      10073      10084      10083  
      9952       9953       9964       9963      10073      10074      10085      10084  
      9953       9954       9965       9964      10074      10075      10086      10085  
      9954       9955       9966       9965      10075      10076      10087      10086  
      9956       9957       9968       9967      10077      10078      10089      10088  
      9957       9958       9969       9968      10078      10079      10090      10089  
      9958       9959       9970       9969      10079      10080      10091      10090  
      9959       9960       9971       9970      10080      10081      10092      10091  
      9960       9961       9972       9971      10081      10082      10093      10092  
      9961       9962       9973       9972      10082      10083      10094      10093  
      9962       9963       9974       9973      10083      10084      10095      10094  
      9963       9964       9975       9974      10084      10085      10096      10095  
      9964       9965       9976       9975      10085      10086      10097      10096  
      9965       9966       9977       9976      10086      10087      10098      10097  
      9967       9968       9979       9978      10088      10089      10100      10099  
      9968       9969       9980       9979      10089      10090      10101      10100  
      9969       9970       9981       9980      10090      10091      10102      10101  
      9970       9971       9982       9981      10091      10092      10103      10102  
      9971       9972       9983       9982      10092      10093      10104      10103  
      9972       9973       9984       9983      10093      10094      10105      10104  
      9973       9974       9985       9984      10094      10095      10106      10105  
      9974       9975       9986       9985      10095      10096      10107      10106  
      9975       9976       9987       9986      10096      10097      10108      10107  
      9976       9977       9988       9987      10097      10098      10109      10108  
      9978       9979       9990       9989      10099      10100      10111      10110  
      9979       9980       9991       9990      10100      10101      10112      10111  
      9980       9981       9992       9991      10101      10102      10113      10112  
      9981       9982       9993       9992      10102      10103      10114      10113  
      9982       9983       9994       9993      10103      10104      10115      10114  
      9983       9984       9995       9994      10104      10105      10116      10115  
      9984       9985       9996       9995      10105      10106      10117      10116  
      9985       9986       9997       9996      10106      10107      10118      10117  
      9986       9987       9998       9997      10107      10108      10119      10118  
      9987       9988       9999       9998      10108      10109      10120      10119  
      9989       9990      10001      10000      10110      10111      10122      10121  
      9990       9991      10002      10001      10111      10112      10123      10122  
      9991       9992      10003      10002      10112      10113      10124      10123  
      9992       9993      10004      10003      10113      10114      10125      10124  
      9993       9994      10005      10004      10114      10115      10126      10125  
      9994       9995      10006      10005      10115      10116      10127      10126  
      9995       9996      10007      10006      10116      10117      10128      10127  
      9996       9997      10008      10007      10117      10118      10129      10128  
      9997       9998      10009      10008      10118      10119      10130      10129  
      9998       9999      10010      10009      10119      10120      10131      10130  
     10000      10001      10012      10011      10121      10122      10133      10132  
     10001      10002      10013      10012      10122      10123      10134      10133  
     10002      10003      10014      10013      10123      10124      10135      10134  
     10003      10004      10015      10014      10124      10125      10136      10135  
     10004      10005      10016      10015      10125      10126      10137      10136  
     10005      10006      10017      10016      10126      10127      10138      10137  
     10006      10007      10018      10017      10127      10128      10139      10138  
     10007      10008      10019      10018      10128      10129      10140      10139  
     10008      10009      10020      10019      10129      10130      10141      10140  
     10009      10010      10021      10020      10130      10131      10142      10141  
     10011      10012      10023      10022      10132      10133      10144      10143  
     10012      10013      10024      10023      10133      10134      10145      10144  
     10013      10014      10025      10024      10134      10135      10146      10145  
     10014      10015      10026      10025      10135      10136      10147      10146  
     10015      10016      10027      10026      10136      10137      10148      10147  
     10016      10017      10028      10027      10137      10138      10149      10148  
     10017      10018      10029      10028      10138      10139      10150      10149  
     10018      10019      10030      10029      10139      10140      10151      10150  
     10019      10020      10031      10030      10140      10141      10152      10151  
     10020      10021      10032      10031      10141      10142      10153      10152  
     10022      10023      10034      10033      10143      10144      10155      10154  
     10023      10024      10035      10034      10144      10145      10156      10155  
     10024      10025      10036      10035      10145      10146      10157      10156  
     10025      10026      10037      10036      10146      10147      10158      10157  
     10026      10027      10038      10037      10147      10148      10159      10158  
     10027      10028      10039      10038      10148      10149      10160      10159  
     10028      10029      10040      10039      10149      10150      10161      10160  
     10029      10030      10041      10040      10150      10151      10162      10161  
     10030      10031      10042      10041      10151      10152      10163      10162  
     10031      10032      10043      10042      10152      10153      10164      10163  
     10044      10045      10056      10055      10165      10166      10177      10176  
     10045      10046      10057      10056      10166      10167      10178      10177  
     10046      10047      10058      10057      10167      10168      10179      10178  
     10047      10048      10059      10058      10168      10169      10180      10179  
     10048      10049      10060      10059      10169      10170      10181      10180  
     10049      10050      10061      10060      10170      10171      10182      10181  
     10050      10051      10062      10061      10171      10172      10183      10182  
     10051      10052      10063      10062      10172      10173      10184      10183  
     10052      10053      10064      10063      10173      10174      10185      10184  
     10053      10054      10065      10064      10174      10175      10186      10185  
     10055      10056      10067      10066      10176      10177      10188      10187  
     10056      10057      10068      10067      10177      10178      10189      10188  
     10057      10058      10069      10068      10178      10179      10190      10189  
     10058      10059      10070      10069      10179      10180      10191      10190  
     10059      10060      10071      10070      10180      10181      10192      10191  
     10060      10061      10072      10071      10181      10182      10193      10192  
     10061      10062      10073      10072      10182      10183      10194      10193  
     10062      10063      10074      10073      10183      10184      10195      10194  
     10063      10064      10075      10074      10184      10185      10196      10195  
     10064      10065      10076      10075      10185      10186      10197      10196  
     10066      10067      10078      10077      10187      10188      10199      10198  
     10067      10068      10079      10078      10188      10189      10200      10199  
     10068      10069      10080      10079      10189      10190      10201      10200  
     10069      10070      10081      10080      10190      10191      10202      10201  
     10070      10071      10082      10081      10191      10192      10203      10202  
     10071      10072      10083      10082      10192      10193      10204      10203  
     10072      10073      10084      10083      10193      10194      10205      10204  
     10073      10074      10085      10084      10194      10195      10206      10205  
     10074      10075      10086      10085      10195      10196      10207      10206  
     10075      10076      10087      10086      10196      10197      10208      10207  
     10077      10078      10089      10088      10198      10199      10210      10209  
     10078      10079      10090      10089      10199      10200      10211      10210  
     10079      10080      10091      10090      10200      10201      10212      10211  
     10080      10081      10092      10091      10201      10202      10213      10212  
     10081      10082      10093      10092      10202      10203      10214      10213  
     10082      10083      10094      10093      10203      10204      10215      10214  
     10083      10084      10095      10094      10204      10205      10216      10215  
     10084      10085      10096      10095      10205      10206      10217      10216  
     10085      10086      10097      10096      10206      10207      10218      10217  
     10086      10087      10098      10097      10207      10208      10219      10218  
     10088      10089      10100      10099      10209      10210      10221      10220  
     10089      10090      10101      10100      10210      10211      10222      10221  
     10090      10091      10102      10101      10211      10212      10223      10222  
     10091      10092      10103      10102      10212      10213      10224      10223  
     10092      10093      10104      10103      10213      10214      10225      10224  
     10093      10094      10105      10104      10214      10215      10226      10225  
     10094      10095      10106      10105      10215      10216      10227      10226  
     10095      10096      10107      10106      10216      10217      10228      10227  
     10096      10097      10108      10107      10217      10218      10229      10228  
     10097      10098      10109      10108      10218      10219      10230      10229  
     10099      10100      10111      10110      10220      10221      10232      10231  
     10100      10101      10112      10111      10221      10222      10233      10232  
     10101      10102      10113      10112      10222      10223      10234      10233  
     10102      10103      10114      10113      10223      10224      10235      10234  
     10103      10104      10115      10114      10224      10225      10236      10235  
     10104      10105      10116      10115      10225      10226      10237      10236  
     10105      10106      10117      10116      10226      10227      10238      10237  
     10106      10107      10118      10117      10227      10228      10239      10238  
     10107      10108      10119      10118      10228      10229      10240      10239  
     10108      10109      10120      10119      10229      10230      10241      10240  
     10110      10111      10122      10121      10231      10232      10243      10242  
     10111      10112      10123      10122      10232      10233      10244      10243  
     10112      10113      10124      10123      10233      10234      10245      10244  
     10113      10114      10125      10124      10234      10235      10246      10245  
     10114      10115      10126      10125      10235      10236      10247      10246  
     10115      10116      10127      10126      10236      10237      10248      10247  
     10116      10117      10128      10127      10237      10238      10249      10248  
     10117      10118      10129      10128      10238      10239      10250      10249  
     10118      10119      10130      10129      10239      10240      10251      10250  
     10119      10120      10131      10130      10240      10241      10252      10251  
     10121      10122      10133      10132      10242      10243      10254      10253  
     10122      10123      10134      10133      10243      10244      10255      10254  
     10123      10124      10135      10134      10244      10245      10256      10255  
     10124      10125      10136      10135      10245      10246      10257      10256  
     10125      10126      10137      10136      10246      10247      10258      10257  
     10126      10127      10138      10137      10247      10248      10259      10258  
     10127      10128      10139      10138      10248      10249      10260      10259  
     10128      10129      10140      10139      10249      10250      10261      10260  
     10129      10130      10141      10140      10250      10251      10262      10261  
     10130      10131      10142      10141      10251      10252      10263      10262  
     10132      10133      10144      10143      10253      10254      10265      10264  
     10133      10134      10145      10144      10254      10255      10266      10265  
     10134      10135      10146      10145      10255      10256      10267      10266  
     10135      10136      10147      10146      10256      10257      10268      10267  
     10136      10137      10148      10147      10257      10258      10269      10268  
     10137      10138      10149      10148      10258      10259      10270      10269  
     10138      10139      10150      10149      10259      10260      10271      10270  
     10139      10140      10151      10150      10260      10261      10272      10271  
     10140      10141      10152      10151      10261      10262      10273      10272  
     10141      10142      10153      10152      10262      10263      10274      10273  
     10143      10144      10155      10154      10264      10265      10276      10275  
     10144      10145      10156      10155      10265      10266      10277      10276  
     10145      10146      10157      10156      10266      10267      10278      10277  
     10146      10147      10158      10157      10267      10268      10279      10278  
     10147      10148      10159      10158      10268      10269      10280      10279  
     10148      10149      10160      10159      10269      10270      10281      10280  
     10149      10150      10161      10160      10270      10271      10282      10281  
     10150      10151      10162      10161      10271      10272      10283      10282  
     10151      10152      10163      10162      10272      10273      10284      10283  
     10152      10153      10164      10163      10273      10274      10285      10284  
     10165      10166      10177      10176      10286      10287      10298      10297  
     10166      10167      10178      10177      10287      10288      10299      10298  
     10167      10168      10179      10178      10288      10289      10300      10299  
     10168      10169      10180      10179      10289      10290      10301      10300  
     10169      10170      10181      10180      10290      10291      10302      10301  
     10170      10171      10182      10181      10291      10292      10303      10302  
     10171      10172      10183      10182      10292      10293      10304      10303  
     10172      10173      10184      10183      10293      10294      10305      10304  
     10173      10174      10185      10184      10294      10295      10306      10305  
     10174      10175      10186      10185      10295      10296      10307      10306  
     10176      10177      10188      10187      10297      10298      10309      10308  
     10177      10178      10189      10188      10298      10299      10310      10309  
     10178      10179      10190      10189      10299      10300      10311      10310  
     10179      10180      10191      10190      10300      10301      10312      10311  
     10180      10181      10192      10191      10301      10302      10313      10312  
     10181      10182      10193      10192      10302      10303      10314      10313  
     10182      10183      10194      10193      10303      10304      10315      10314  
     10183      10184      10195      10194      10304      10305      10316      10315  
     10184      10185      10196      10195      10305      10306      10317      10316  
     10185      10186      10197      10196      10306      10307      10318      10317  
     10187      10188      10199      10198      10308      10309      10320      10319  
     10188      10189      10200      10199      10309      10310      10321      10320  
     10189      10190      10201      10200      10310      10311      10322      10321  
     10190      10191      10202      10201      10311      10312      10323      10322  
     10191      10192      10203      10202      10312      10313      10324      10323  
     10192      10193      10204      10203      10313      10314      10325      10324  
     10193      10194      10205      10204      10314      10315      10326      10325  
     10194      10195      10206      10205      10315      10316      10327      10326  
     10195      10196      10207      10206      10316      10317      10328      10327  
     10196      10197      10208      10207      10317      10318      10329      10328  
     10198      10199      10210      10209      10319      10320      10331      10330  
     10199      10200      10211      10210      10320      10321      10332      10331  
     10200      10201      10212      10211      10321      10322      10333      10332  
     10201      10202      10213      10212      10322      10323      10334      10333  
     10202      10203      10214      10213      10323      10324      10335      10334  
     10203      10204      10215      10214      10324      10325      10336      10335  
     10204      10205      10216      10215      10325      10326      10337      10336  
     10205      10206      10217      10216      10326      10327      10338      10337  
     10206      10207      10218      10217      10327      10328      10339      10338  
     10207      10208      10219      10218      10328      10329      10340      10339  
     10209      10210      10221      10220      10330      10331      10342      10341  
     10210      10211      10222      10221      10331      10332      10343      10342  
     10211      10212      10223      10222      10332      10333      10344      10343  
     10212      10213      10224      10223      10333      10334      10345      10344  
     10213      10214      10225      10224      10334      10335      10346      10345  
     10214      10215      10226      10225      10335      10336      10347      10346  
     10215      10216      10227      10226      10336      10337      10348      10347  
     10216      10217      10228      10227      10337      10338      10349      10348  
     10217      10218      10229      10228      10338      10339      10350      10349  
     10218      10219      10230      10229      10339      10340      10351      10350  
     10220      10221      10232      10231      10341      10342      10353      10352  
     10221      10222      10233      10232      10342      10343      10354      10353  
     10222      10223      10234      10233      10343      10344      10355      10354  
     10223      10224      10235      10234      10344      10345      10356      10355  
     10224      10225      10236      10235      10345      10346      10357      10356  
     10225      10226      10237      10236      10346      10347      10358      10357  
     10226      10227      10238      10237      10347      10348      10359      10358  
     10227      10228      10239      10238      10348      10349      10360      10359  
     10228      10229      10240      10239      10349      10350      10361      10360  
     10229      10230      10241      10240      10350      10351      10362      10361  
     10231      10232      10243      10242      10352      10353      10364      10363  
     10232      10233      10244      10243      10353      10354      10365      10364  
     10233      10234      10245      10244      10354      10355      10366      10365  
     10234      10235      10246      10245      10355      10356      10367      10366  
     10235      10236      10247      10246      10356      10357      10368      10367  
     10236      10237      10248      10247      10357      10358      10369      10368  
     10237      10238      10249      10248      10358      10359      10370      10369  
     10238      10239      10250      10249      10359      10360      10371      10370  
     10239      10240      10251      10250      10360      10361      10372      10371  
     10240      10241      10252      10251      10361      10362      10373      10372  
     10242      10243      10254      10253      10363      10364      10375      10374  
     10243      10244      10255      10254      10364      10365      10376      10375  
     10244      10245      10256      10255      10365      10366      10377      10376  
     10245      10246      10257      10256      10366      10367      10378      10377  
     10246      10247      10258      10257      10367      10368      10379      10378  
     10247      10248      10259      10258      10368      10369      10380      10379  
     10248      10249      10260      10259      10369      10370      10381      10380  
     10249      10250      10261      10260      10370      10371      10382      10381  
     10250      10251      10262      10261      10371      10372      10383      10382  
     10251      10252      10263      10262      10372      10373      10384      10383  
     10253      10254      10265      10264      10374      10375      10386      10385  
     10254      10255      10266      10265      10375      10376      10387      10386  
     10255      10256      10267      10266      10376      10377      10388      10387  
     10256      10257      10268      10267      10377      10378      10389      10388  
     10257      10258      10269      10268      10378      10379      10390      10389  
     10258      10259      10270      10269      10379      10380      10391      10390  
     10259      10260      10271      10270      10380      10381      10392      10391  
     10260      10261      10272      10271      10381      10382      10393      10392  
     10261      10262      10273      10272      10382      10383      10394      10393  
     10262      10263      10274      10273      10383      10384      10395      10394  
     10264      10265      10276      10275      10385      10386      10397      10396  
     10265      10266      10277      10276      10386      10387      10398      10397  
     10266      10267      10278      10277      10387      10388      10399      10398  
     10267      10268      10279      10278      10388      10389      10400      10399  
     10268      10269      10280      10279      10389      10390      10401      10400  
     10269      10270      10281      10280      10390      10391      10402      10401  
     10270      10271      10282      10281      10391      10392      10403      10402  
     10271      10272      10283      10282      10392      10393      10404      10403  
     10272      10273      10284      10283      10393      10394      10405      10404  
     10273      10274      10285      10284      10394      10395      10406      10405  
     10286      10287      10298      10297      10407      10408      10419      10418  
     10287      10288      10299      10298      10408      10409      10420      10419  
     10288      10289      10300      10299      10409      10410      10421      10420  
     10289      10290      10301      10300      10410      10411      10422      10421  
     10290      10291      10302      10301      10411      10412      10423      10422  
     10291      10292      10303      10302      10412      10413      10424      10423  
     10292      10293      10304      10303      10413      10414      10425      10424  
     10293      10294      10305      10304      10414      10415      10426      10425  
     10294      10295      10306      10305      10415      10416      10427      10426  
     10295      10296      10307      10306      10416      10417      10428      10427  
     10297      10298      10309      10308      10418      10419      10430      10429  
     10298      10299      10310      10309      10419      10420      10431      10430  
     10299      10300      10311      10310      10420      10421      10432      10431  
     10300      10301      10312      10311      10421      10422      10433      10432  
     10301      10302      10313      10312      10422      10423      10434      10433  
     10302      10303      10314      10313      10423      10424      10435      10434  
     10303      10304      10315      10314      10424      10425      10436      10435  
     10304      10305      10316      10315      10425      10426      10437      10436  
     10305      10306      10317      10316      10426      10427      10438      10437  
     10306      10307      10318      10317      10427      10428      10439      10438  
     10308      10309      10320      10319      10429      10430      10441      10440  
     10309      10310      10321      10320      10430      10431      10442      10441  
     10310      10311      10322      10321      10431      10432      10443      10442  
     10311      10312      10323      10322      10432      10433      10444      10443  
     10312      10313      10324      10323      10433      10434      10445      10444  
     10313      10314      10325      10324      10434      10435      10446      10445  
     10314      10315      10326      10325      10435      10436      10447      10446  
     10315      10316      10327      10326      10436      10437      10448      10447  
     10316      10317      10328      10327      10437      10438      10449      10448  
     10317      10318      10329      10328      10438      10439      10450      10449  
     10319      10320      10331      10330      10440      10441      10452      10451  
     10320      10321      10332      10331      10441      10442      10453      10452  
     10321      10322      10333      10332      10442      10443      10454      10453  
     10322      10323      10334      10333      10443      10444      10455      10454  
     10323      10324      10335      10334      10444      10445      10456      10455  
     10324      10325      10336      10335      10445      10446      10457      10456  
     10325      10326      10337      10336      10446      10447      10458      10457  
     10326      10327      10338      10337      10447      10448      10459      10458  
     10327      10328      10339      10338      10448      10449      10460      10459  
     10328      10329      10340      10339      10449      10450      10461      10460  
     10330      10331      10342      10341      10451      10452      10463      10462  
     10331      10332      10343      10342      10452      10453      10464      10463  
     10332      10333      10344      10343      10453      10454      10465      10464  
     10333      10334      10345      10344      10454      10455      10466      10465  
     10334      10335      10346      10345      10455      10456      10467      10466  
     10335      10336      10347      10346      10456      10457      10468      10467  
     10336      10337      10348      10347      10457      10458      10469      10468  
     10337      10338      10349      10348      10458      10459      10470      10469  
     10338      10339      10350      10349      10459      10460      10471      10470  
     10339      10340      10351      10350      10460      10461      10472      10471  
     10341      10342      10353      10352      10462      10463      10474      10473  
     10342      10343      10354      10353      10463      10464      10475      10474  
     10343      10344      10355      10354      10464      10465      10476      10475  
     10344      10345      10356      10355      10465      10466      10477      10476  
     10345      10346      10357      10356      10466      10467      10478      10477  
     10346      10347      10358      10357      10467      10468      10479      10478  
     10347      10348      10359      10358      10468      10469      10480      10479  
     10348      10349      10360      10359      10469      10470      10481      10480  
     10349      10350      10361      10360      10470      10471      10482      10481  
     10350      10351      10362      10361      10471      10472      10483      10482  
     10352      10353      10364      10363      10473      10474      10485      10484  
     10353      10354      10365      10364      10474      10475      10486      10485  
     10354      10355      10366      10365      10475      10476      10487      10486  
     10355      10356      10367      10366      10476      10477      10488      10487  
     10356      10357      10368      10367      10477      10478      10489      10488  
     10357      10358      10369      10368      10478      10479      10490      10489  
     10358      10359      10370      10369      10479      10480      10491      10490  
     10359      10360      10371      10370      10480      10481      10492      10491  
     10360      10361      10372      10371      10481      10482      10493      10492  
     10361      10362      10373      10372      10482      10483      10494      10493  
     10363      10364      10375      10374      10484      10485      10496      10495  
     10364      10365      10376      10375      10485      10486      10497      10496  
     10365      10366      10377      10376      10486      10487      10498      10497  
     10366      10367      10378      10377      10487      10488      10499      10498  
     10367      10368      10379      10378      10488      10489      10500      10499  
     10368      10369      10380      10379      10489      10490      10501      10500  
     10369      10370      10381      10380      10490      10491      10502      10501  
     10370      10371      10382      10381      10491      10492      10503      10502  
     10371      10372      10383      10382      10492      10493      10504      10503  
     10372      10373      10384      10383      10493      10494      10505      10504  
     10374      10375      10386      10385      10495      10496      10507      10506  
     10375      10376      10387      10386      10496      10497      10508      10507  
     10376      10377      10388      10387      10497      10498      10509      10508  
     10377      10378      10389      10388      10498      10499      10510      10509  
     10378      10379      10390      10389      10499      10500      10511      10510  
     10379      10380      10391      10390      10500      10501      10512      10511  
     10380      10381      10392      10391      10501      10502      10513      10512  
     10381      10382      10393      10392      10502      10503      10514      10513  
     10382      10383      10394      10393      10503      10504      10515      10514  
     10383      10384      10395      10394      10504      10505      10516      10515  
     10385      10386      10397      10396      10506      10507      10518      10517  
     10386      10387      10398      10397      10507      10508      10519      10518  
     10387      10388      10399      10398      10508      10509      10520      10519  
     10388      10389      10400      10399      10509      10510      10521      10520  
     10389      10390      10401      10400      10510      10511      10522      10521  
     10390      10391      10402      10401      10511      10512      10523      10522  
     10391      10392      10403      10402      10512      10513      10524      10523  
     10392      10393      10404      10403      10513      10514      10525      10524  
     10393      10394      10405      10404      10514      10515      10526      10525  
     10394      10395      10406      10405      10515      10516      10527      10526  
     10407      10408      10419      10418      10528      10529      10540      10539  
     10408      10409      10420      10419      10529      10530      10541      10540  
     10409      10410      10421      10420      10530      10531      10542      10541  
     10410      10411      10422      10421      10531      10532      10543      10542  
     10411      10412      10423      10422      10532      10533      10544      10543  
     10412      10413      10424      10423      10533      10534      10545      10544  
     10413      10414      10425      10424      10534      10535      10546      10545  
     10414      10415      10426      10425      10535      10536      10547      10546  
     10415      10416      10427      10426      10536      10537      10548      10547  
     10416      10417      10428      10427      10537      10538      10549      10548  
     10418      10419      10430      10429      10539      10540      10551      10550  
     10419      10420      10431      10430      10540      10541      10552      10551  
     10420      10421      10432      10431      10541      10542      10553      10552  
     10421      10422      10433      10432      10542      10543      10554      10553  
     10422      10423      10434      10433      10543      10544      10555      10554  
     10423      10424      10435      10434      10544      10545      10556      10555  
     10424      10425      10436      10435      10545      10546      10557      10556  
     10425      10426      10437      10436      10546      10547      10558      10557  
     10426      10427      10438      10437      10547      10548      10559      10558  
     10427      10428      10439      10438      10548      10549      10560      10559  
     10429      10430      10441      10440      10550      10551      10562      10561  
     10430      10431      10442      10441      10551      10552      10563      10562  
     10431      10432      10443      10442      10552      10553      10564      10563  
     10432      10433      10444      10443      10553      10554      10565      10564  
     10433      10434      10445      10444      10554      10555      10566      10565  
     10434      10435      10446      10445      10555      10556      10567      10566  
     10435      10436      10447      10446      10556      10557      10568      10567  
     10436      10437      10448      10447      10557      10558      10569      10568  
     10437      10438      10449      10448      10558      10559      10570      10569  
     10438      10439      10450      10449      10559      10560      10571      10570  
     10440      10441      10452      10451      10561      10562      10573      10572  
     10441      10442      10453      10452      10562      10563      10574      10573  
     10442      10443      10454      10453      10563      10564      10575      10574  
     10443      10444      10455      10454      10564      10565      10576      10575  
     10444      10445      10456      10455      10565      10566      10577      10576  
     10445      10446      10457      10456      10566      10567      10578      10577  
     10446      10447      10458      10457      10567      10568      10579      10578  
     10447      10448      10459      10458      10568      10569      10580      10579  
     10448      10449      10460      10459      10569      10570      10581      10580  
     10449      10450      10461      10460      10570      10571      10582      10581  
     10451      10452      10463      10462      10572      10573      10584      10583  
     10452      10453      10464      10463      10573      10574      10585      10584  
     10453      10454      10465      10464      10574      10575      10586      10585  
     10454      10455      10466      10465      10575      10576      10587      10586  
     10455      10456      10467      10466      10576      10577      10588      10587  
     10456      10457      10468      10467      10577      10578      10589      10588  
     10457      10458      10469      10468      10578      10579      10590      10589  
     10458      10459      10470      10469      10579      10580      10591      10590  
     10459      10460      10471      10470      10580      10581      10592      10591  
     10460      10461      10472      10471      10581      10582      10593      10592  
     10462      10463      10474      10473      10583      10584      10595      10594  
     10463      10464      10475      10474      10584      10585      10596      10595  
     10464      10465      10476      10475      10585      10586      10597      10596  
     10465      10466      10477      10476      10586      10587      10598      10597  
     10466      10467      10478      10477      10587      10588      10599      10598  
     10467      10468      10479      10478      10588      10589      10600      10599  
     10468      10469      10480      10479      10589      10590      10601      10600  
     10469      10470      10481      10480      10590      10591      10602      10601  
     10470      10471      10482      10481      10591      10592      10603      10602  
     10471      10472      10483      10482      10592      10593      10604      10603  
     10473      10474      10485      10484      10594      10595      10606      10605  
     10474      10475      10486      10485      10595      10596      10607      10606  
     10475      10476      10487      10486      10596      10597      10608      10607  
     10476      10477      10488      10487      10597      10598      10609      10608  
     10477      10478      10489      10488      10598      10599      10610      10609  
     10478      10479      10490      10489      10599      10600      10611      10610  
     10479      10480      10491      10490      10600      10601      10612      10611  
     10480      10481      10492      10491      10601      10602      10613      10612  
     10481      10482      10493      10492      10602      10603      10614      10613  
     10482      10483      10494      10493      10603      10604      10615      10614  
     10484      10485      10496      10495      10605      10606      10617      10616  
     10485      10486      10497      10496      10606      10607      10618      10617  
     10486      10487      10498      10497      10607      10608      10619      10618  
     10487      10488      10499      10498      10608      10609      10620      10619  
     10488      10489      10500      10499      10609      10610      10621      10620  
     10489      10490      10501      10500      10610      10611      10622      10621  
     10490      10491      10502      10501      10611      10612      10623      10622  
     10491      10492      10503      10502      10612      10613      10624      10623  
     10492      10493      10504      10503      10613      10614      10625      10624  
     10493      10494      10505      10504      10614      10615      10626      10625  
     10495      10496      10507      10506      10616      10617      10628      10627  
     10496      10497      10508      10507      10617      10618      10629      10628  
     10497      10498      10509      10508      10618      10619      10630      10629  
     10498      10499      10510      10509      10619      10620      10631      10630  
     10499      10500      10511      10510      10620      10621      10632      10631  
     10500      10501      10512      10511      10621      10622      10633      10632  
     10501      10502      10513      10512      10622      10623      10634      10633  
     10502      10503      10514      10513      10623      10624      10635      10634  
     10503      10504      10515      10514      10624      10625      10636      10635  
     10504      10505      10516      10515      10625      10626      10637      10636  
     10506      10507      10518      10517      10627      10628      10639      10638  
     10507      10508      10519      10518      10628      10629      10640      10639  
     10508      10509      10520      10519      10629      10630      10641      10640  
     10509      10510      10521      10520      10630      10631      10642      10641  
     10510      10511      10522      10521      10631      10632      10643      10642  
     10511      10512      10523      10522      10632      10633      10644      10643  
     10512      10513      10524      10523      10633      10634      10645      10644  
     10513      10514      10525      10524      10634      10635      10646      10645  
     10514      10515      10526      10525      10635      10636      10647      10646  
     10515      10516      10527      10526      10636      10637      10648      10647  
     10528      10529      10540      10539      10649      10650      10661      10660  
     10529      10530      10541      10540      10650      10651      10662      10661  
     10530      10531      10542      10541      10651      10652      10663      10662  
     10531      10532      10543      10542      10652      10653      10664      10663  
     10532      10533      10544      10543      10653      10654      10665      10664  
     10533      10534      10545      10544      10654      10655      10666      10665  
     10534      10535      10546      10545      10655      10656      10667      10666  
     10535      10536      10547      10546      10656      10657      10668      10667  
     10536      10537      10548      10547      10657      10658      10669      10668  
     10537      10538      10549      10548      10658      10659      10670      10669  
     10539      10540      10551      10550      10660      10661      10672      10671  
     10540      10541      10552      10551      10661      10662      10673      10672  
     10541      10542      10553      10552      10662      10663      10674      10673  
     10542      10543      10554      10553      10663      10664      10675      10674  
     10543      10544      10555      10554      10664      10665      10676      10675  
     10544      10545      10556      10555      10665      10666      10677      10676  
     10545      10546      10557      10556      10666      10667      10678      10677  
     10546      10547      10558      10557      10667      10668      10679      10678  
     10547      10548      10559      10558      10668      10669      10680      10679  
     10548      10549      10560      10559      10669      10670      10681      10680  
     10550      10551      10562      10561      10671      10672      10683      10682  
     10551      10552      10563      10562      10672      10673      10684      10683  
     10552      10553      10564      10563      10673      10674      10685      10684  
     10553      10554      10565      10564      10674      10675      10686      10685  
     10554      10555      10566      10565      10675      10676      10687      10686  
     10555      10556      10567      10566      10676      10677      10688      10687  
     10556      10557      10568      10567      10677      10678      10689      10688  
     10557      10558      10569      10568      10678      10679      10690      10689  
     10558      10559      10570      10569      10679      10680      10691      10690  
     10559      10560      10571      10570      10680      10681      10692      10691  
     10561      10562      10573      10572      10682      10683      10694      10693  
     10562      10563      10574      10573      10683      10684      10695      10694  
     10563      10564      10575      10574      10684      10685      10696      10695  
     10564      10565      10576      10575      10685      10686      10697      10696  
     10565      10566      10577      10576      10686      10687      10698      10697  
     10566      10567      10578      10577      10687      10688      10699      10698  
     10567      10568      10579      10578      10688      10689      10700      10699  
     10568      10569      10580      10579      10689      10690      10701      10700  
     10569      10570      10581      10580      10690      10691      10702      10701  
     10570      10571      10582      10581      10691      10692      10703      10702  
     10572      10573      10584      10583      10693      10694      10705      10704  
     10573      10574      10585      10584      10694      10695      10706      10705  
     10574      10575      10586      10585      10695      10696      10707      10706  
     10575      10576      10587      10586      10696      10697      10708      10707  
     10576      10577      10588      10587      10697      10698      10709      10708  
     10577      10578      10589      10588      10698      10699      10710      10709  
     10578      10579      10590      10589      10699      10700      10711      10710  
     10579      10580      10591      10590      10700      10701      10712      10711  
     10580      10581      10592      10591      10701      10702      10713      10712  
     10581      10582      10593      10592      10702      10703      10714      10713  
     10583      10584      10595      10594      10704      10705      10716      10715  
     10584      10585      10596      10595      10705      10706      10717      10716  
     10585      10586      10597      10596      10706      10707      10718      10717  
     10586      10587      10598      10597      10707      10708      10719      10718  
     10587      10588      10599      10598      10708      10709      10720      10719  
     10588      10589      10600      10599      10709      10710      10721      10720  
     10589      10590      10601      10600      10710      10711      10722      10721  
     10590      10591      10602      10601      10711      10712      10723      10722  
     10591      10592      10603      10602      10712      10713      10724      10723  
     10592      10593      10604      10603      10713      10714      10725      10724  
     10594      10595      10606      10605      10715      10716      10727      10726  
     10595      10596      10607      10606      10716      10717      10728      10727  
     10596      10597      10608      10607      10717      10718      10729      10728  
     10597      10598      10609      10608      10718      10719      10730      10729  
     10598      10599      10610      10609      10719      10720      10731      10730  
     10599      10600      10611      10610      10720      10721      10732      10731  
     10600      10601      10612      10611      10721      10722      10733      10732  
     10601      10602      10613      10612      10722      10723      10734      10733  
     10602      10603      10614      10613      10723      10724      10735      10734  
     10603      10604      10615      10614      10724      10725      10736      10735  
     10605      10606      10617      10616      10726      10727      10738      10737  
     10606      10607      10618      10617      10727      10728      10739      10738  
     10607      10608      10619      10618      10728      10729      10740      10739  
     10608      10609      10620      10619      10729      10730      10741      10740  
     10609      10610      10621      10620      10730      10731      10742      10741  
     10610      10611      10622      10621      10731      10732      10743      10742  
     10611      10612      10623      10622      10732      10733      10744      10743  
     10612      10613      10624      10623      10733      10734      10745      10744  
     10613      10614      10625      10624      10734      10735      10746      10745  
     10614      10615      10626      10625      10735      10736      10747      10746  
     10616      10617      10628      10627      10737      10738      10749      10748  
     10617      10618      10629      10628      10738      10739      10750      10749  
     10618      10619      10630      10629      10739      10740      10751      10750  
     10619      10620      10631      10630      10740      10741      10752      10751  
     10620      10621      10632      10631      10741      10742      10753      10752  
     10621      10622      10633      10632      10742      10743      10754      10753  
     10622      10623      10634      10633      10743      10744      10755      10754  
     10623      10624      10635      10634      10744      10745      10756      10755  
     10624      10625      10636      10635      10745      10746      10757      10756  
     10625      10626      10637      10636      10746      10747      10758      10757  
     10627      10628      10639      10638      10748      10749      10760      10759  
     10628      10629      10640      10639      10749      10750      10761      10760  
     10629      10630      10641      10640      10750      10751      10762      10761  
     10630      10631      10642      10641      10751      10752      10763      10762  
     10631      10632      10643      10642      10752      10753      10764      10763  
     10632      10633      10644      10643      10753      10754      10765      10764  
     10633      10634      10645      10644      10754      10755      10766      10765  
     10634      10635      10646      10645      10755      10756      10767      10766  
     10635      10636      10647      10646      10756      10757      10768      10767  
     10636      10637      10648      10647      10757      10758      10769      10768  
     10649      10650      10661      10660      10770      10771      10782      10781  
     10650      10651      10662      10661      10771      10772      10783      10782  
     10651      10652      10663      10662      10772      10773      10784      10783  
     10652      10653      10664      10663      10773      10774      10785      10784  
     10653      10654      10665      10664      10774      10775      10786      10785  
     10654      10655      10666      10665      10775      10776      10787      10786  
     10655      10656      10667      10666      10776      10777      10788      10787  
     10656      10657      10668      10667      10777      10778      10789      10788  
     10657      10658      10669      10668      10778      10779      10790      10789  
     10658      10659      10670      10669      10779      10780      10791      10790  
     10660      10661      10672      10671      10781      10782      10793      10792  
     10661      10662      10673      10672      10782      10783      10794      10793  
     10662      10663      10674      10673      10783      10784      10795      10794  
     10663      10664      10675      10674      10784      10785      10796      10795  
     10664      10665      10676      10675      10785      10786      10797      10796  
     10665      10666      10677      10676      10786      10787      10798      10797  
     10666      10667      10678      10677      10787      10788      10799      10798  
     10667      10668      10679      10678      10788      10789      10800      10799  
     10668      10669      10680      10679      10789      10790      10801      10800  
     10669      10670      10681      10680      10790      10791      10802      10801  
     10671      10672      10683      10682      10792      10793      10804      10803  
     10672      10673      10684      10683      10793      10794      10805      10804  
     10673      10674      10685      10684      10794      10795      10806      10805  
     10674      10675      10686      10685      10795      10796      10807      10806  
     10675      10676      10687      10686      10796      10797      10808      10807  
     10676      10677      10688      10687      10797      10798      10809      10808  
     10677      10678      10689      10688      10798      10799      10810      10809  
     10678      10679      10690      10689      10799      10800      10811      10810  
     10679      10680      10691      10690      10800      10801      10812      10811  
     10680      10681      10692      10691      10801      10802      10813      10812  
     10682      10683      10694      10693      10803      10804      10815      10814  
     10683      10684      10695      10694      10804      10805      10816      10815  
     10684      10685      10696      10695      10805      10806      10817      10816  
     10685      10686      10697      10696      10806      10807      10818      10817  
     10686      10687      10698      10697      10807      10808      10819      10818  
     10687      10688      10699      10698      10808      10809      10820      10819  
     10688      10689      10700      10699      10809      10810      10821      10820  
     10689      10690      10701      10700      10810      10811      10822      10821  
     10690      10691      10702      10701      10811      10812      10823      10822  
     10691      10692      10703      10702      10812      10813      10824      10823  
     10693      10694      10705      10704      10814      10815      10826      10825  
     10694      10695      10706      10705      10815      10816      10827      10826  
     10695      10696      10707      10706      10816      10817      10828      10827  
     10696      10697      10708      10707      10817      10818      10829      10828  
     10697      10698      10709      10708      10818      10819      10830      10829  
     10698      10699      10710      10709      10819      10820      10831      10830  
     10699      10700      10711      10710      10820      10821      10832      10831  
     10700      10701      10712      10711      10821      10822      10833      10832  
     10701      10702      10713      10712      10822      10823      10834      10833  
     10702      10703      10714      10713      10823      10824      10835      10834  
     10704      10705      10716      10715      10825      10826      10837      10836  
     10705      10706      10717      10716      10826      10827      10838      10837  
     10706      10707      10718      10717      10827      10828      10839      10838  
     10707      10708      10719      10718      10828      10829      10840      10839  
     10708      10709      10720      10719      10829      10830      10841      10840  
     10709      10710      10721      10720      10830      10831      10842      10841  
     10710      10711      10722      10721      10831      10832      10843      10842  
     10711      10712      10723      10722      10832      10833      10844      10843  
     10712      10713      10724      10723      10833      10834      10845      10844  
     10713      10714      10725      10724      10834      10835      10846      10845  
     10715      10716      10727      10726      10836      10837      10848      10847  
     10716      10717      10728      10727      10837      10838      10849      10848  
     10717      10718      10729      10728      10838      10839      10850      10849  
     10718      10719      10730      10729      10839      10840      10851      10850  
     10719      10720      10731      10730      10840      10841      10852      10851  
     10720      10721      10732      10731      10841      10842      10853      10852  
     10721      10722      10733      10732      10842      10843      10854      10853  
     10722      10723      10734      10733      10843      10844      10855      10854  
     10723      10724      10735      10734      10844      10845      10856      10855  
     10724      10725      10736      10735      10845      10846      10857      10856  
     10726      10727      10738      10737      10847      10848      10859      10858  
     10727      10728      10739      10738      10848      10849      10860      10859  
     10728      10729      10740      10739      10849      10850      10861      10860  
     10729      10730      10741      10740      10850      10851      10862      10861  
     10730      10731      10742      10741      10851      10852      10863      10862  
     10731      10732      10743      10742      10852      10853      10864      10863  
     10732      10733      10744      10743      10853      10854      10865      10864  
     10733      10734      10745      10744      10854      10855      10866      10865  
     10734      10735      10746      10745      10855      10856      10867      10866  
     10735      10736      10747      10746      10856      10857      10868      10867  
     10737      10738      10749      10748      10858      10859      10870      10869  
     10738      10739      10750      10749      10859      10860      10871      10870  
     10739      10740      10751      10750      10860      10861      10872      10871  
     10740      10741      10752      10751      10861      10862      10873      10872  
     10741      10742      10753      10752      10862      10863      10874      10873  
     10742      10743      10754      10753      10863      10864      10875      10874  
     10743      10744      10755      10754      10864      10865      10876      10875  
     10744      10745      10756      10755      10865      10866      10877      10876  
     10745      10746      10757      10756      10866      10867      10878      10877  
     10746      10747      10758      10757      10867      10868      10879      10878  
     10748      10749      10760      10759      10869      10870      10881      10880  
     10749      10750      10761      10760      10870      10871      10882      10881  
     10750      10751      10762      10761      10871      10872      10883      10882  
     10751      10752      10763      10762      10872      10873      10884      10883  
     10752      10753      10764      10763      10873      10874      10885      10884  
     10753      10754      10765      10764      10874      10875      10886      10885  
     10754      10755      10766      10765      10875      10876      10887      10886  
     10755      10756      10767      10766      10876      10877      10888      10887  
     10756      10757      10768      10767      10877      10878      10889      10888  
     10757      10758      10769      10768      10878      10879      10890      10889  
     10770      10771      10782      10781      10891      10892      10903      10902  
     10771      10772      10783      10782      10892      10893      10904      10903  
     10772      10773      10784      10783      10893      10894      10905      10904  
     10773      10774      10785      10784      10894      10895      10906      10905  
     10774      10775      10786      10785      10895      10896      10907      10906  
     10775      10776      10787      10786      10896      10897      10908      10907  
     10776      10777      10788      10787      10897      10898      10909      10908  
     10777      10778      10789      10788      10898      10899      10910      10909  
     10778      10779      10790      10789      10899      10900      10911      10910  
     10779      10780      10791      10790      10900      10901      10912      10911  
     10781      10782      10793      10792      10902      10903      10914      10913  
     10782      10783      10794      10793      10903      10904      10915      10914  
     10783      10784      10795      10794      10904      10905      10916      10915  
     10784      10785      10796      10795      10905      10906      10917      10916  
     10785      10786      10797      10796      10906      10907      10918      10917  
     10786      10787      10798      10797      10907      10908      10919      10918  
     10787      10788      10799      10798      10908      10909      10920      10919  
     10788      10789      10800      10799      10909      10910      10921      10920  
     10789      10790      10801      10800      10910      10911      10922      10921  
     10790      10791      10802      10801      10911      10912      10923      10922  
     10792      10793      10804      10803      10913      10914      10925      10924  
     10793      10794      10805      10804      10914      10915      10926      10925  
     10794      10795      10806      10805      10915      10916      10927      10926  
     10795      10796      10807      10806      10916      10917      10928      10927  
     10796      10797      10808      10807      10917      10918      10929      10928  
     10797      10798      10809      10808      10918      10919      10930      10929  
     10798      10799      10810      10809      10919      10920      10931      10930  
     10799      10800      10811      10810      10920      10921      10932      10931  
     10800      10801      10812      10811      10921      10922      10933      10932  
     10801      10802      10813      10812      10922      10923      10934      10933  
     10803      10804      10815      10814      10924      10925      10936      10935  
     10804      10805      10816      10815      10925      10926      10937      10936  
     10805      10806      10817      10816      10926      10927      10938      10937  
     10806      10807      10818      10817      10927      10928      10939      10938  
     10807      10808      10819      10818      10928      10929      10940      10939  
     10808      10809      10820      10819      10929      10930      10941      10940  
     10809      10810      10821      10820      10930      10931      10942      10941  
     10810      10811      10822      10821      10931      10932      10943      10942  
     10811      10812      10823      10822      10932      10933      10944      10943  
     10812      10813      10824      10823      10933      10934      10945      10944  
     10814      10815      10826      10825      10935      10936      10947      10946  
     10815      10816      10827      10826      10936      10937      10948      10947  
     10816      10817      10828      10827      10937      10938      10949      10948  
     10817      10818      10829      10828      10938      10939      10950      10949  
     10818      10819      10830      10829      10939      10940      10951      10950  
     10819      10820      10831      10830      10940      10941      10952      10951  
     10820      10821      10832      10831      10941      10942      10953      10952  
     10821      10822      10833      10832      10942      10943      10954      10953  
     10822      10823      10834      10833      10943      10944      10955      10954  
     10823      10824      10835      10834      10944      10945      10956      10955  
     10825      10826      10837      10836      10946      10947      10958      10957  
     10826      10827      10838      10837      10947      10948      10959      10958  
     10827      10828      10839      10838      10948      10949      10960      10959  
     10828      10829      10840      10839      10949      10950      10961      10960  
     10829      10830      10841      10840      10950      10951      10962      10961  
     10830      10831      10842      10841      10951      10952      10963      10962  
     10831      10832      10843      10842      10952      10953      10964      10963  
     10832      10833      10844      10843      10953      10954      10965      10964  
     10833      10834      10845      10844      10954      10955      10966      10965  
     10834      10835      10846      10845      10955      10956      10967      10966  
     10836      10837      10848      10847      10957      10958      10969      10968  
     10837      10838      10849      10848      10958      10959      10970      10969  
     10838      10839      10850      10849      10959      10960      10971      10970  
     10839      10840      10851      10850      10960      10961      10972      10971  
     10840      10841      10852      10851      10961      10962      10973      10972  
     10841      10842      10853      10852      10962      10963      10974      10973  
     10842      10843      10854      10853      10963      10964      10975      10974  
     10843      10844      10855      10854      10964      10965      10976      10975  
     10844      10845      10856      10855      10965      10966      10977      10976  
     10845      10846      10857      10856      10966      10967      10978      10977  
     10847      10848      10859      10858      10968      10969      10980      10979  
     10848      10849      10860      10859      10969      10970      10981      10980  
     10849      10850      10861      10860      10970      10971      10982      10981  
     10850      10851      10862      10861      10971      10972      10983      10982  
     10851      10852      10863      10862      10972      10973      10984      10983  
     10852      10853      10864      10863      10973      10974      10985      10984  
     10853      10854      10865      10864      10974      10975      10986      10985  
     10854      10855      10866      10865      10975      10976      10987      10986  
     10855      10856      10867      10866      10976      10977      10988      10987  
     10856      10857      10868      10867      10977      10978      10989      10988  
     10858      10859      10870      10869      10979      10980      10991      10990  
     10859      10860      10871      10870      10980      10981      10992      10991  
     10860      10861      10872      10871      10981      10982      10993      10992  
     10861      10862      10873      10872      10982      10983      10994      10993  
     10862      10863      10874      10873      10983      10984      10995      10994  
     10863      10864      10875      10874      10984      10985      10996      10995  
     10864      10865      10876      10875      10985      10986      10997      10996  
     10865      10866      10877      10876      10986      10987      10998      10997  
     10866      10867      10878      10877      10987      10988      10999      10998  
     10867      10868      10879      10878      10988      10989      11000      10999  
     10869      10870      10881      10880      10990      10991      11002      11001  
     10870      10871      10882      10881      10991      10992      11003      11002  
     10871      10872      10883      10882      10992      10993      11004      11003  
     10872      10873      10884      10883      10993      10994      11005      11004  
     10873      10874      10885      10884      10994      10995      11006      11005  
     10874      10875      10886      10885      10995      10996      11007      11006  
     10875      10876      10887      10886      10996      10997      11008      11007  
     10876      10877      10888      10887      10997      10998      11009      11008  
     10877      10878      10889      10888      10998      10999      11010      11009  
     10878      10879      10890      10889      10999      11000      11011      11010  
     10891      10892      10903      10902      11012      11013      11024      11023  
     10892      10893      10904      10903      11013      11014      11025      11024  
     10893      10894      10905      10904      11014      11015      11026      11025  
     10894      10895      10906      10905      11015      11016      11027      11026  
     10895      10896      10907      10906      11016      11017      11028      11027  
     10896      10897      10908      10907      11017      11018      11029      11028  
     10897      10898      10909      10908      11018      11019      11030      11029  
     10898      10899      10910      10909      11019      11020      11031      11030  
     10899      10900      10911      10910      11020      11021      11032      11031  
     10900      10901      10912      10911      11021      11022      11033      11032  
     10902      10903      10914      10913      11023      11024      11035      11034  
     10903      10904      10915      10914      11024      11025      11036      11035  
     10904      10905      10916      10915      11025      11026      11037      11036  
     10905      10906      10917      10916      11026      11027      11038      11037  
     10906      10907      10918      10917      11027      11028      11039      11038  
     10907      10908      10919      10918      11028      11029      11040      11039  
     10908      10909      10920      10919      11029      11030      11041      11040  
     10909      10910      10921      10920      11030      11031      11042      11041  
     10910      10911      10922      10921      11031      11032      11043      11042  
     10911      10912      10923      10922      11032      11033      11044      11043  
     10913      10914      10925      10924      11034      11035      11046      11045  
     10914      10915      10926      10925      11035      11036      11047      11046  
     10915      10916      10927      10926      11036      11037      11048      11047  
     10916      10917      10928      10927      11037      11038      11049      11048  
     10917      10918      10929      10928      11038      11039      11050      11049  
     10918      10919      10930      10929      11039      11040      11051      11050  
     10919      10920      10931      10930      11040      11041      11052      11051  
     10920      10921      10932      10931      11041      11042      11053      11052  
     10921      10922      10933      10932      11042      11043      11054      11053  
     10922      10923      10934      10933      11043      11044      11055      11054  
     10924      10925      10936      10935      11045      11046      11057      11056  
     10925      10926      10937      10936      11046      11047      11058      11057  
     10926      10927      10938      10937      11047      11048      11059      11058  
     10927      10928      10939      10938      11048      11049      11060      11059  
     10928      10929      10940      10939      11049      11050      11061      11060  
     10929      10930      10941      10940      11050      11051      11062      11061  
     10930      10931      10942      10941      11051      11052      11063      11062  
     10931      10932      10943      10942      11052      11053      11064      11063  
     10932      10933      10944      10943      11053      11054      11065      11064  
     10933      10934      10945      10944      11054      11055      11066      11065  
     10935      10936      10947      10946      11056      11057      11068      11067  
     10936      10937      10948      10947      11057      11058      11069      11068  
     10937      10938      10949      10948      11058      11059      11070      11069  
     10938      10939      10950      10949      11059      11060      11071      11070  
     10939      10940      10951      10950      11060      11061      11072      11071  
     10940      10941      10952      10951      11061      11062      11073      11072  
     10941      10942      10953      10952      11062      11063      11074      11073  
     10942      10943      10954      10953      11063      11064      11075      11074  
     10943      10944      10955      10954      11064      11065      11076      11075  
     10944      10945      10956      10955      11065      11066      11077      11076  
     10946      10947      10958      10957      11067      11068      11079      11078  
     10947      10948      10959      10958      11068      11069      11080      11079  
     10948      10949      10960      10959      11069      11070      11081      11080  
     10949      10950      10961      10960      11070      11071      11082      11081  
     10950      10951      10962      10961      11071      11072      11083      11082  
     10951      10952      10963      10962      11072      11073      11084      11083  
     10952      10953      10964      10963      11073      11074      11085      11084  
     10953      10954      10965      10964      11074      11075      11086      11085  
     10954      10955      10966      10965      11075      11076      11087      11086  
     10955      10956      10967      10966      11076      11077      11088      11087  
     10957      10958      10969      10968      11078      11079      11090      11089  
     10958      10959      10970      10969      11079      11080      11091      11090  
     10959      10960      10971      10970      11080      11081      11092      11091  
     10960      10961      10972      10971      11081      11082      11093      11092  
     10961      10962      10973      10972      11082      11083      11094      11093  
     10962      10963      10974      10973      11083      11084      11095      11094  
     10963      10964      10975      10974      11084      11085      11096      11095  
     10964      10965      10976      10975      11085      11086      11097      11096  
     10965      10966      10977      10976      11086      11087      11098      11097  
     10966      10967      10978      10977      11087      11088      11099      11098  
     10968      10969      10980      10979      11089      11090      11101      11100  
     10969      10970      10981      10980      11090      11091      11102      11101  
     10970      10971      10982      10981      11091      11092      11103      11102  
     10971      10972      10983      10982      11092      11093      11104      11103  
     10972      10973      10984      10983      11093      11094      11105      11104  
     10973      10974      10985      10984      11094      11095      11106      11105  
     10974      10975      10986      10985      11095      11096      11107      11106  
     10975      10976      10987      10986      11096      11097      11108      11107  
     10976      10977      10988      10987      11097      11098      11109      11108  
     10977      10978      10989      10988      11098      11099      11110      11109  
     10979      10980      10991      10990      11100      11101      11112      11111  
     10980      10981      10992      10991      11101      11102      11113      11112  
     10981      10982      10993      10992      11102      11103      11114      11113  
     10982      10983      10994      10993      11103      11104      11115      11114  
     10983      10984      10995      10994      11104      11105      11116      11115  
     10984      10985      10996      10995      11105      11106      11117      11116  
     10985      10986      10997      10996      11106      11107      11118      11117  
     10986      10987      10998      10997      11107      11108      11119      11118  
     10987      10988      10999      10998      11108      11109      11120      11119  
     10988      10989      11000      10999      11109      11110      11121      11120  
     10990      10991      11002      11001      11111      11112      11123      11122  
     10991      10992      11003      11002      11112      11113      11124      11123  
     10992      10993      11004      11003      11113      11114      11125      11124  
     10993      10994      11005      11004      11114      11115      11126      11125  
     10994      10995      11006      11005      11115      11116      11127      11126  
     10995      10996      11007      11006      11116      11117      11128      11127  
     10996      10997      11008      11007      11117      11118      11129      11128  
     10997      10998      11009      11008      11118      11119      11130      11129  
     10998      10999      11010      11009      11119      11120      11131      11130  
     10999      11000      11011      11010      11120      11121      11132      11131  
     11012      11013      11024      11023      11133      11134      11145      11144  
     11013      11014      11025      11024      11134      11135      11146      11145  
     11014      11015      11026      11025      11135      11136      11147      11146  
     11015      11016      11027      11026      11136      11137      11148      11147  
     11016      11017      11028      11027      11137      11138      11149      11148  
     11017      11018      11029      11028      11138      11139      11150      11149  
     11018      11019      11030      11029      11139      11140      11151      11150  
     11019      11020      11031      11030      11140      11141      11152      11151  
     11020      11021      11032      11031      11141      11142      11153      11152  
     11021      11022      11033      11032      11142      11143      11154      11153  
     11023      11024      11035      11034      11144      11145      11156      11155  
     11024      11025      11036      11035      11145      11146      11157      11156  
     11025      11026      11037      11036      11146      11147      11158      11157  
     11026      11027      11038      11037      11147      11148      11159      11158  
     11027      11028      11039      11038      11148      11149      11160      11159  
     11028      11029      11040      11039      11149      11150      11161      11160  
     11029      11030      11041      11040      11150      11151      11162      11161  
     11030      11031      11042      11041      11151      11152      11163      11162  
     11031      11032      11043      11042      11152      11153      11164      11163  
     11032      11033      11044      11043      11153      11154      11165      11164  
     11034      11035      11046      11045      11155      11156      11167      11166  
     11035      11036      11047      11046      11156      11157      11168      11167  
     11036      11037      11048      11047      11157      11158      11169      11168  
     11037      11038      11049      11048      11158      11159      11170      11169  
     11038      11039      11050      11049      11159      11160      11171      11170  
     11039      11040      11051      11050      11160      11161      11172      11171  
     11040      11041      11052      11051      11161      11162      11173      11172  
     11041      11042      11053      11052      11162      11163      11174      11173  
     11042      11043      11054      11053      11163      11164      11175      11174  
     11043      11044      11055      11054      11164      11165      11176      11175  
     11045      11046      11057      11056      11166      11167      11178      11177  
     11046      11047      11058      11057      11167      11168      11179      11178  
     11047      11048      11059      11058      11168      11169      11180      11179  
     11048      11049      11060      11059      11169      11170      11181      11180  
     11049      11050      11061      11060      11170      11171      11182      11181  
     11050      11051      11062      11061      11171      11172      11183      11182  
     11051      11052      11063      11062      11172      11173      11184      11183  
     11052      11053      11064      11063      11173      11174      11185      11184  
     11053      11054      11065      11064      11174      11175      11186      11185  
     11054      11055      11066      11065      11175      11176      11187      11186  
     11056      11057      11068      11067      11177      11178      11189      11188  
     11057      11058      11069      11068      11178      11179      11190      11189  
     11058      11059      11070      11069      11179      11180      11191      11190  
     11059      11060      11071      11070      11180      11181      11192      11191  
     11060      11061      11072      11071      11181      11182      11193      11192  
     11061      11062      11073      11072      11182      11183      11194      11193  
     11062      11063      11074      11073      11183      11184      11195      11194  
     11063      11064      11075      11074      11184      11185      11196      11195  
     11064      11065      11076      11075      11185      11186      11197      11196  
     11065      11066      11077      11076      11186      11187      11198      11197  
     11067      11068      11079      11078      11188      11189      11200      11199  
     11068      11069      11080      11079      11189      11190      11201      11200  
     11069      11070      11081      11080      11190      11191      11202      11201  
     11070      11071      11082      11081      11191      11192      11203      11202  
     11071      11072      11083      11082      11192      11193      11204      11203  
     11072      11073      11084      11083      11193      11194      11205      11204  
     11073      11074      11085      11084      11194      11195      11206      11205  
     11074      11075      11086      11085      11195      11196      11207      11206  
     11075      11076      11087      11086      11196      11197      11208      11207  
     11076      11077      11088      11087      11197      11198      11209      11208  
     11078      11079      11090      11089      11199      11200      11211      11210  
     11079      11080      11091      11090      11200      11201      11212      11211  
     11080      11081      11092      11091      11201      11202      11213      11212  
     11081      11082      11093      11092      11202      11203      11214      11213  
     11082      11083      11094      11093      11203      11204      11215      11214  
     11083      11084      11095      11094      11204      11205      11216      11215  
     11084      11085      11096      11095      11205      11206      11217      11216  
     11085      11086      11097      11096      11206      11207      11218      11217  
     11086      11087      11098      11097      11207      11208      11219      11218  
     11087      11088      11099      11098      11208      11209      11220      11219  
     11089      11090      11101      11100      11210      11211      11222      11221  
     11090      11091      11102      11101      11211      11212      11223      11222  
     11091      11092      11103      11102      11212      11213      11224      11223  
     11092      11093      11104      11103      11213      11214      11225      11224  
     11093      11094      11105      11104      11214      11215      11226      11225  
     11094      11095      11106      11105      11215      11216      11227      11226  
     11095      11096      11107      11106      11216      11217      11228      11227  
     11096      11097      11108      11107      11217      11218      11229      11228  
     11097      11098      11109      11108      11218      11219      11230      11229  
     11098      11099      11110      11109      11219      11220      11231      11230  
     11100      11101      11112      11111      11221      11222      11233      11232  
     11101      11102      11113      11112      11222      11223      11234      11233  
     11102      11103      11114      11113      11223      11224      11235      11234  
     11103      11104      11115      11114      11224      11225      11236      11235  
     11104      11105      11116      11115      11225      11226      11237      11236  
     11105      11106      11117      11116      11226      11227      11238      11237  
     11106      11107      11118      11117      11227      11228      11239      11238  
     11107      11108      11119      11118      11228      11229      11240      11239  
     11108      11109      11120      11119      11229      11230      11241      11240  
     11109      11110      11121      11120      11230      11231      11242      11241  
     11111      11112      11123      11122      11232      11233      11244      11243  
     11112      11113      11124      11123      11233      11234      11245      11244  
     11113      11114      11125      11124      11234      11235      11246      11245  
     11114      11115      11126      11125      11235      11236      11247      11246  
     11115      11116      11127      11126      11236      11237      11248      11247  
     11116      11117      11128      11127      11237      11238      11249      11248  
     11117      11118      11129      11128      11238      11239      11250      11249  
     11118      11119      11130      11129      11239      11240      11251      11250  
     11119      11120      11131      11130      11240      11241      11252      11251  
     11120      11121      11132      11131      11241      11242      11253      11252  
     11133      11134      11145      11144      11254      11255      11266      11265  
     11134      11135      11146      11145      11255      11256      11267      11266  
     11135      11136      11147      11146      11256      11257      11268      11267  
     11136      11137      11148      11147      11257      11258      11269      11268  
     11137      11138      11149      11148      11258      11259      11270      11269  
     11138      11139      11150      11149      11259      11260      11271      11270  
     11139      11140      11151      11150      11260      11261      11272      11271  
     11140      11141      11152      11151      11261      11262      11273      11272  
     11141      11142      11153      11152      11262      11263      11274      11273  
     11142      11143      11154      11153      11263      11264      11275      11274  
     11144      11145      11156      11155      11265      11266      11277      11276  
     11145      11146      11157      11156      11266      11267      11278      11277  
     11146      11147      11158      11157      11267      11268      11279      11278  
     11147      11148      11159      11158      11268      11269      11280      11279  
     11148      11149      11160      11159      11269      11270      11281      11280  
     11149      11150      11161      11160      11270      11271      11282      11281  
     11150      11151      11162      11161      11271      11272      11283      11282  
     11151      11152      11163      11162      11272      11273      11284      11283  
     11152      11153      11164      11163      11273      11274      11285      11284  
     11153      11154      11165      11164      11274      11275      11286      11285  
     11155      11156      11167      11166      11276      11277      11288      11287  
     11156      11157      11168      11167      11277      11278      11289      11288  
     11157      11158      11169      11168      11278      11279      11290      11289  
     11158      11159      11170      11169      11279      11280      11291      11290  
     11159      11160      11171      11170      11280      11281      11292      11291  
     11160      11161      11172      11171      11281      11282      11293      11292  
     11161      11162      11173      11172      11282      11283      11294      11293  
     11162      11163      11174      11173      11283      11284      11295      11294  
     11163      11164      11175      11174      11284      11285      11296      11295  
     11164      11165      11176      11175      11285      11286      11297      11296  
     11166      11167      11178      11177      11287      11288      11299      11298  
     11167      11168      11179      11178      11288      11289      11300      11299  
     11168      11169      11180      11179      11289      11290      11301      11300  
     11169      11170      11181      11180      11290      11291      11302      11301  
     11170      11171      11182      11181      11291      11292      11303      11302  
     11171      11172      11183      11182      11292      11293      11304      11303  
     11172      11173      11184      11183      11293      11294      11305      11304  
     11173      11174      11185      11184      11294      11295      11306      11305  
     11174      11175      11186      11185      11295      11296      11307      11306  
     11175      11176      11187      11186      11296      11297      11308      11307  
     11177      11178      11189      11188      11298      11299      11310      11309  
     11178      11179      11190      11189      11299      11300      11311      11310  
     11179      11180      11191      11190      11300      11301      11312      11311  
     11180      11181      11192      11191      11301      11302      11313      11312  
     11181      11182      11193      11192      11302      11303      11314      11313  
     11182      11183      11194      11193      11303      11304      11315      11314  
     11183      11184      11195      11194      11304      11305      11316      11315  
     11184      11185      11196      11195      11305      11306      11317      11316  
     11185      11186      11197      11196      11306      11307      11318      11317  
     11186      11187      11198      11197      11307      11308      11319      11318  
     11188      11189      11200      11199      11309      11310      11321      11320  
     11189      11190      11201      11200      11310      11311      11322      11321  
     11190      11191      11202      11201      11311      11312      11323      11322  
     11191      11192      11203      11202      11312      11313      11324      11323  
     11192      11193      11204      11203      11313      11314      11325      11324  
     11193      11194      11205      11204      11314      11315      11326      11325  
     11194      11195      11206      11205      11315      11316      11327      11326  
     11195      11196      11207      11206      11316      11317      11328      11327  
     11196      11197      11208      11207      11317      11318      11329      11328  
     11197      11198      11209      11208      11318      11319      11330      11329  
     11199      11200      11211      11210      11320      11321      11332      11331  
     11200      11201      11212      11211      11321      11322      11333      11332  
     11201      11202      11213      11212      11322      11323      11334      11333  
     11202      11203      11214      11213      11323      11324      11335      11334  
     11203      11204      11215      11214      11324      11325      11336      11335  
     11204      11205      11216      11215      11325      11326      11337      11336  
     11205      11206      11217      11216      11326      11327      11338      11337  
     11206      11207      11218      11217      11327      11328      11339      11338  
     11207      11208      11219      11218      11328      11329      11340      11339  
     11208      11209      11220      11219      11329      11330      11341      11340  
     11210      11211      11222      11221      11331      11332      11343      11342  
     11211      11212      11223      11222      11332      11333      11344      11343  
     11212      11213      11224      11223      11333      11334      11345      11344  
     11213      11214      11225      11224      11334      11335      11346      11345  
     11214      11215      11226      11225      11335      11336      11347      11346  
     11215      11216      11227      11226      11336      11337      11348      11347  
     11216      11217      11228      11227      11337      11338      11349      11348  
     11217      11218      11229      11228      11338      11339      11350      11349  
     11218      11219      11230      11229      11339      11340      11351      11350  
     11219      11220      11231      11230      11340      11341      11352      11351  
     11221      11222      11233      11232      11342      11343      11354      11353  
     11222      11223      11234      11233      11343      11344      11355      11354  
     11223      11224      11235      11234      11344      11345      11356      11355  
     11224      11225      11236      11235      11345      11346      11357      11356  
     11225      11226      11237      11236      11346      11347      11358      11357  
     11226      11227      11238      11237      11347      11348      11359      11358  
     11227      11228      11239      11238      11348      11349      11360      11359  
     11228      11229      11240      11239      11349      11350      11361      11360  
     11229      11230      11241      11240      11350      11351      11362      11361  
     11230      11231      11242      11241      11351      11352      11363      11362  
     11232      11233      11244      11243      11353      11354      11365      11364  
     11233      11234      11245      11244      11354      11355      11366      11365  
     11234      11235      11246      11245      11355      11356      11367      11366  
     11235      11236      11247      11246      11356      11357      11368      11367  
     11236      11237      11248      11247      11357      11358      11369      11368  
     11237      11238      11249      11248      11358      11359      11370      11369  
     11238      11239      11250      11249      11359      11360      11371      11370  
     11239      11240      11251      11250      11360      11361      11372      11371  
     11240      11241      11252      11251      11361      11362      11373      11372  
     11241      11242      11253      11252      11362      11363      11374      11373  
     11254      11255      11266      11265      11375      11376      11387      11386  
     11255      11256      11267      11266      11376      11377      11388      11387  
     11256      11257      11268      11267      11377      11378      11389      11388  
     11257      11258      11269      11268      11378      11379      11390      11389  
     11258      11259      11270      11269      11379      11380      11391      11390  
     11259      11260      11271      11270      11380      11381      11392      11391  
     11260      11261      11272      11271      11381      11382      11393      11392  
     11261      11262      11273      11272      11382      11383      11394      11393  
     11262      11263      11274      11273      11383      11384      11395      11394  
     11263      11264      11275      11274      11384      11385      11396      11395  
     11265      11266      11277      11276      11386      11387      11398      11397  
     11266      11267      11278      11277      11387      11388      11399      11398  
     11267      11268      11279      11278      11388      11389      11400      11399  
     11268      11269      11280      11279      11389      11390      11401      11400  
     11269      11270      11281      11280      11390      11391      11402      11401  
     11270      11271      11282      11281      11391      11392      11403      11402  
     11271      11272      11283      11282      11392      11393      11404      11403  
     11272      11273      11284      11283      11393      11394      11405      11404  
     11273      11274      11285      11284      11394      11395      11406      11405  
     11274      11275      11286      11285      11395      11396      11407      11406  
     11276      11277      11288      11287      11397      11398      11409      11408  
     11277      11278      11289      11288      11398      11399      11410      11409  
     11278      11279      11290      11289      11399      11400      11411      11410  
     11279      11280      11291      11290      11400      11401      11412      11411  
     11280      11281      11292      11291      11401      11402      11413      11412  
     11281      11282      11293      11292      11402      11403      11414      11413  
     11282      11283      11294      11293      11403      11404      11415      11414  
     11283      11284      11295      11294      11404      11405      11416      11415  
     11284      11285      11296      11295      11405      11406      11417      11416  
     11285      11286      11297      11296      11406      11407      11418      11417  
     11287      11288      11299      11298      11408      11409      11420      11419  
     11288      11289      11300      11299      11409      11410      11421      11420  
     11289      11290      11301      11300      11410      11411      11422      11421  
     11290      11291      11302      11301      11411      11412      11423      11422  
     11291      11292      11303      11302      11412      11413      11424      11423  
     11292      11293      11304      11303      11413      11414      11425      11424  
     11293      11294      11305      11304      11414      11415      11426      11425  
     11294      11295      11306      11305      11415      11416      11427      11426  
     11295      11296      11307      11306      11416      11417      11428      11427  
     11296      11297      11308      11307      11417      11418      11429      11428  
     11298      11299      11310      11309      11419      11420      11431      11430  
     11299      11300      11311      11310      11420      11421      11432      11431  
     11300      11301      11312      11311      11421      11422      11433      11432  
     11301      11302      11313      11312      11422      11423      11434      11433  
     11302      11303      11314      11313      11423      11424      11435      11434  
     11303      11304      11315      11314      11424      11425      11436      11435  
     11304      11305      11316      11315      11425      11426      11437      11436  
     11305      11306      11317      11316      11426      11427      11438      11437  
     11306      11307      11318      11317      11427      11428      11439      11438  
     11307      11308      11319      11318      11428      11429      11440      11439  
     11309      11310      11321      11320      11430      11431      11442      11441  
     11310      11311      11322      11321      11431      11432      11443      11442  
     11311      11312      11323      11322      11432      11433      11444      11443  
     11312      11313      11324      11323      11433      11434      11445      11444  
     11313      11314      11325      11324      11434      11435      11446      11445  
     11314      11315      11326      11325      11435      11436      11447      11446  
     11315      11316      11327      11326      11436      11437      11448      11447  
     11316      11317      11328      11327      11437      11438      11449      11448  
     11317      11318      11329      11328      11438      11439      11450      11449  
     11318      11319      11330      11329      11439      11440      11451      11450  
     11320      11321      11332      11331      11441      11442      11453      11452  
     11321      11322      11333      11332      11442      11443      11454      11453  
     11322      11323      11334      11333      11443      11444      11455      11454  
     11323      11324      11335      11334      11444      11445      11456      11455  
     11324      11325      11336      11335      11445      11446      11457      11456  
     11325      11326      11337      11336      11446      11447      11458      11457  
     11326      11327      11338      11337      11447      11448      11459      11458  
     11327      11328      11339      11338      11448      11449      11460      11459  
     11328      11329      11340      11339      11449      11450      11461      11460  
     11329      11330      11341      11340      11450      11451      11462      11461  
     11331      11332      11343      11342      11452      11453      11464      11463  
     11332      11333      11344      11343      11453      11454      11465      11464  
     11333      11334      11345      11344      11454      11455      11466      11465  
     11334      11335      11346      11345      11455      11456      11467      11466  
     11335      11336      11347      11346      11456      11457      11468      11467  
     11336      11337      11348      11347      11457      11458      11469      11468  
     11337      11338      11349      11348      11458      11459      11470      11469  
     11338      11339      11350      11349      11459      11460      11471      11470  
     11339      11340      11351      11350      11460      11461      11472      11471  
     11340      11341      11352      11351      11461      11462      11473      11472  
     11342      11343      11354      11353      11463      11464      11475      11474  
     11343      11344      11355      11354      11464      11465      11476      11475  
     11344      11345      11356      11355      11465      11466      11477      11476  
     11345      11346      11357      11356      11466      11467      11478      11477  
     11346      11347      11358      11357      11467      11468      11479      11478  
     11347      11348      11359      11358      11468      11469      11480      11479  
     11348      11349      11360      11359      11469      11470      11481      11480  
     11349      11350      11361      11360      11470      11471      11482      11481  
     11350      11351      11362      11361      11471      11472      11483      11482  
     11351      11352      11363      11362      11472      11473      11484      11483  
     11353      11354      11365      11364      11474      11475      11486      11485  
     11354      11355      11366      11365      11475      11476      11487      11486  
     11355      11356      11367      11366      11476      11477      11488      11487  
     11356      11357      11368      11367      11477      11478      11489      11488  
     11357      11358      11369      11368      11478      11479      11490      11489  
     11358      11359      11370      11369      11479      11480      11491      11490  
     11359      11360      11371      11370      11480      11481      11492      11491  
     11360      11361      11372      11371      11481      11482      11493      11492  
     11361      11362      11373      11372      11482      11483      11494      11493  
     11362      11363      11374      11373      11483      11484      11495      11494  
     11375      11376      11387      11386      11496      11497      11508      11507  
     11376      11377      11388      11387      11497      11498      11509      11508  
     11377      11378      11389      11388      11498      11499      11510      11509  
     11378      11379      11390      11389      11499      11500      11511      11510  
     11379      11380      11391      11390      11500      11501      11512      11511  
     11380      11381      11392      11391      11501      11502      11513      11512  
     11381      11382      11393      11392      11502      11503      11514      11513  
     11382      11383      11394      11393      11503      11504      11515      11514  
     11383      11384      11395      11394      11504      11505      11516      11515  
     11384      11385      11396      11395      11505      11506      11517      11516  
     11386      11387      11398      11397      11507      11508      11519      11518  
     11387      11388      11399      11398      11508      11509      11520      11519  
     11388      11389      11400      11399      11509      11510      11521      11520  
     11389      11390      11401      11400      11510      11511      11522      11521  
     11390      11391      11402      11401      11511      11512      11523      11522  
     11391      11392      11403      11402      11512      11513      11524      11523  
     11392      11393      11404      11403      11513      11514      11525      11524  
     11393      11394      11405      11404      11514      11515      11526      11525  
     11394      11395      11406      11405      11515      11516      11527      11526  
     11395      11396      11407      11406      11516      11517      11528      11527  
     11397      11398      11409      11408      11518      11519      11530      11529  
     11398      11399      11410      11409      11519      11520      11531      11530  
     11399      11400      11411      11410      11520      11521      11532      11531  
     11400      11401      11412      11411      11521      11522      11533      11532  
     11401      11402      11413      11412      11522      11523      11534      11533  
     11402      11403      11414      11413      11523      11524      11535      11534  
     11403      11404      11415      11414      11524      11525      11536      11535  
     11404      11405      11416      11415      11525      11526      11537      11536  
     11405      11406      11417      11416      11526      11527      11538      11537  
     11406      11407      11418      11417      11527      11528      11539      11538  
     11408      11409      11420      11419      11529      11530      11541      11540  
     11409      11410      11421      11420      11530      11531      11542      11541  
     11410      11411      11422      11421      11531      11532      11543      11542  
     11411      11412      11423      11422      11532      11533      11544      11543  
     11412      11413      11424      11423      11533      11534      11545      11544  
     11413      11414      11425      11424      11534      11535      11546      11545  
     11414      11415      11426      11425      11535      11536      11547      11546  
     11415      11416      11427      11426      11536      11537      11548      11547  
     11416      11417      11428      11427      11537      11538      11549      11548  
     11417      11418      11429      11428      11538      11539      11550      11549  
     11419      11420      11431      11430      11540      11541      11552      11551  
     11420      11421      11432      11431      11541      11542      11553      11552  
     11421      11422      11433      11432      11542      11543      11554      11553  
     11422      11423      11434      11433      11543      11544      11555      11554  
     11423      11424      11435      11434      11544      11545      11556      11555  
     11424      11425      11436      11435      11545      11546      11557      11556  
     11425      11426      11437      11436      11546      11547      11558      11557  
     11426      11427      11438      11437      11547      11548      11559      11558  
     11427      11428      11439      11438      11548      11549      11560      11559  
     11428      11429      11440      11439      11549      11550      11561      11560  
     11430      11431      11442      11441      11551      11552      11563      11562  
     11431      11432      11443      11442      11552      11553      11564      11563  
     11432      11433      11444      11443      11553      11554      11565      11564  
     11433      11434      11445      11444      11554      11555      11566      11565  
     11434      11435      11446      11445      11555      11556      11567      11566  
     11435      11436      11447      11446      11556      11557      11568      11567  
     11436      11437      11448      11447      11557      11558      11569      11568  
     11437      11438      11449      11448      11558      11559      11570      11569  
     11438      11439      11450      11449      11559      11560      11571      11570  
     11439      11440      11451      11450      11560      11561      11572      11571  
     11441      11442      11453      11452      11562      11563      11574      11573  
     11442      11443      11454      11453      11563      11564      11575      11574  
     11443      11444      11455      11454      11564      11565      11576      11575  
     11444      11445      11456      11455      11565      11566      11577      11576  
     11445      11446      11457      11456      11566      11567      11578      11577  
     11446      11447      11458      11457      11567      11568      11579      11578  
     11447      11448      11459      11458      11568      11569      11580      11579  
     11448      11449      11460      11459      11569      11570      11581      11580  
     11449      11450      11461      11460      11570      11571      11582      11581  
     11450      11451      11462      11461      11571      11572      11583      11582  
     11452      11453      11464      11463      11573      11574      11585      11584  
     11453      11454      11465      11464      11574      11575      11586      11585  
     11454      11455      11466      11465      11575      11576      11587      11586  
     11455      11456      11467      11466      11576      11577      11588      11587  
     11456      11457      11468      11467      11577      11578      11589      11588  
     11457      11458      11469      11468      11578      11579      11590      11589  
     11458      11459      11470      11469      11579      11580      11591      11590  
     11459      11460      11471      11470      11580      11581      11592      11591  
     11460      11461      11472      11471      11581      11582      11593      11592  
     11461      11462      11473      11472      11582      11583      11594      11593  
     11463      11464      11475      11474      11584      11585      11596      11595  
     11464      11465      11476      11475      11585      11586      11597      11596  
     11465      11466      11477      11476      11586      11587      11598      11597  
     11466      11467      11478      11477      11587      11588      11599      11598  
     11467      11468      11479      11478      11588      11589      11600      11599  
     11468      11469      11480      11479      11589      11590      11601      11600  
     11469      11470      11481      11480      11590      11591      11602      11601  
     11470      11471      11482      11481      11591      11592      11603      11602  
     11471      11472      11483      11482      11592      11593      11604      11603  
     11472      11473      11484      11483      11593      11594      11605      11604  
     11474      11475      11486      11485      11595      11596      11607      11606  
     11475      11476      11487      11486      11596      11597      11608      11607  
     11476      11477      11488      11487      11597      11598      11609      11608  
     11477      11478      11489      11488      11598      11599      11610      11609  
     11478      11479      11490      11489      11599      11600      11611      11610  
     11479      11480      11491      11490      11600      11601      11612      11611  
     11480      11481      11492      11491      11601      11602      11613      11612  
     11481      11482      11493      11492      11602      11603      11614      11613  
     11482      11483      11494      11493      11603      11604      11615      11614  
     11483      11484      11495      11494      11604      11605      11616      11615  
     11496      11497      11508      11507      11617      11618      11629      11628  
     11497      11498      11509      11508      11618      11619      11630      11629  
     11498      11499      11510      11509      11619      11620      11631      11630  
     11499      11500      11511      11510      11620      11621      11632      11631  
     11500      11501      11512      11511      11621      11622      11633      11632  
     11501      11502      11513      11512      11622      11623      11634      11633  
     11502      11503      11514      11513      11623      11624      11635      11634  
     11503      11504      11515      11514      11624      11625      11636      11635  
     11504      11505      11516      11515      11625      11626      11637      11636  
     11505      11506      11517      11516      11626      11627      11638      11637  
     11507      11508      11519      11518      11628      11629      11640      11639  
     11508      11509      11520      11519      11629      11630      11641      11640  
     11509      11510      11521      11520      11630      11631      11642      11641  
     11510      11511      11522      11521      11631      11632      11643      11642  
     11511      11512      11523      11522      11632      11633      11644      11643  
     11512      11513      11524      11523      11633      11634      11645      11644  
     11513      11514      11525      11524      11634      11635      11646      11645  
     11514      11515      11526      11525      11635      11636      11647      11646  
     11515      11516      11527      11526      11636      11637      11648      11647  
     11516      11517      11528      11527      11637      11638      11649      11648  
     11518      11519      11530      11529      11639      11640      11651      11650  
     11519      11520      11531      11530      11640      11641      11652      11651  
     11520      11521      11532      11531      11641      11642      11653      11652  
     11521      11522      11533      11532      11642      11643      11654      11653  
     11522      11523      11534      11533      11643      11644      11655      11654  
     11523      11524      11535      11534      11644      11645      11656      11655  
     11524      11525      11536      11535      11645      11646      11657      11656  
     11525      11526      11537      11536      11646      11647      11658      11657  
     11526      11527      11538      11537      11647      11648      11659      11658  
     11527      11528      11539      11538      11648      11649      11660      11659  
     11529      11530      11541      11540      11650      11651      11662      11661  
     11530      11531      11542      11541      11651      11652      11663      11662  
     11531      11532      11543      11542      11652      11653      11664      11663  
     11532      11533      11544      11543      11653      11654      11665      11664  
     11533      11534      11545      11544      11654      11655      11666      11665  
     11534      11535      11546      11545      11655      11656      11667      11666  
     11535      11536      11547      11546      11656      11657      11668      11667  
     11536      11537      11548      11547      11657      11658      11669      11668  
     11537      11538      11549      11548      11658      11659      11670      11669  
     11538      11539      11550      11549      11659      11660      11671      11670  
     11540      11541      11552      11551      11661      11662      11673      11672  
     11541      11542      11553      11552      11662      11663      11674      11673  
     11542      11543      11554      11553      11663      11664      11675      11674  
     11543      11544      11555      11554      11664      11665      11676      11675  
     11544      11545      11556      11555      11665      11666      11677      11676  
     11545      11546      11557      11556      11666      11667      11678      11677  
     11546      11547      11558      11557      11667      11668      11679      11678  
     11547      11548      11559      11558      11668      11669      11680      11679  
     11548      11549      11560      11559      11669      11670      11681      11680  
     11549      11550      11561      11560      11670      11671      11682      11681  
     11551      11552      11563      11562      11672      11673      11684      11683  
     11552      11553      11564      11563      11673      11674      11685      11684  
     11553      11554      11565      11564      11674      11675      11686      11685  
     11554      11555      11566      11565      11675      11676      11687      11686  
     11555      11556      11567      11566      11676      11677      11688      11687  
     11556      11557      11568      11567      11677      11678      11689      11688  
     11557      11558      11569      11568      11678      11679      11690      11689  
     11558      11559      11570      11569      11679      11680      11691      11690  
     11559      11560      11571      11570      11680      11681      11692      11691  
     11560      11561      11572      11571      11681      11682      11693      11692  
     11562      11563      11574      11573      11683      11684      11695      11694  
     11563      11564      11575      11574      11684      11685      11696      11695  
     11564      11565      11576      11575      11685      11686      11697      11696  
     11565      11566      11577      11576      11686      11687      11698      11697  
     11566      11567      11578      11577      11687      11688      11699      11698  
     11567      11568      11579      11578      11688      11689      11700      11699  
     11568      11569      11580      11579      11689      11690      11701      11700  
     11569      11570      11581      11580      11690      11691      11702      11701  
     11570      11571      11582      11581      11691      11692      11703      11702  
     11571      11572      11583      11582      11692      11693      11704      11703  
     11573      11574      11585      11584      11694      11695      11706      11705  
     11574      11575      11586      11585      11695      11696      11707      11706  
     11575      11576      11587      11586      11696      11697      11708      11707  
     11576      11577      11588      11587      11697      11698      11709      11708  
     11577      11578      11589      11588      11698      11699      11710      11709  
     11578      11579      11590      11589      11699      11700      11711      11710  
     11579      11580      11591      11590      11700      11701      11712      11711  
     11580      11581      11592      11591      11701      11702      11713      11712  
     11581      11582      11593      11592      11702      11703      11714      11713  
     11582      11583      11594      11593      11703      11704      11715      11714  
     11584      11585      11596      11595      11705      11706      11717      11716  
     11585      11586      11597      11596      11706      11707      11718      11717  
     11586      11587      11598      11597      11707      11708      11719      11718  
     11587      11588      11599      11598      11708      11709      11720      11719  
     11588      11589      11600      11599      11709      11710      11721      11720  
     11589      11590      11601      11600      11710      11711      11722      11721  
     11590      11591      11602      11601      11711      11712      11723      11722  
     11591      11592      11603      11602      11712      11713      11724      11723  
     11592      11593      11604      11603      11713      11714      11725      11724  
     11593      11594      11605      11604      11714      11715      11726      11725  
     11595      11596      11607      11606      11716      11717      11728      11727  
     11596      11597      11608      11607      11717      11718      11729      11728  
     11597      11598      11609      11608      11718      11719      11730      11729  
     11598      11599      11610      11609      11719      11720      11731      11730  
     11599      11600      11611      11610      11720      11721      11732      11731  
     11600      11601      11612      11611      11721      11722      11733      11732  
     11601      11602      11613      11612      11722      11723      11734      11733  
     11602      11603      11614      11613      11723      11724      11735      11734  
     11603      11604      11615      11614      11724      11725      11736      11735  
     11604      11605      11616      11615      11725      11726      11737      11736  
     11617      11618      11629      11628      11738      11739      11750      11749  
     11618      11619      11630      11629      11739      11740      11751      11750  
     11619      11620      11631      11630      11740      11741      11752      11751  
     11620      11621      11632      11631      11741      11742      11753      11752  
     11621      11622      11633      11632      11742      11743      11754      11753  
     11622      11623      11634      11633      11743      11744      11755      11754  
     11623      11624      11635      11634      11744      11745      11756      11755  
     11624      11625      11636      11635      11745      11746      11757      11756  
     11625      11626      11637      11636      11746      11747      11758      11757  
     11626      11627      11638      11637      11747      11748      11759      11758  
     11628      11629      11640      11639      11749      11750      11761      11760  
     11629      11630      11641      11640      11750      11751      11762      11761  
     11630      11631      11642      11641      11751      11752      11763      11762  
     11631      11632      11643      11642      11752      11753      11764      11763  
     11632      11633      11644      11643      11753      11754      11765      11764  
     11633      11634      11645      11644      11754      11755      11766      11765  
     11634      11635      11646      11645      11755      11756      11767      11766  
     11635      11636      11647      11646      11756      11757      11768      11767  
     11636      11637      11648      11647      11757      11758      11769      11768  
     11637      11638      11649      11648      11758      11759      11770      11769  
     11639      11640      11651      11650      11760      11761      11772      11771  
     11640      11641      11652      11651      11761      11762      11773      11772  
     11641      11642      11653      11652      11762      11763      11774      11773  
     11642      11643      11654      11653      11763      11764      11775      11774  
     11643      11644      11655      11654      11764      11765      11776      11775  
     11644      11645      11656      11655      11765      11766      11777      11776  
     11645      11646      11657      11656      11766      11767      11778      11777  
     11646      11647      11658      11657      11767      11768      11779      11778  
     11647      11648      11659      11658      11768      11769      11780      11779  
     11648      11649      11660      11659      11769      11770      11781      11780  
     11650      11651      11662      11661      11771      11772      11783      11782  
     11651      11652      11663      11662      11772      11773      11784      11783  
     11652      11653      11664      11663      11773      11774      11785      11784  
     11653      11654      11665      11664      11774      11775      11786      11785  
     11654      11655      11666      11665      11775      11776      11787      11786  
     11655      11656      11667      11666      11776      11777      11788      11787  
     11656      11657      11668      11667      11777      11778      11789      11788  
     11657      11658      11669      11668      11778      11779      11790      11789  
     11658      11659      11670      11669      11779      11780      11791      11790  
     11659      11660      11671      11670      11780      11781      11792      11791  
     11661      11662      11673      11672      11782      11783      11794      11793  
     11662      11663      11674      11673      11783      11784      11795      11794  
     11663      11664      11675      11674      11784      11785      11796      11795  
     11664      11665      11676      11675      11785      11786      11797      11796  
     11665      11666      11677      11676      11786      11787      11798      11797  
     11666      11667      11678      11677      11787      11788      11799      11798  
     11667      11668      11679      11678      11788      11789      11800      11799  
     11668      11669      11680      11679      11789      11790      11801      11800  
     11669      11670      11681      11680      11790      11791      11802      11801  
     11670      11671      11682      11681      11791      11792      11803      11802  
     11672      11673      11684      11683      11793      11794      11805      11804  
     11673      11674      11685      11684      11794      11795      11806      11805  
     11674      11675      11686      11685      11795      11796      11807      11806  
     11675      11676      11687      11686      11796      11797      11808      11807  
     11676      11677      11688      11687      11797      11798      11809      11808  
     11677      11678      11689      11688      11798      11799      11810      11809  
     11678      11679      11690      11689      11799      11800      11811      11810  
     11679      11680      11691      11690      11800      11801      11812      11811  
     11680      11681      11692      11691      11801      11802      11813      11812  
     11681      11682      11693      11692      11802      11803      11814      11813  
     11683      11684      11695      11694      11804      11805      11816      11815  
     11684      11685      11696      11695      11805      11806      11817      11816  
     11685      11686      11697      11696      11806      11807      11818      11817  
     11686      11687      11698      11697      11807      11808      11819      11818  
     11687      11688      11699      11698      11808      11809      11820      11819  
     11688      11689      11700      11699      11809      11810      11821      11820  
     11689      11690      11701      11700      11810      11811      11822      11821  
     11690      11691      11702      11701      11811      11812      11823      11822  
     11691      11692      11703      11702      11812      11813      11824      11823  
     11692      11693      11704      11703      11813      11814      11825      11824  
     11694      11695      11706      11705      11815      11816      11827      11826  
     11695      11696      11707      11706      11816      11817      11828      11827  
     11696      11697      11708      11707      11817      11818      11829      11828  
     11697      11698      11709      11708      11818      11819      11830      11829  
     11698      11699      11710      11709      11819      11820      11831      11830  
     11699      11700      11711      11710      11820      11821      11832      11831  
     11700      11701      11712      11711      11821      11822      11833      11832  
     11701      11702      11713      11712      11822      11823      11834      11833  
     11702      11703      11714      11713      11823      11824      11835      11834  
     11703      11704      11715      11714      11824      11825      11836      11835  
     11705      11706      11717      11716      11826      11827      11838      11837  
     11706      11707      11718      11717      11827      11828      11839      11838  
     11707      11708      11719      11718      11828      11829      11840      11839  
     11708      11709      11720      11719      11829      11830      11841      11840  
     11709      11710      11721      11720      11830      11831      11842      11841  
     11710      11711      11722      11721      11831      11832      11843      11842  
     11711      11712      11723      11722      11832      11833      11844      11843  
     11712      11713      11724      11723      11833      11834      11845      11844  
     11713      11714      11725      11724      11834      11835      11846      11845  
     11714      11715      11726      11725      11835      11836      11847      11846  
     11716      11717      11728      11727      11837      11838      11849      11848  
     11717      11718      11729      11728      11838      11839      11850      11849  
     11718      11719      11730      11729      11839      11840      11851      11850  
     11719      11720      11731      11730      11840      11841      11852      11851  
     11720      11721      11732      11731      11841      11842      11853      11852  
     11721      11722      11733      11732      11842      11843      11854      11853  
     11722      11723      11734      11733      11843      11844      11855      11854  
     11723      11724      11735      11734      11844      11845      11856      11855  
     11724      11725      11736      11735      11845      11846      11857      11856  
     11725      11726      11737      11736      11846      11847      11858      11857  
     11738      11739      11750      11749      11859      11860      11871      11870  
     11739      11740      11751      11750      11860      11861      11872      11871  
     11740      11741      11752      11751      11861      11862      11873      11872  
     11741      11742      11753      11752      11862      11863      11874      11873  
     11742      11743      11754      11753      11863      11864      11875      11874  
     11743      11744      11755      11754      11864      11865      11876      11875  
     11744      11745      11756      11755      11865      11866      11877      11876  
     11745      11746      11757      11756      11866      11867      11878      11877  
     11746      11747      11758      11757      11867      11868      11879      11878  
     11747      11748      11759      11758      11868      11869      11880      11879  
     11749      11750      11761      11760      11870      11871      11882      11881  
     11750      11751      11762      11761      11871      11872      11883      11882  
     11751      11752      11763      11762      11872      11873      11884      11883  
     11752      11753      11764      11763      11873      11874      11885      11884  
     11753      11754      11765      11764      11874      11875      11886      11885  
     11754      11755      11766      11765      11875      11876      11887      11886  
     11755      11756      11767      11766      11876      11877      11888      11887  
     11756      11757      11768      11767      11877      11878      11889      11888  
     11757      11758      11769      11768      11878      11879      11890      11889  
     11758      11759      11770      11769      11879      11880      11891      11890  
     11760      11761      11772      11771      11881      11882      11893      11892  
     11761      11762      11773      11772      11882      11883      11894      11893  
     11762      11763      11774      11773      11883      11884      11895      11894  
     11763      11764      11775      11774      11884      11885      11896      11895  
     11764      11765      11776      11775      11885      11886      11897      11896  
     11765      11766      11777      11776      11886      11887      11898      11897  
     11766      11767      11778      11777      11887      11888      11899      11898  
     11767      11768      11779      11778      11888      11889      11900      11899  
     11768      11769      11780      11779      11889      11890      11901      11900  
     11769      11770      11781      11780      11890      11891      11902      11901  
     11771      11772      11783      11782      11892      11893      11904      11903  
     11772      11773      11784      11783      11893      11894      11905      11904  
     11773      11774      11785      11784      11894      11895      11906      11905  
     11774      11775      11786      11785      11895      11896      11907      11906  
     11775      11776      11787      11786      11896      11897      11908      11907  
     11776      11777      11788      11787      11897      11898      11909      11908  
     11777      11778      11789      11788      11898      11899      11910      11909  
     11778      11779      11790      11789      11899      11900      11911      11910  
     11779      11780      11791      11790      11900      11901      11912      11911  
     11780      11781      11792      11791      11901      11902      11913      11912  
     11782      11783      11794      11793      11903      11904      11915      11914  
     11783      11784      11795      11794      11904      11905      11916      11915  
     11784      11785      11796      11795      11905      11906      11917      11916  
     11785      11786      11797      11796      11906      11907      11918      11917  
     11786      11787      11798      11797      11907      11908      11919      11918  
     11787      11788      11799      11798      11908      11909      11920      11919  
     11788      11789      11800      11799      11909      11910      11921      11920  
     11789      11790      11801      11800      11910      11911      11922      11921  
     11790      11791      11802      11801      11911      11912      11923      11922  
     11791      11792      11803      11802      11912      11913      11924      11923  
     11793      11794      11805      11804      11914      11915      11926      11925  
     11794      11795      11806      11805      11915      11916      11927      11926  
     11795      11796      11807      11806      11916      11917      11928      11927  
     11796      11797      11808      11807      11917      11918      11929      11928  
     11797      11798      11809      11808      11918      11919      11930      11929  
     11798      11799      11810      11809      11919      11920      11931      11930  
     11799      11800      11811      11810      11920      11921      11932      11931  
     11800      11801      11812      11811      11921      11922      11933      11932  
     11801      11802      11813      11812      11922      11923      11934      11933  
     11802      11803      11814      11813      11923      11924      11935      11934  
     11804      11805      11816      11815      11925      11926      11937      11936  
     11805      11806      11817      11816      11926      11927      11938      11937  
     11806      11807      11818      11817      11927      11928      11939      11938  
     11807      11808      11819      11818      11928      11929      11940      11939  
     11808      11809      11820      11819      11929      11930      11941      11940  
     11809      11810      11821      11820      11930      11931      11942      11941  
     11810      11811      11822      11821      11931      11932      11943      11942  
     11811      11812      11823      11822      11932      11933      11944      11943  
     11812      11813      11824      11823      11933      11934      11945      11944  
     11813      11814      11825      11824      11934      11935      11946      11945  
     11815      11816      11827      11826      11936      11937      11948      11947  
     11816      11817      11828      11827      11937      11938      11949      11948  
     11817      11818      11829      11828      11938      11939      11950      11949  
     11818      11819      11830      11829      11939      11940      11951      11950  
     11819      11820      11831      11830      11940      11941      11952      11951  
     11820      11821      11832      11831      11941      11942      11953      11952  
     11821      11822      11833      11832      11942      11943      11954      11953  
     11822      11823      11834      11833      11943      11944      11955      11954  
     11823      11824      11835      11834      11944      11945      11956      11955  
     11824      11825      11836      11835      11945      11946      11957      11956  
     11826      11827      11838      11837      11947      11948      11959      11958  
     11827      11828      11839      11838      11948      11949      11960      11959  
     11828      11829      11840      11839      11949      11950      11961      11960  
     11829      11830      11841      11840      11950      11951      11962      11961  
     11830      11831      11842      11841      11951      11952      11963      11962  
     11831      11832      11843      11842      11952      11953      11964      11963  
     11832      11833      11844      11843      11953      11954      11965      11964  
     11833      11834      11845      11844      11954      11955      11966      11965  
     11834      11835      11846      11845      11955      11956      11967      11966  
     11835      11836      11847      11846      11956      11957      11968      11967  
     11837      11838      11849      11848      11958      11959      11970      11969  
     11838      11839      11850      11849      11959      11960      11971      11970  
     11839      11840      11851      11850      11960      11961      11972      11971  
     11840      11841      11852      11851      11961      11962      11973      11972  
     11841      11842      11853      11852      11962      11963      11974      11973  
     11842      11843      11854      11853      11963      11964      11975      11974  
     11843      11844      11855      11854      11964      11965      11976      11975  
     11844      11845      11856      11855      11965      11966      11977      11976  
     11845      11846      11857      11856      11966      11967      11978      11977  
     11846      11847      11858      11857      11967      11968      11979      11978  
     11859      11860      11871      11870      11980      11981      11992      11991  
     11860      11861      11872      11871      11981      11982      11993      11992  
     11861      11862      11873      11872      11982      11983      11994      11993  
     11862      11863      11874      11873      11983      11984      11995      11994  
     11863      11864      11875      11874      11984      11985      11996      11995  
     11864      11865      11876      11875      11985      11986      11997      11996  
     11865      11866      11877      11876      11986      11987      11998      11997  
     11866      11867      11878      11877      11987      11988      11999      11998  
     11867      11868      11879      11878      11988      11989      12000      11999  
     11868      11869      11880      11879      11989      11990      12001      12000  
     11870      11871      11882      11881      11991      11992      12003      12002  
     11871      11872      11883      11882      11992      11993      12004      12003  
     11872      11873      11884      11883      11993      11994      12005      12004  
     11873      11874      11885      11884      11994      11995      12006      12005  
     11874      11875      11886      11885      11995      11996      12007      12006  
     11875      11876      11887      11886      11996      11997      12008      12007  
     11876      11877      11888      11887      11997      11998      12009      12008  
     11877      11878      11889      11888      11998      11999      12010      12009  
     11878      11879      11890      11889      11999      12000      12011      12010  
     11879      11880      11891      11890      12000      12001      12012      12011  
     11881      11882      11893      11892      12002      12003      12014      12013  
     11882      11883      11894      11893      12003      12004      12015      12014  
     11883      11884      11895      11894      12004      12005      12016      12015  
     11884      11885      11896      11895      12005      12006      12017      12016  
     11885      11886      11897      11896      12006      12007      12018      12017  
     11886      11887      11898      11897      12007      12008      12019      12018  
     11887      11888      11899      11898      12008      12009      12020      12019  
     11888      11889      11900      11899      12009      12010      12021      12020  
     11889      11890      11901      11900      12010      12011      12022      12021  
     11890      11891      11902      11901      12011      12012      12023      12022  
     11892      11893      11904      11903      12013      12014      12025      12024  
     11893      11894      11905      11904      12014      12015      12026      12025  
     11894      11895      11906      11905      12015      12016      12027      12026  
     11895      11896      11907      11906      12016      12017      12028      12027  
     11896      11897      11908      11907      12017      12018      12029      12028  
     11897      11898      11909      11908      12018      12019      12030      12029  
     11898      11899      11910      11909      12019      12020      12031      12030  
     11899      11900      11911      11910      12020      12021      12032      12031  
     11900      11901      11912      11911      12021      12022      12033      12032  
     11901      11902      11913      11912      12022      12023      12034      12033  
     11903      11904      11915      11914      12024      12025      12036      12035  
     11904      11905      11916      11915      12025      12026      12037      12036  
     11905      11906      11917      11916      12026      12027      12038      12037  
     11906      11907      11918      11917      12027      12028      12039      12038  
     11907      11908      11919      11918      12028      12029      12040      12039  
     11908      11909      11920      11919      12029      12030      12041      12040  
     11909      11910      11921      11920      12030      12031      12042      12041  
     11910      11911      11922      11921      12031      12032      12043      12042  
     11911      11912      11923      11922      12032      12033      12044      12043  
     11912      11913      11924      11923      12033      12034      12045      12044  
     11914      11915      11926      11925      12035      12036      12047      12046  
     11915      11916      11927      11926      12036      12037      12048      12047  
     11916      11917      11928      11927      12037      12038      12049      12048  
     11917      11918      11929      11928      12038      12039      12050      12049  
     11918      11919      11930      11929      12039      12040      12051      12050  
     11919      11920      11931      11930      12040      12041      12052      12051  
     11920      11921      11932      11931      12041      12042      12053      12052  
     11921      11922      11933      11932      12042      12043      12054      12053  
     11922      11923      11934      11933      12043      12044      12055      12054  
     11923      11924      11935      11934      12044      12045      12056      12055  
     11925      11926      11937      11936      12046      12047      12058      12057  
     11926      11927      11938      11937      12047      12048      12059      12058  
     11927      11928      11939      11938      12048      12049      12060      12059  
     11928      11929      11940      11939      12049      12050      12061      12060  
     11929      11930      11941      11940      12050      12051      12062      12061  
     11930      11931      11942      11941      12051      12052      12063      12062  
     11931      11932      11943      11942      12052      12053      12064      12063  
     11932      11933      11944      11943      12053      12054      12065      12064  
     11933      11934      11945      11944      12054      12055      12066      12065  
     11934      11935      11946      11945      12055      12056      12067      12066  
     11936      11937      11948      11947      12057      12058      12069      12068  
     11937      11938      11949      11948      12058      12059      12070      12069  
     11938      11939      11950      11949      12059      12060      12071      12070  
     11939      11940      11951      11950      12060      12061      12072      12071  
     11940      11941      11952      11951      12061      12062      12073      12072  
     11941      11942      11953      11952      12062      12063      12074      12073  
     11942      11943      11954      11953      12063      12064      12075      12074  
     11943      11944      11955      11954      12064      12065      12076      12075  
     11944      11945      11956      11955      12065      12066      12077      12076  
     11945      11946      11957      11956      12066      12067      12078      12077  
     11947      11948      11959      11958      12068      12069      12080      12079  
     11948      11949      11960      11959      12069      12070      12081      12080  
     11949      11950      11961      11960      12070      12071      12082      12081  
     11950      11951      11962      11961      12071      12072      12083      12082  
     11951      11952      11963      11962      12072      12073      12084      12083  
     11952      11953      11964      11963      12073      12074      12085      12084  
     11953      11954      11965      11964      12074      12075      12086      12085  
     11954      11955      11966      11965      12075      12076      12087      12086  
     11955      11956      11967      11966      12076      12077      12088      12087  
     11956      11957      11968      11967      12077      12078      12089      12088  
     11958      11959      11970      11969      12079      12080      12091      12090  
     11959      11960      11971      11970      12080      12081      12092      12091  
     11960      11961      11972      11971      12081      12082      12093      12092  
     11961      11962      11973      11972      12082      12083      12094      12093  
     11962      11963      11974      11973      12083      12084      12095      12094  
     11963      11964      11975      11974      12084      12085      12096      12095  
     11964      11965      11976      11975      12085      12086      12097      12096  
     11965      11966      11977      11976      12086      12087      12098      12097  
     11966      11967      11978      11977      12087      12088      12099      12098  
     11967      11968      11979      11978      12088      12089      12100      12099  
     11980      11981      11992      11991      12101      12102      12113      12112  
     11981      11982      11993      11992      12102      12103      12114      12113  
     11982      11983      11994      11993      12103      12104      12115      12114  
     11983      11984      11995      11994      12104      12105      12116      12115  
     11984      11985      11996      11995      12105      12106      12117      12116  
     11985      11986      11997      11996      12106      12107      12118      12117  
     11986      11987      11998      11997      12107      12108      12119      12118  
     11987      11988      11999      11998      12108      12109      12120      12119  
     11988      11989      12000      11999      12109      12110      12121      12120  
     11989      11990      12001      12000      12110      12111      12122      12121  
     11991      11992      12003      12002      12112      12113      12124      12123  
     11992      11993      12004      12003      12113      12114      12125      12124  
     11993      11994      12005      12004      12114      12115      12126      12125  
     11994      11995      12006      12005      12115      12116      12127      12126  
     11995      11996      12007      12006      12116      12117      12128      12127  
     11996      11997      12008      12007      12117      12118      12129      12128  
     11997      11998      12009      12008      12118      12119      12130      12129  
     11998      11999      12010      12009      12119      12120      12131      12130  
     11999      12000      12011      12010      12120      12121      12132      12131  
     12000      12001      12012      12011      12121      12122      12133      12132  
     12002      12003      12014      12013      12123      12124      12135      12134  
     12003      12004      12015      12014      12124      12125      12136      12135  
     12004      12005      12016      12015      12125      12126      12137      12136  
     12005      12006      12017      12016      12126      12127      12138      12137  
     12006      12007      12018      12017      12127      12128      12139      12138  
     12007      12008      12019      12018      12128      12129      12140      12139  
     12008      12009      12020      12019      12129      12130      12141      12140  
     12009      12010      12021      12020      12130      12131      12142      12141  
     12010      12011      12022      12021      12131      12132      12143      12142  
     12011      12012      12023      12022      12132      12133      12144      12143  
     12013      12014      12025      12024      12134      12135      12146      12145  
     12014      12015      12026      12025      12135      12136      12147      12146  
     12015      12016      12027      12026      12136      12137      12148      12147  
     12016      12017      12028      12027      12137      12138      12149      12148  
     12017      12018      12029      12028      12138      12139      12150      12149  
     12018      12019      12030      12029      12139      12140      12151      12150  
     12019      12020      12031      12030      12140      12141      12152      12151  
     12020      12021      12032      12031      12141      12142      12153      12152  
     12021      12022      12033      12032      12142      12143      12154      12153  
     12022      12023      12034      12033      12143      12144      12155      12154  
     12024      12025      12036      12035      12145      12146      12157      12156  
     12025      12026      12037      12036      12146      12147      12158      12157  
     12026      12027      12038      12037      12147      12148      12159      12158  
     12027      12028      12039      12038      12148      12149      12160      12159  
     12028      12029      12040      12039      12149      12150      12161      12160  
     12029      12030      12041      12040      12150      12151      12162      12161  
     12030      12031      12042      12041      12151      12152      12163      12162  
     12031      12032      12043      12042      12152      12153      12164      12163  
     12032      12033      12044      12043      12153      12154      12165      12164  
     12033      12034      12045      12044      12154      12155      12166      12165  
     12035      12036      12047      12046      12156      12157      12168      12167  
     12036      12037      12048      12047      12157      12158      12169      12168  
     12037      12038      12049      12048      12158      12159      12170      12169  
     12038      12039      12050      12049      12159      12160      12171      12170  
     12039      12040      12051      12050      12160      12161      12172      12171  
     12040      12041      12052      12051      12161      12162      12173      12172  
     12041      12042      12053      12052      12162      12163      12174      12173  
     12042      12043      12054      12053      12163      12164      12175      12174  
     12043      12044      12055      12054      12164      12165      12176      12175  
     12044      12045      12056      12055      12165      12166      12177      12176  
     12046      12047      12058      12057      12167      12168      12179      12178  
     12047      12048      12059      12058      12168      12169      12180      12179  
     12048      12049      12060      12059      12169      12170      12181      12180  
     12049      12050      12061      12060      12170      12171      12182      12181  
     12050      12051      12062      12061      12171      12172      12183      12182  
     12051      12052      12063      12062      12172      12173      12184      12183  
     12052      12053      12064      12063      12173      12174      12185      12184  
     12053      12054      12065      12064      12174      12175      12186      12185  
     12054      12055      12066      12065      12175      12176      12187      12186  
     12055      12056      12067      12066      12176      12177      12188      12187  
     12057      12058      12069      12068      12178      12179      12190      12189  
     12058      12059      12070      12069      12179      12180      12191      12190  
     12059      12060      12071      12070      12180      12181      12192      12191  
     12060      12061      12072      12071      12181      12182      12193      12192  
     12061      12062      12073      12072      12182      12183      12194      12193  
     12062      12063      12074      12073      12183      12184      12195      12194  
     12063      12064      12075      12074      12184      12185      12196      12195  
     12064      12065      12076      12075      12185      12186      12197      12196  
     12065      12066      12077      12076      12186      12187      12198      12197  
     12066      12067      12078      12077      12187      12188      12199      12198  
     12068      12069      12080      12079      12189      12190      12201      12200  
     12069      12070      12081      12080      12190      12191      12202      12201  
     12070      12071      12082      12081      12191      12192      12203      12202  
     12071      12072      12083      12082      12192      12193      12204      12203  
     12072      12073      12084      12083      12193      12194      12205      12204  
     12073      12074      12085      12084      12194      12195      12206      12205  
     12074      12075      12086      12085      12195      12196      12207      12206  
     12075      12076      12087      12086      12196      12197      12208      12207  
     12076      12077      12088      12087      12197      12198      12209      12208  
     12077      12078      12089      12088      12198      12199      12210      12209  
     12079      12080      12091      12090      12200      12201      12212      12211  
     12080      12081      12092      12091      12201      12202      12213      12212  
     12081      12082      12093      12092      12202      12203      12214      12213  
     12082      12083      12094      12093      12203      12204      12215      12214  
     12083      12084      12095      12094      12204      12205      12216      12215  
     12084      12085      12096      12095      12205      12206      12217      12216  
     12085      12086      12097      12096      12206      12207      12218      12217  
     12086      12087      12098      12097      12207      12208      12219      12218  
     12087      12088      12099      12098      12208      12209      12220      12219  
     12088      12089      12100      12099      12209      12210      12221      12220  
