TITLE="results for TO code"
VARIABLES = "x", "y", "z", "density", "sigmaxx", "sigmayy", "sigmazz", "sigmaxy", "sigmaxz", "sigmayz"
ZONE T="load step 1", NODES= 12221, ELEMENTS= 10000, DATAPACKING=POINT, ZONETYPE=FEBRICK
               0.00000000                0.00000000                0.00000000                1.00000000               -0.00000000               -0.00000000                1.83466287               -0.00000000                0.53498297                1.10012658
               1.00000000                0.00000000                0.00000000                1.00000000                0.00000000                0.00000000                1.26007299                0.00000000                0.02993163                0.74792476
               2.00000000                0.00000000                0.00000000                1.00000000                0.00000000               -0.00000000                0.66883091               -0.00000000               -0.16152955                0.37975804
               3.00000000                0.00000000                0.00000000                1.00000000               -0.00000000                0.00000000                0.14498106                0.00000000               -0.14557520                0.08645893
               4.00000000                0.00000000                0.00000000                1.00000000               -0.00000000                0.00000000               -0.01396037               -0.00000000               -0.03214046               -0.00751039
               5.00000000                0.00000000                0.00000000                1.00000000                0.00000000                0.00000000               -0.00586425               -0.00000000                0.00172450               -0.00513335
               6.00000000                0.00000000                0.00000000                1.00000000                0.00000000                0.00000000               -0.01410383                0.00000000               -0.00439038               -0.00156524
               7.00000000                0.00000000                0.00000000                1.00000000                0.00000000               -0.00000000               -0.08663845               -0.00000000               -0.05324286               -0.09107163
               8.00000000                0.00000000                0.00000000                1.00000000               -0.00000000                0.00000000               -0.76294543               -0.00000000               -0.05053907               -0.47063154
               9.00000000                0.00000000                0.00000000                1.00000000               -0.00000000                0.00000000               -1.56395366               -0.00000000                0.24233892               -0.86818222
              10.00000000                0.00000000                0.00000000                1.00000000                0.00000000               -0.00000000               -2.25076050                0.00000000                0.86672014               -1.20737659
               0.00000000                1.00000000                0.00000000                1.00000000               -0.00000000                0.00000000                1.48678209               -0.00000000                0.73923507                0.58801368
               1.00000000                1.00000000                0.00000000                1.00000000               -0.00000000               -0.00000000                0.93256644                0.00000000                0.26601820                0.36812284
               2.00000000                1.00000000                0.00000000                1.00000000               -0.00000000               -0.00000000                0.40493776               -0.00000000                0.05480183                0.12097098
               3.00000000                1.00000000                0.00000000                1.00000000                0.00000000                0.00000000                0.04605876                0.00000000                0.00937338               -0.00665422
               4.00000000                1.00000000                0.00000000                1.00000000                0.00000000               -0.00000000               -0.00113295                0.00000000                0.00452834               -0.01455008
               5.00000000                1.00000000                0.00000000                1.00000000                0.00000000               -0.00000000               -0.00089874               -0.00000000                0.00709386               -0.00373384
               6.00000000                1.00000000                0.00000000                1.00000000               -0.00000000               -0.00000000               -0.00743468               -0.00000000                0.02324421                0.00378032
               7.00000000                1.00000000                0.00000000                1.00000000                0.00000000                0.00000000               -0.00851064                0.00000000                0.06667117               -0.01847856
               8.00000000                1.00000000                0.00000000                1.00000000               -0.00000000                0.00000000               -0.37698815                0.00000000                0.15340639               -0.15721991
               9.00000000                1.00000000                0.00000000                1.00000000                0.00000000               -0.00000000               -1.08495083               -0.00000000                0.45815729               -0.38963884
              10.00000000                1.00000000                0.00000000                1.00000000               -0.00000000               -0.00000000               -1.86327015                0.00000000                1.04573035               -0.56913518
               0.00000000                2.00000000                0.00000000                1.00000000               -0.00000000                0.00000000                1.44200052                0.00000000                0.81513210                0.31044627
               1.00000000                2.00000000                0.00000000                1.00000000                0.00000000               -0.00000000                0.78913142               -0.00000000                0.32700294                0.17007061
               2.00000000                2.00000000                0.00000000                1.00000000               -0.00000000                0.00000000                0.17997413                0.00000000                0.11416616                0.01259254
               3.00000000                2.00000000                0.00000000                1.00000000               -0.00000000               -0.00000000               -0.01656030               -0.00000000                0.04936155               -0.01081622
               4.00000000                2.00000000                0.00000000                1.00000000                0.00000000               -0.00000000                0.00355767                0.00000000                0.01973697               -0.00890312
               5.00000000                2.00000000                0.00000000                1.00000000               -0.00000000               -0.00000000               -0.00055118                0.00000000                0.01272482               -0.00384443
               6.00000000                2.00000000                0.00000000                1.00000000                0.00000000                0.00000000               -0.00146326               -0.00000000                0.02530333               -0.00302652
               7.00000000                2.00000000                0.00000000                1.00000000                0.00000000               -0.00000000               -0.00004357               -0.00000000                0.06407964               -0.01920000
               8.00000000                2.00000000                0.00000000                1.00000000                0.00000000               -0.00000000               -0.06685960                0.00000000                0.15574990               -0.02685784
               9.00000000                2.00000000                0.00000000                1.00000000               -0.00000000               -0.00000000               -0.69578446                0.00000000                0.43283455               -0.13476649
              10.00000000                2.00000000                0.00000000                1.00000000                0.00000000               -0.00000000               -1.76179910                0.00000000                1.03994301               -0.20789998
               0.00000000                3.00000000                0.00000000                1.00000000                0.00000000                0.00000000                1.38462140                0.00000000                0.80996066                0.13493908
               1.00000000                3.00000000                0.00000000                1.00000000               -0.00000000               -0.00000000                0.65481571               -0.00000000                0.33483602                0.05488801
               2.00000000                3.00000000                0.00000000                1.00000000               -0.00000000               -0.00000000                0.03973631               -0.00000000                0.15726961               -0.03596653
               3.00000000                3.00000000                0.00000000                1.00000000                0.00000000               -0.00000000                0.00329237                0.00000000                0.06257560               -0.00957991
               4.00000000                3.00000000                0.00000000                1.00000000               -0.00000000                0.00000000                0.00118081               -0.00000000                0.02538918               -0.00449390
               5.00000000                3.00000000                0.00000000                1.00000000               -0.00000000               -0.00000000               -0.00000305                0.00000000                0.01509858               -0.00309592
               6.00000000                3.00000000                0.00000000                1.00000000               -0.00000000                0.00000000               -0.00064324                0.00000000                0.02205582               -0.00531428
               7.00000000                3.00000000                0.00000000                1.00000000               -0.00000000               -0.00000000               -0.00894658               -0.00000000                0.04908072               -0.01156217
               8.00000000                3.00000000                0.00000000                1.00000000                0.00000000                0.00000000                0.03153387                0.00000000                0.11955003               -0.02288954
               9.00000000                3.00000000                0.00000000                1.00000000               -0.00000000                0.00000000               -0.41150629               -0.00000000                0.32649818               -0.04302622
              10.00000000                3.00000000                0.00000000                1.00000000                0.00000000                0.00000000               -1.57197510                0.00000000                0.88581927               -0.00651250
               0.00000000                4.00000000                0.00000000                1.00000000               -0.00000000               -0.00000000                1.31884917               -0.00000000                0.77673874                0.01643181
               1.00000000                4.00000000                0.00000000                1.00000000                0.00000000               -0.00000000                0.51072339                0.00000000                0.32568002               -0.02295107
               2.00000000                4.00000000                0.00000000                1.00000000               -0.00000000                0.00000000               -0.07260810                0.00000000                0.17836726               -0.05004259
               3.00000000                4.00000000                0.00000000                1.00000000                0.00000000               -0.00000000                0.01272472               -0.00000000                0.06981747               -0.00554955
               4.00000000                4.00000000                0.00000000                1.00000000                0.00000000               -0.00000000                0.00091745               -0.00000000                0.02677332               -0.00206028
               5.00000000                4.00000000                0.00000000                1.00000000               -0.00000000                0.00000000                0.00024104               -0.00000000                0.01478974               -0.00212527
               6.00000000                4.00000000                0.00000000                1.00000000               -0.00000000               -0.00000000               -0.00093417                0.00000000                0.01815620               -0.00414589
               7.00000000                4.00000000                0.00000000                1.00000000                0.00000000                0.00000000               -0.00415458                0.00000000                0.04008921               -0.00914947
               8.00000000                4.00000000                0.00000000                1.00000000                0.00000000               -0.00000000                0.01383883               -0.00000000                0.09793773               -0.01626199
               9.00000000                4.00000000                0.00000000                1.00000000               -0.00000000               -0.00000000               -0.30547166                0.00000000                0.27359737                0.01023504
              10.00000000                4.00000000                0.00000000                1.00000000               -0.00000000                0.00000000               -1.38554960               -0.00000000                0.75302673                0.08371380
               0.00000000                5.00000000                0.00000000                1.00000000               -0.00000000                0.00000000                1.24028157               -0.00000000                0.72247675               -0.06900532
               1.00000000                5.00000000                0.00000000                1.00000000                0.00000000                0.00000000                0.34270042                0.00000000                0.29380483               -0.06618385
               2.00000000                5.00000000                0.00000000                1.00000000                0.00000000               -0.00000000               -0.11731423               -0.00000000                0.16603752               -0.03869561
               3.00000000                5.00000000                0.00000000                1.00000000               -0.00000000               -0.00000000                0.01587739                0.00000000                0.06684471               -0.00195781
               4.00000000                5.00000000                0.00000000                1.00000000               -0.00000000                0.00000000                0.00063451                0.00000000                0.02589090               -0.00024992
               5.00000000                5.00000000                0.00000000                1.00000000                0.00000000                0.00000000                0.00035365                0.00000000                0.01354572               -0.00121745
               6.00000000                5.00000000                0.00000000                1.00000000                0.00000000               -0.00000000               -0.00054887               -0.00000000                0.01500036               -0.00325779
               7.00000000                5.00000000                0.00000000                1.00000000               -0.00000000                0.00000000               -0.00352178               -0.00000000                0.03130500               -0.00777960
               8.00000000                5.00000000                0.00000000                1.00000000               -0.00000000                0.00000000                0.00943320                0.00000000                0.07751903               -0.01366766
               9.00000000                5.00000000                0.00000000                1.00000000                0.00000000               -0.00000000               -0.20804174               -0.00000000                0.22232311                0.04554567
              10.00000000                5.00000000                0.00000000                1.00000000               -0.00000000                0.00000000               -1.19803305                0.00000000                0.64553696                0.15022972
               0.00000000                6.00000000                0.00000000                1.00000000                0.00000000                0.00000000                1.13109267                0.00000000                0.64596041               -0.12476508
               1.00000000                6.00000000                0.00000000                1.00000000               -0.00000000               -0.00000000                0.20360406                0.00000000                0.25614116               -0.08360805
               2.00000000                6.00000000                0.00000000                1.00000000               -0.00000000               -0.00000000               -0.11063837               -0.00000000                0.14488539               -0.02851279
               3.00000000                6.00000000                0.00000000                1.00000000               -0.00000000                0.00000000                0.01375466                0.00000000                0.06092464               -0.00065059
               4.00000000                6.00000000                0.00000000                1.00000000                0.00000000                0.00000000                0.00077263                0.00000000                0.02401287                0.00063877
               5.00000000                6.00000000                0.00000000                1.00000000                0.00000000               -0.00000000                0.00039147                0.00000000                0.01209636               -0.00056555
               6.00000000                6.00000000                0.00000000                1.00000000               -0.00000000                0.00000000               -0.00041285               -0.00000000                0.01209007               -0.00244437
               7.00000000                6.00000000                0.00000000                1.00000000                0.00000000               -0.00000000               -0.00219759               -0.00000000                0.02319553               -0.00587713
               8.00000000                6.00000000                0.00000000                1.00000000               -0.00000000                0.00000000                0.00400494                0.00000000                0.05251219               -0.00944103
               9.00000000                6.00000000                0.00000000                1.00000000                0.00000000               -0.00000000               -0.11546035                0.00000000                0.14383741                0.05704085
              10.00000000                6.00000000                0.00000000                1.00000000               -0.00000000                0.00000000               -0.88301930               -0.00000000                0.51714623                0.20468758
               0.00000000                7.00000000                0.00000000                1.00000000               -0.00000000               -0.00000000                0.99855513               -0.00000000                0.56567172               -0.15692631
               1.00000000                7.00000000                0.00000000                1.00000000                0.00000000               -0.00000000                0.10477638                0.00000000                0.23067939               -0.08853484
               2.00000000                7.00000000                0.00000000                1.00000000               -0.00000000                0.00000000               -0.11629629                0.00000000                0.13988381               -0.02145171
               3.00000000                7.00000000                0.00000000                1.00000000                0.00000000               -0.00000000                0.01309225               -0.00000000                0.05865465                0.00079122
               4.00000000                7.00000000                0.00000000                1.00000000               -0.00000000                0.00000000                0.00068647               -0.00000000                0.02231295                0.00163593
               5.00000000                7.00000000                0.00000000                1.00000000               -0.00000000                0.00000000                0.00040153               -0.00000000                0.01048082               -0.00000511
               6.00000000                7.00000000                0.00000000                1.00000000               -0.00000000                0.00000000               -0.00028690                0.00000000                0.00963538               -0.00190596
               7.00000000                7.00000000                0.00000000                1.00000000                0.00000000                0.00000000               -0.00123704               -0.00000000                0.01771362               -0.00351391
               8.00000000                7.00000000                0.00000000                1.00000000                0.00000000               -0.00000000               -0.00033585                0.00000000                0.03655060                0.00081320
               9.00000000                7.00000000                0.00000000                1.00000000               -0.00000000                0.00000000               -0.04413736               -0.00000000                0.08521057                0.06149768
              10.00000000                7.00000000                0.00000000                1.00000000                0.00000000                0.00000000               -0.52658738                0.00000000                0.35324960                0.17769680
               0.00000000                8.00000000                0.00000000                1.00000000                0.00000000                0.00000000                0.85948118               -0.00000000                0.49486455               -0.18941193
               1.00000000                8.00000000                0.00000000                1.00000000                0.00000000               -0.00000000                0.02653018                0.00000000                0.21539977               -0.07879752
               2.00000000                8.00000000                0.00000000                1.00000000               -0.00000000                0.00000000               -0.15166810                0.00000000                0.15043421               -0.00039627
               3.00000000                8.00000000                0.00000000                1.00000000                0.00000000               -0.00000000                0.01100329               -0.00000000                0.06120017                0.01047809
               4.00000000                8.00000000                0.00000000                1.00000000               -0.00000000               -0.00000000                0.00006635                0.00000000                0.02026673                0.00473442
               5.00000000                8.00000000                0.00000000                1.00000000               -0.00000000                0.00000000                0.00052688               -0.00000000                0.00870972                0.00025823
               6.00000000                8.00000000                0.00000000                1.00000000                0.00000000                0.00000000               -0.00015663                0.00000000                0.00769385               -0.00195733
               7.00000000                8.00000000                0.00000000                1.00000000               -0.00000000                0.00000000               -0.00091603                0.00000000                0.01449751               -0.00345973
               8.00000000                8.00000000                0.00000000                1.00000000               -0.00000000                0.00000000               -0.00146160               -0.00000000                0.03747474                0.00702088
               9.00000000                8.00000000                0.00000000                1.00000000               -0.00000000               -0.00000000               -0.00721088                0.00000000                0.08109268                0.08177605
              10.00000000                8.00000000                0.00000000                1.00000000               -0.00000000                0.00000000               -0.40126036               -0.00000000                0.27040451                0.14588834
               0.00000000                9.00000000                0.00000000                1.00000000               -0.00000000               -0.00000000                0.69300896                0.00000000                0.39215215               -0.26705635
               1.00000000                9.00000000                0.00000000                1.00000000                0.00000000                0.00000000               -0.03637041               -0.00000000                0.19211251               -0.04279143
               2.00000000                9.00000000                0.00000000                1.00000000                0.00000000               -0.00000000               -0.28470254                0.00000000                0.17087767                0.08440369
               3.00000000                9.00000000                0.00000000                1.00000000               -0.00000000                0.00000000               -0.02462163                0.00000000                0.06934239                0.05040888
               4.00000000                9.00000000                0.00000000                1.00000000                0.00000000                0.00000000                0.00351970                0.00000000                0.01894927                0.00971283
               5.00000000                9.00000000                0.00000000                1.00000000               -0.00000000               -0.00000000                0.00029274               -0.00000000                0.00961876               -0.00083891
               6.00000000                9.00000000                0.00000000                1.00000000                0.00000000               -0.00000000               -0.00005331               -0.00000000                0.00684646               -0.00183870
               7.00000000                9.00000000                0.00000000                1.00000000                0.00000000                0.00000000               -0.00037762                0.00000000                0.01003561               -0.00560903
               8.00000000                9.00000000                0.00000000                1.00000000               -0.00000000               -0.00000000               -0.00407612                0.00000000                0.03553046               -0.00771119
               9.00000000                9.00000000                0.00000000                1.00000000               -0.00000000               -0.00000000                0.08073041               -0.00000000                0.11880631                0.08910951
              10.00000000                9.00000000                0.00000000                1.00000000                0.00000000                0.00000000               -0.45568252                0.00000000                0.26536500                0.20308485
               0.00000000               10.00000000                0.00000000                1.00000000                0.00000000                0.00000000                0.65210116               -0.00000000                0.10536694               -0.44844809
               1.00000000               10.00000000                0.00000000                1.00000000               -0.00000000               -0.00000000               -0.07736952                0.00000000               -0.01478325                0.01386469
               2.00000000               10.00000000                0.00000000                1.00000000                0.00000000                0.00000000               -0.50667440               -0.00000000                0.10125418                0.33725581
               3.00000000               10.00000000                0.00000000                1.00000000                0.00000000                0.00000000               -0.13840703                0.00000000                0.12885923                0.16006068
               4.00000000               10.00000000                0.00000000                1.00000000               -0.00000000               -0.00000000               -0.00008270                0.00000000                0.05200117                0.02104419
               5.00000000               10.00000000                0.00000000                1.00000000                0.00000000                0.00000000               -0.00093750               -0.00000000                0.01774698                0.00256152
               6.00000000               10.00000000                0.00000000                1.00000000               -0.00000000                0.00000000                0.00082635                0.00000000                0.00938472               -0.00168110
               7.00000000               10.00000000                0.00000000                1.00000000                0.00000000               -0.00000000                0.00261412               -0.00000000                0.01161195               -0.00794527
               8.00000000               10.00000000                0.00000000                1.00000000               -0.00000000                0.00000000                0.01337178               -0.00000000                0.01526116               -0.02890175
               9.00000000               10.00000000                0.00000000                1.00000000                0.00000000                0.00000000                0.10536232                0.00000000                0.01131318                0.01894693
              10.00000000               10.00000000                0.00000000                1.00000000                0.00000000               -0.00000000               -0.57378455                0.00000000                0.07748029                0.38656722
               0.00534983                0.01100127                1.01834663                1.00000000               -0.50505134               -0.51211290                1.78122052               -0.14794972               -0.05334454                0.50188672
               1.00029932                0.00747925                1.01260073                1.00000000               -0.34825626               -0.37980192                1.26454601               -0.12409770               -0.27683849                0.24957499
               1.99838470                0.00379758                1.00668831                0.89588481               -0.08775341               -0.25878706                0.72591416               -0.11440153               -0.39778622                0.02781469
               2.99854425                0.00086459                1.00144981                0.44406250                0.06469454               -0.09311315                0.23407406               -0.03868563               -0.24931087               -0.09234178
               3.99967860               -0.00007510                0.99986040                0.35137193                0.07364985               -0.00703969               -0.04189955               -0.00912734                0.17510118               -0.08920927
               5.00001724               -0.00005133                0.99994136                0.35382525                0.01387504                0.00139951               -0.12902543                0.00834193                0.38939028               -0.07739410
               5.99995610               -0.00001565                0.99985896                0.41154891               -0.02748368                0.00534556               -0.25637121               -0.01533455                0.32623402               -0.06896756
               6.99946757               -0.00091072                0.99913362                0.59360513               -0.02307434                0.07259307               -0.54140224               -0.11461911               -0.06724968               -0.12147967
               7.99949461               -0.00470632                0.99237055                1.00000000                0.14779089                0.31341162               -0.94759347               -0.18460984               -0.35163266               -0.04407217
               9.00242339               -0.00868182                0.98436046                1.00000000                0.45862960                0.47854338               -1.53348234               -0.15255416               -0.15996082               -0.19359083
              10.00866720               -0.01207377                0.97749240                1.00000000                0.62438122                0.63824141               -2.15412325               -0.16018415                0.14991681               -0.51822087
               0.00739235                1.00588014                1.01486782                1.00000000               -0.47321687               -0.39484015                1.57805678               -0.07981628                0.18922566                0.40861103
               1.00266018                1.00368123                1.00932566                1.00000000               -0.34221662               -0.28892708                1.05381629               -0.08498569               -0.00792172                0.16374795
               2.00054802                1.00120971                1.00404938                0.39389409               -0.12832241               -0.18358275                0.56785814               -0.04954067               -0.04441321               -0.06767479
               3.00009373                0.99993346                1.00046059                0.00010000               -0.02513675               -0.04863757                0.18871331                0.02970784                0.14951444               -0.13501905
               4.00004528                0.99985450                0.99998867                0.00010000               -0.00113976               -0.00069637                0.01160707                0.02739890                0.31440284               -0.13809200
               5.00007094                0.99996266                0.99999101                0.00010000                0.00935793                0.00064446               -0.05393510                0.01466536                0.36824010               -0.05575494
               6.00023244                1.00003780                0.99992565                0.00010000                0.02978866               -0.00073064               -0.16878962                0.00747450                0.43177958                0.03897669
               7.00066671                0.99981521                0.99991489                0.00010000                0.06508109                0.03593582               -0.39692279               -0.02183886                0.33309460                0.00738735
               8.00153406                0.99842780                0.99623012                0.84832643                0.19574306                0.22188685               -0.77001601               -0.08243565                0.05908746                0.09125391
               9.00458157                0.99610361                0.98915049                1.00000000                0.44616198                0.36670787               -1.33384741               -0.11070982                0.04553356               -0.02595331
              10.01045730                0.99430865                0.98136730                1.00000000                0.58757307                0.49973830               -1.89280951               -0.09288491                0.26136943               -0.37661776
               0.00815132                2.00310446                1.01442001                1.00000000               -0.48812917               -0.22653730                1.48278260               -0.10501287                0.21553314                0.34474866
               1.00327003                2.00170071                1.00789131                1.00000000               -0.35048297               -0.15661742                0.88775917               -0.11451796                0.03319276                0.11138493
               2.00114166                2.00012593                1.00179974                0.02575559               -0.13882069               -0.07846876                0.30063041               -0.03920952                0.14809214               -0.10160498
               3.00049362                1.99989184                0.99983440                0.00010000               -0.04721460               -0.00146285                0.02658151                0.01585328                0.55484837               -0.17795918
               4.00019737                1.99991097                1.00003558                0.00010000               -0.01831837                0.00502809               -0.01437265                0.01391631                0.64455924               -0.11093713
               5.00012725                1.99996156                0.99999449                0.00010000                0.00278318                0.00031896               -0.07607015                0.00694066                0.62255391               -0.07411112
               6.00025303                1.99996973                0.99998537                0.00010000                0.02567741               -0.00454730               -0.14309788               -0.00827198                0.68656784               -0.02826358
               7.00064080                1.99980800                0.99999956                0.00010000                0.06522328                0.00345819               -0.37532747               -0.02071089                0.80039082                0.02382973
               8.00155750                1.99973142                0.99933140                0.12233270                0.18437746                0.06716519               -0.62730359               -0.07471142                0.43481830                0.10780291
               9.00432835                1.99865234                0.99304216                1.00000000                0.44209655                0.17330631               -1.08249933               -0.15635062                0.07020295                0.05765794
              10.01039943                1.99792100                0.98238201                1.00000000                0.60710845                0.28131134               -1.70339558               -0.15308904                0.08169586               -0.21905844
               0.00809961                3.00134939                1.01384621                1.00000000               -0.47512464               -0.14700723                1.41204552               -0.09924776                0.20561197                0.18771366
               1.00334836                3.00054888                1.00654816                1.00000000               -0.32634552               -0.09651084                0.74128178               -0.08611426                0.06382225                0.00879355
               2.00157270                2.99964033                1.00039736                0.00010000               -0.13613021               -0.03131756                0.06224253               -0.00013341                0.33071863               -0.10855591
               3.00062576                2.99990420                1.00003292                0.00010000               -0.06594022                0.00263334               -0.27475316                0.02596428                0.79723636               -0.19214403
               4.00025389                2.99995506                1.00001181                0.00010000               -0.02373851                0.00342142               -0.03931716                0.00676017                0.81973648               -0.07339967
               5.00015099                2.99996904                0.99999997                0.00010000               -0.00166668                0.00085958               -0.08261195                0.00062227                0.82224450               -0.06474312
               6.00022056                2.99994686                0.99999357                0.00010000                0.01699107               -0.00055968               -0.13862263               -0.00780670                0.83655610               -0.03771731
               7.00049081                2.99988438                0.99991053                0.00010000                0.04874711                0.00502527               -0.15229053               -0.02078285                0.89181618                0.00478577
               8.00119550                2.99977110                1.00031534                0.00010000                0.13870873                0.00529793               -0.61672717               -0.04463811                0.85321183                0.04565104
               9.00326498                2.99956974                0.99588494                1.00000000                0.38313462                0.07250077               -0.72343540               -0.07143007                0.11951016                0.02452245
              10.00885819                2.99993488                0.98428025                1.00000000                0.55932109                0.14580689               -1.54698026               -0.10694442               -0.01934127                0.01097642
               0.00776739                4.00016432                1.01318849                1.00000000               -0.45105872               -0.10197220                1.33173405               -0.08312483                0.16504307                0.07444516
               1.00325680                3.99977049                1.00510723                0.91805379               -0.29918574               -0.06053593                0.60888838               -0.05375279                0.09163069               -0.08022398
               2.00178367                3.99949957                0.99927392                0.00010000               -0.12793127               -0.00136454               -0.13007396                0.01308472                0.49761681               -0.10346750
               3.00069817                3.99994450                1.00012725                0.00010000               -0.07579697                0.00381105               -0.08116304                0.02612570                0.90724079               -0.07767718
               4.00026773                3.99997940                1.00000917                0.00010000               -0.02751387                0.00212199               -0.09138051                0.00196300                0.93523341               -0.06993098
               5.00014790                3.99997875                1.00000241                0.00010000               -0.00430856                0.00093923               -0.08629415               -0.00181923                0.97506019               -0.04566139
               6.00018156                3.99995854                0.99999066                0.00010000                0.01264973                0.00102825               -0.09586547               -0.00703982                0.98561383               -0.01968400
               7.00040089                3.99990851                0.99995845                0.00010000                0.03989077                0.00189129               -0.10031939               -0.01494591                1.01104952                0.00860030
               8.00097938                3.99983738                1.00013839                0.00010000                0.11675408                0.00461094               -0.03773290               -0.01132324                0.81455186                0.09364386
               9.00273597                4.00010235                0.99694528                1.00000000                0.32754450                0.04428595               -0.51931066               -0.00209964                0.19950414                0.01963717
              10.00753027                4.00083714                0.98614450                1.00000000                0.47942935                0.07837111               -1.37803124               -0.04666240                0.00485973                0.12274387
               0.00722477                4.99930995                1.01240282                1.00000000               -0.42867192               -0.07059844                1.23656177               -0.06256769                0.09518227               -0.02337705
               1.00293805                4.99933816                1.00342700                0.73694155               -0.27821961               -0.03032849                0.47588739               -0.01961458                0.14845638               -0.12952549
               2.00166038                4.99961304                0.99882686                0.00010000               -0.11348006                0.01076490               -0.34078220                0.01537209                0.66023280               -0.07173222
               3.00066845                4.99998042                1.00015877                0.00010000               -0.07007331                0.00244948               -0.19544253                0.01477642                1.06851464               -0.11670784
               4.00025891                4.99999750                1.00000635                0.00010000               -0.02664949                0.00134953               -0.12622949               -0.00101005                1.07380143               -0.06060351
               5.00013546                4.99998783                1.00000354                0.00010000               -0.00544527                0.00077986               -0.08648335               -0.00285062                1.10635556               -0.03030209
               6.00015000                4.99996742                0.99999451                0.00010000                0.00887964                0.00085076               -0.05627018               -0.00631413                1.11055399               -0.00822025
               7.00031305                4.99992220                0.99996478                0.00010000                0.03125934                0.00163617                0.00417240               -0.01365178                1.08022439                0.02522408
               8.00077519                4.99986332                1.00009433                0.00010000                0.09550905                0.00341048                0.40234142                0.00394986                0.79249143                0.14482785
               9.00222323                5.00045546                0.99791958                0.92615784                0.28400896                0.02340290               -0.36497083                0.01706871                0.26407545                0.08388741
              10.00645537                5.00150230                0.98801967                1.00000000                0.42321385                0.06048689               -1.26141575               -0.01325620                0.03676932                0.27170599
               0.00645960                5.99875235                1.01131093                1.00000000               -0.38981926               -0.04396050                1.13071973               -0.03724549                0.06103448               -0.11024634
               1.00256141                5.99916392                1.00203604                0.64662522               -0.25053751               -0.01117550                0.31517379                0.01656343                0.22944034               -0.12738976
               2.00144885                5.99971487                0.99889362                0.03599070               -0.09760826                0.00862195               -0.57685242                0.02840188                0.78044008               -0.05622164
               3.00060925                5.99999349                1.00013755                0.00010000               -0.06043626                0.00137452               -0.80852282                0.01048075                1.21052489               -0.10036885
               4.00024013                6.00000639                1.00000773                0.00010000               -0.02441414                0.00094292               -0.14762376               -0.00174646                1.20143673               -0.03395161
               5.00012096                5.99999434                1.00000391                0.00010000               -0.00596140                0.00060617               -0.09070408               -0.00307402                1.21743665               -0.01291454
               6.00012090                5.99997556                0.99999587                0.00010000                0.00554958                0.00067592               -0.01627882               -0.00533828                1.20892617                0.00189575
               7.00023196                5.99994123                0.99997802                0.00010000                0.02021106                0.00213284                0.09313130               -0.01029402                1.13684561                0.03132093
               8.00052512                5.99990559                1.00004005                0.00010000                0.06032094                0.00724043                0.80215412                0.01097477                0.76928524                0.16576469
               9.00143837                6.00057041                0.99884540                0.74080296                0.23231702                0.00797601               -0.24228292                0.03850804                0.37966889                0.13212308
              10.00517146                6.00204688                0.99116981                1.00000000                0.37330882                0.01373354               -1.22430749                0.00150305                0.18890172                0.43674349
               0.00565672                6.99843074                1.00998555                1.00000000               -0.33499232               -0.03232343                1.01387367               -0.00715647                0.06441533               -0.17394636
               1.00230679                6.99911465                1.00104776                0.63330288               -0.21289396                0.00240527                0.15805947                0.04736660                0.28906531               -0.10725882
               2.00139884                6.99978548                0.99883704                0.14521039               -0.08601237                0.01405826               -0.76995614                0.04743744                0.85026778               -0.04021095
               3.00058655                7.00000791                1.00013092                0.00010000               -0.05878543                0.00556434               -1.23488729                0.01168159                1.26470155                0.05204182
               4.00022313                7.00001636                1.00000686                0.00010000               -0.02408691                0.00204783               -0.18042443               -0.00227124                1.28080554                0.00866733
               5.00010481                6.99999995                1.00000402                0.00010000               -0.00633878                0.00041189               -0.10113408               -0.00346427                1.29982764                0.01075909
               6.00009635                6.99998094                0.99999713                0.00010000                0.00361640                0.00024352                0.01609961               -0.00395251                1.28822553                0.00757350
               7.00017714                6.99996486                0.99998763                0.00010000                0.01345761                0.00120870                0.16896135               -0.00298943                1.17911537                0.02331334
               8.00036551                7.00000813                0.99999664                0.02369433                0.03374847                0.00823096                1.16180616                0.02498707                0.74288799                0.14324573
               9.00085211                7.00061498                0.99955863                0.65839846                0.15834950                0.01236760               -0.08243477                0.05706944                0.51948117                0.15676137
              10.00353250                7.00177697                0.99473413                1.00000000                0.26803904               -0.02939962               -1.17518812               -0.00717174                0.39162168                0.38698032
               0.00494865                7.99810588                1.00859481                1.00000000               -0.27946478               -0.05506502                0.88620675                0.02385463                0.06865020               -0.24000558
               1.00215400                7.99921202                1.00026530                0.69321194               -0.17221517                0.02287171                0.04022375                0.07522439                0.31438702               -0.08149563
               2.00150434                7.99999604                0.99848332                0.28533147               -0.07709980                0.05292770               -0.88389030                0.06013474                0.88487391               -0.02214499
               3.00061200                8.00010478                1.00011003                0.00010000               -0.06508374                0.02480883               -1.17440693                0.00790921                1.31657106                0.15003767
               4.00020267                8.00004734                1.00000066                0.00010000               -0.02624523                0.00403845               -0.22493647               -0.00679177                1.29752692                0.08328448
               5.00008710                8.00000258                1.00000527                0.00010000               -0.00628644               -0.00041690               -0.11976980               -0.00377691                1.35546066                0.03704140
               6.00007694                7.99998043                0.99999843                0.00010000                0.00289390                0.00003363                0.04149091               -0.00325344                1.34878352                0.00670254
               7.00014498                7.99996540                0.99999084                0.00010000                0.01489045               -0.00104756                0.22612650                0.00065010                1.21584691                0.00458706
               8.00037475                8.00007021                0.99998538                0.09031440                0.03329759               -0.00426220                1.41481310                0.04210783                0.73185706                0.04949301
               9.00081093                8.00081776                0.99992789                0.70928830                0.11646489                0.01380592                0.11984679                0.08623160                0.55845656                0.18621138
              10.00270405                8.00145888                0.99598740                0.99597542                0.18931183                0.01269402               -0.98310608                0.02016998                0.43205787                0.19756150
               0.00392152                8.99732944                1.00693009                0.99727698               -0.20003963               -0.12951808                0.75208775                0.02951612                0.06261006               -0.26323697
               1.00192113                8.99957209                0.99963630                0.85527129               -0.11063724                0.04633111               -0.04934938                0.06063851                0.24870056               -0.04369418
               2.00170878                9.00084404                0.99715297                0.51352774               -0.06138506                0.16882604               -0.85643291                0.02201014                0.84694357               -0.01503382
               3.00069342                9.00050409                0.99975378                0.00010000               -0.07596420                0.07479129               -1.11056976               -0.00351590                1.27618454                0.19529057
               4.00018949                9.00009713                1.00003520                0.00010000               -0.02986182                0.00815488               -0.26676706               -0.00975668                1.27968997                0.16889269
               5.00009619                8.99999161                1.00000293                0.00010000               -0.00605141                0.00115164               -0.14243817               -0.00125714                1.39766165                0.06423293
               6.00006846                8.99998161                0.99999947                0.00010000                0.00020843                0.00013812                0.05875632               -0.00153962                1.39764626                0.00370727
               7.00010036                8.99994391                0.99999622                0.00010000                0.01434200               -0.00224277                0.27952744               -0.00437903                1.23219464               -0.04038906
               8.00035530                8.99992289                0.99995924                0.25892947                0.05438535               -0.01796132                1.48472057                0.03625249                0.77287386               -0.02860713
               9.00118806                9.00089110                1.00080730                0.95415032                0.11491727               -0.03141456                0.25113105                0.07050827                0.50827656                0.14556259
              10.00265365                9.00203085                0.99544317                0.98875457                0.14655869                0.12033944               -0.69152475                0.01751323                0.23860810                0.09759410
               0.00105367                9.99551552                1.00652101                0.99640567               -0.12015019               -0.18139174                0.65360351                0.17552757               -0.16179242               -0.29238206
               0.99985217               10.00013865                0.99922630                0.98412019               -0.00205638                0.05665612               -0.13293005                0.18595619               -0.03426098               -0.00430163
               2.00101254               10.00337256                0.99493326                0.84378450                0.07182124                0.25285212               -0.89033263                0.00347450                0.64155203                0.07797577
               3.00128859               10.00160061                0.99861593                0.36112138               -0.02462650                0.10965180               -1.25229246               -0.09858897                1.25685730                0.31012262
               4.00052001               10.00021044                0.99999917                0.32200816               -0.05555613                0.01133136               -0.32359763               -0.04569768                1.37703417                0.27603040
               5.00017747               10.00002562                0.99999063                0.33559877               -0.02130823                0.00340043               -0.18010339               -0.00323443                1.48224910                0.10695571
               6.00009385                9.99998319                1.00000826                0.37065279               -0.00306751                0.00015761                0.06167723               -0.00271514                1.47138805                0.00430279
               7.00011612                9.99992055                1.00002614                0.44082819                0.00293822               -0.00233624                0.31121693               -0.01203399                1.26843673               -0.10393527
               8.00015261                9.99971098                1.00013372                0.71744987               -0.00014939               -0.02119056                1.58457218               -0.00682320                0.68677275               -0.10782555
               9.00011313               10.00018947                1.00105362                0.97833389                0.03110957               -0.07016258                0.29530432                0.10024135                0.30342778                0.03175988
              10.00077480               10.00386567                0.99426215                0.99367328                0.06616712                0.18348237               -0.55469561                0.17973559               -0.08260374                0.13716206
               0.01042491                0.01699535                2.03562441                1.00000000               -0.43033570               -0.48965058                1.72799153               -0.10097996               -0.25349939                0.23619130
               1.00612155                0.01154163                2.02529092                1.00000000               -0.36148560               -0.35572562                1.26362034               -0.10421375               -0.24656577                0.01258395
               2.00319519                0.00583416                2.01451828                0.96997716               -0.21399272               -0.22990849                0.76582598               -0.09233927               -0.26700099               -0.09689207
               3.00184170                0.00013161                2.00468148                0.47568888                0.09076409               -0.12165777                0.29632897                0.12718552               -0.06904295               -0.11707815
               4.00501048               -0.00204073                1.99916201                0.37955755                0.29737724               -0.08962865               -0.01173012                0.08577540                0.45992200               -0.05391454
               5.00778924               -0.00164719                1.99741949                0.38600955                0.11609728                0.04789627               -0.22510621               -0.00974210                0.78407391               -0.01173799
               6.00733242               -0.00151273                1.99487258                0.46220611               -0.08229088                0.21658624               -0.49898506                0.02068094                0.60547490                0.00998416
               7.00614342               -0.00399215                1.98917196                0.68819085                0.02040383                0.32739478               -0.82452025                0.06700769                0.30804169                0.02743392
               8.00774050               -0.00860059                1.98104813                1.00000000                0.27677559                0.34648089               -1.13220280               -0.05242096                0.08545006                0.00089306
               9.01167893               -0.01345187                1.96933035                1.00000000                0.44969870                0.42511149               -1.52443673               -0.06622607               -0.08836552               -0.08769453
              10.01673447               -0.01811422                1.95691753                1.00000000                0.50555387                0.56922552               -1.99611575               -0.06030494               -0.17635610               -0.11450997
               0.01486883                1.01209884                2.03156114                1.00000000               -0.42088174               -0.45393849                1.65691486               -0.06429006               -0.04115893                0.34645724
               1.01066001                1.00798437                2.02107633                1.00000000               -0.34460069               -0.32682125                1.16884292               -0.07006016                0.02361220                0.06535044
               2.00797681                1.00353507                2.01135716                0.63585811               -0.18045064               -0.21071210                0.69515471               -0.06228885                0.14208379               -0.18863742
               3.00705100                0.99891503                2.00377427                0.00010000               -0.06095903               -0.16315650                0.24969411                0.22736722                0.41394231               -0.22922889
               4.00675763                0.99706298                2.00023214                0.00010000                0.01884117               -0.01005732                0.01941320                0.38186774                0.71154954               -0.19896138
               5.00742782                0.99883177                1.99892130                0.00010000                0.09770393                0.00780065               -0.14136557                0.41510980                0.81722242               -0.11285482
               6.00871171                1.00065313                1.99662421                0.00010000                0.14648037                0.04397741               -0.37200703                0.34219430                0.75397416                0.03073799
               7.01035743                0.99928180                1.99206154                0.16003957                0.16172203                0.22365519               -0.70264086                0.23647246                0.58793800               -0.02198458
               8.01194615                0.99486422                1.98459968                1.00000000                0.27080322                0.33357134               -1.04538085               -0.02846402                0.33170739               -0.03010046
               9.01577349                0.99079924                1.97332305                1.00000000                0.44238119                0.39352933               -1.48139076               -0.03058347                0.16537680               -0.06007399
              10.02079377                0.98757803                1.96214381                1.00000000                0.50202836                0.54100526               -1.89697466               -0.01113425                0.12082138               -0.22284756
               0.01736804                2.00791658                2.02965565                1.00000000               -0.40839257               -0.35565288                1.53205931               -0.09916107                0.02098582                0.39620703
               1.01328412                2.00500521                2.01775518                1.00000000               -0.31746423               -0.25122117                0.99485820               -0.11156891                0.07451856                0.07231317
               2.01101876                2.00161991                2.00601261                0.19962738               -0.02114935               -0.15901839                0.44759099               -0.14919661                0.39160615               -0.30842636
               3.01286113                1.99686848                2.00053163                0.00010000                0.08561667               -0.15253818               -0.00472800                0.27087456                0.91910091               -0.49436349
               4.01273109                1.99775812                1.99971255                0.00010000               -0.01799222                0.07477145               -0.04577779                0.56551962                1.25470977               -0.20875292
               5.01250129                1.99850882                1.99847860                0.00010000                0.04975936               -0.00672776               -0.16789291                0.53220026                1.27436998               -0.18394877
               6.01372628                1.99936681                1.99713804                0.00010000                0.20802462               -0.07063827               -0.34818091                0.50404900                1.18791021               -0.09768739
               7.01666178                2.00048095                1.99249345                0.00010000                0.09637471                0.04275136               -0.42969195                0.29305749                1.02160162                0.17853079
               8.01565377                1.99807084                1.98745393                0.41734192                0.08458370                0.26209083               -0.89612949                0.15407210                0.80280643               -0.13985113
               9.01835345                1.99441871                1.97835001                1.00000000                0.36502175                0.28940395               -1.34992103               -0.13565777                0.43503676                0.15065872
              10.02295421                1.99270588                1.96593209                1.00000000                0.46007559                0.44395013               -1.67972069               -0.06984447                0.19287558               -0.25169552
               0.01870835                3.00498579                2.02824091                1.00000000               -0.39830573               -0.24921393                1.43313032               -0.09781692                0.04505066                0.32012072
               1.01472530                3.00295995                2.01482564                1.00000000               -0.27893736               -0.17442663                0.82521071               -0.10840075                0.09123289                0.03851759
               2.01312961                3.00035470                2.00124485                0.03531969                0.08024932               -0.10593798                0.15364367               -0.15910596                0.43460837               -0.28426828
               3.01633028                2.99586427                1.99450494                0.00010000                0.16490390                0.07260630               -0.37328659                0.13760665                1.40434026               -0.15438227
               4.01642768                2.99855841                1.99921366                0.00010000                0.00664241                0.04243617               -0.14402099                0.44656790                1.86103692               -0.19935156
               5.01646313                2.99869722                1.99834776                0.00010000                0.01964367                0.02871922               -0.19185197                0.38501933                1.63787360               -0.13904976
               6.01682056                2.99924036                1.99722755                0.00010000                0.05257111                0.01192811               -0.26521137                0.37347811                1.69196419               -0.06768428
               7.01751455                3.00013683                1.99695419                0.00010000                0.21346383               -0.01815981               -0.42999545                0.21385771                1.32028195                0.14759213
               8.02108983                3.00010604                1.98766546                0.24331556                0.04553702                0.20115230               -0.54800563                0.00504643                1.08077642                0.38209373
               9.01842529                2.99658732                1.98553129                1.00000000                0.08663586                0.19696922               -1.05977050               -0.20092449                0.75887062                0.19414411
              10.02282255                2.99645703                1.96906039                1.00000000                0.43972579                0.30047881               -1.51202249               -0.07580156               -0.02857084               -0.15015807
               0.01946338                4.00293230                2.02663468                1.00000000               -0.37161905               -0.17878813                1.33561936               -0.08421704                0.08415741                0.21729078
               1.01574719                4.00151667                2.01217777                1.00000000               -0.22655270               -0.12396338                0.67158974               -0.08056782                0.12930003               -0.00125965
               2.01493232                3.99950116                1.99739852                0.00882967                0.08311870               -0.07045229               -0.11223631                0.00736065                0.92811541               -0.29524204
               3.01740956                3.99832061                1.99837674                0.00010000                0.19485911                0.08956374               -0.24659454                0.14831055                1.84993907                0.05564867
               4.01882951                3.99860684                1.99817239                0.00010000                0.10550799                0.01154847               -0.22220060                0.29830905                1.93216991               -0.15859998
               5.01951972                3.99908321                1.99827412                0.00010000                0.04633638                0.03476193               -0.20024235                0.33371738                1.99818156               -0.09411735
               6.01975623                3.99960538                1.99808269                0.00010000                0.02767701                0.02950095               -0.20257270                0.32319149                2.00685507               -0.01639402
               7.02007326                4.00011776                1.99799361                0.00010000               -0.02260124                0.01740432               -0.18298863                0.32393111                2.03005103                0.06137648
               8.01930421                4.00209388                1.99924534                0.23486747               -0.10446467                0.14444297               -0.01445134               -0.24772328                1.36791666                0.86761774
               9.01798397                3.99835810                1.98961379                1.00000000                0.11972727                0.15951571               -0.77826173               -0.22237742                0.43624916                0.08824208
              10.02169875                3.99871546                1.97243938                1.00000000                0.37147864                0.19758915               -1.35977143               -0.07863102               -0.00101396               -0.06561162
               0.01985527                5.00141002                2.02473124                1.00000000               -0.33101828               -0.13599819                1.23075277               -0.07757981                0.12624610                0.12400667
               1.01654509                5.00048068                2.00951775                1.00000000               -0.16911911               -0.08426141                0.52560628               -0.06027175                0.14345852               -0.07111551
               2.01647289                4.99894566                1.99318436                0.04801485                0.18228599               -0.03178838               -0.39521471               -0.01250836                1.09567897               -0.35450989
               3.02019081                4.99765554                1.99609115                0.00010000                0.25791899               -0.01500659               -0.41866189                0.27652736                2.16771716               -0.65894786
               4.02163127                4.99878938                1.99747541                0.00010000                0.09740698                0.03568024               -0.29785622                0.35348858                2.23503754               -0.06556812
               5.02213894                4.99939245                1.99827033                0.00010000                0.03092841                0.03290126               -0.20489583                0.29409357                2.29249879               -0.05710735
               6.02224983                4.99983038                1.99887460                0.00010000               -0.03171389                0.02149595               -0.11452157                0.27703196                2.31569019                0.00786945
               7.02150467                5.00048491                2.00008345                0.00010000               -0.21774030                0.02429066                0.06682175                0.28919940                2.56687435                0.12393485
               8.01789503                5.00299490                2.00804683                0.24577721               -0.20742478                0.06595501                0.45438861               -0.17465762                1.50877781                0.75441717
               9.01735617                4.99977764                1.99270058                0.99338158                0.13200921                0.13226599               -0.54858893               -0.20532131                0.17606004                0.09387674
              10.02053521                5.00040882                1.97477168                1.00000000                0.31790410                0.16524780               -1.25749083               -0.06535886               -0.02012065               -0.10057281
               0.01977046                6.00021234                2.02261439                1.00000000               -0.27643445               -0.10864182                1.12044728               -0.07265859                0.10687136                0.03584238
               1.01700612                5.99983145                2.00630348                0.90820312               -0.11315830               -0.04275605                0.35470385               -0.04811076                0.10643467               -0.12840306
               2.01750730                5.99886539                1.98846295                0.12796044                0.30451353                0.03302100               -0.68059112               -0.01808300                0.75172161               -0.32417252
               3.02309639                5.99802047                1.98382954                0.00010000                0.33275355                0.17064031               -0.97289822                0.21942292                2.30222825               -0.90147738
               4.02416237                5.99932045                1.99704752                0.00010000                0.06321000                0.06955156               -0.42745627                0.29162540                2.93153646               -0.01652756
               5.02436059                5.99974123                1.99818592                0.00010000                0.00210237                0.04106869               -0.21319653                0.22910943                2.52466291               -0.02991542
               6.02420441                6.00003530                1.99967442                0.00010000               -0.08339267                0.01592630               -0.03127500                0.21967014                2.57359865                0.02376682
               7.02269273                6.00060357                2.00186263                0.00010000               -0.38430409               -0.00157304                0.29801582                0.27279093                3.02994849                0.11448755
               8.01651833                6.00341298                2.01604308                0.27068309               -0.31145571               -0.00376579                0.86690576               -0.11042093                1.61910109                0.70729426
               9.01646362                6.00100342                1.99515434                0.97272280                0.13054405                0.11375488               -0.33971815               -0.15483021               -0.11434055                0.16440734
              10.01912921                6.00202041                1.97551385                1.00000000                0.26655932                0.12566003               -1.22095820               -0.05098941               -0.13873557               -0.10276920
               0.01916388                6.99923719                2.02027747                1.00000000               -0.22340612               -0.09784939                1.00737195               -0.04808440                0.06599402               -0.05363108
               1.01692982                6.99962556                2.00316119                0.87950994               -0.06208424               -0.00249449                0.17255668               -0.01189966                0.06477669               -0.10828585
               2.01792220                6.99960608                1.98460088                0.23664103                0.35971915                0.11878874               -0.92889916                0.08941195                0.53127351               -0.17877062
               3.02412420                7.00106835                1.97530225                0.00010000                0.39104106                0.26787089               -1.35256709                0.11460099                2.36664704               -0.26503686
               4.02574302                7.00018041                1.99639151                0.00010000                0.09410415                0.11584545               -0.58174333                0.05192068                3.39145929                0.00720306
               5.02600629                7.00021383                1.99797732                0.00010000                0.00189391                0.05003428               -0.23943885                0.13596769                2.72178895               -0.01192093
               6.02578090                7.00014891                2.00032199                0.00010000               -0.12117448                0.00482097                0.03809733                0.15126543                2.79123761                0.02663843
               7.02358280                7.00045345                2.00337923                0.00010000               -0.52470666               -0.02602121                0.50074498                0.22039630                3.43673525                0.08414994
               8.01528676                7.00291958                2.02323612                0.31362375               -0.39653292               -0.11928607                1.24559841               -0.01094806                1.75490583                0.55541509
               9.01565214                7.00205273                1.99835130                0.95877588                0.10973354                0.07360661               -0.11743165               -0.06470321               -0.37774434                0.27129544
              10.01748143                7.00292202                1.97649624                1.00000000                0.18292954                0.06108843               -1.18152311               -0.04342486               -0.29691465                0.11399816
               0.01803202                7.99825535                2.01772414                1.00000000               -0.16327907               -0.12140634                0.89285275               -0.01358411                0.05733185               -0.13333384
               1.01639923                7.99978156                2.00080448                0.94577795               -0.00896385                0.02697754                0.02101432                0.04035593                0.04626306               -0.05589932
               2.01785275                8.00124116                1.98232219                0.38489162                0.42074217                0.18216541               -1.05230909                0.12477618                0.67595283                0.07573205
               3.02481408                8.00337789                1.97651186                0.00010000                0.41012777                0.21657823               -1.33587552               -0.05432704                2.31244108                0.31989290
               4.02605530                8.00163736                1.99550127                0.00010000                0.11486832                0.15994676               -0.74377119               -0.15171694                3.36799624                0.04723694
               5.02711144                8.00074192                1.99760460                0.00010000                0.04673985                0.05427373               -0.28074861                0.02385171                2.90114241                0.01216104
               6.02699010                8.00013171                2.00082982                0.00010000               -0.13907276               -0.00422961                0.09348705                0.07599819                2.97400484                0.02314779
               7.02432999                8.00008315                2.00452253                0.00010000               -0.61450049               -0.06482669                0.66459531                0.09984360                3.72300885                0.03992569
               8.01470009                8.00102726                2.02829626                0.39230498               -0.45814346               -0.18200282                1.53315648                0.08760184                1.91278628                0.23291836
               9.01516712                8.00247555                2.00239694                0.95248526                0.09110287               -0.01336064                0.12314988                0.06221877               -0.45509063                0.23794995
              10.01652215                8.00324218                1.98033788                0.99615420                0.13550282                0.03775533               -0.99634970               -0.02238751               -0.31763723                0.40253238
               0.01583979                8.99680906                2.01504176                0.99618346               -0.10886624               -0.16424176                0.79154242                0.00168231                0.05484113               -0.14963927
               1.01475113                9.00016511                1.99901301                0.96795729                0.04907974                0.04761970               -0.10480229                0.04718142                0.09470719               -0.02502989
               2.01682138                9.00324939                1.98287134                0.62981361                0.39451710                0.23788949               -1.05195347                0.04117350                0.68821664                0.21489479
               3.02264147                9.00539991                1.97778860                0.00010000                0.42616360                0.25501340               -1.28815956               -0.23064450                2.12183214                0.31219924
               4.02534466                9.00337934                1.99466466                0.00010000                0.26737474                0.19776494               -0.91718409               -0.19949633                3.35044740                0.10411278
               5.02798896                9.00129930                1.99715124                0.00010000                0.13074867                0.07109015               -0.32319503               -0.03952901                3.06884761                0.02929819
               6.02795963                9.00006432                2.00117513                0.00010000               -0.16524211               -0.00316261                0.13411630                0.01298801                3.14779845                0.01731168
               7.02468412                8.99915692                2.00559055                0.00010000               -0.66566160               -0.11108436                0.80670325                0.00642502                3.80497740               -0.00745915
               8.01464640                8.99927952                2.02969441                0.55780944               -0.50012628               -0.17663660                1.61442986                0.03182430                1.91681530                0.00706322
               9.01468160                9.00178552                2.00502262                0.95329532                0.04270119               -0.11664953                0.31176170                0.05853002               -0.33854367                0.06759507
              10.01550042                9.00367712                1.98616950                0.98911309                0.08188254                0.09315500               -0.73412914               -0.04040382               -0.09558778                0.37876616
               0.01135357                9.99497051                2.01307207                0.99473782               -0.04510293               -0.18385460                0.62491015                0.12772111               -0.03134972               -0.11465839
               1.01090254               10.00073395                1.99734140                0.98559401                0.10439252                0.05688361               -0.25141607                0.16656284                0.03681010                0.00228127
               2.01344142               10.00599895                1.98219335                0.89684361                0.45843465                0.27495659               -1.06298366                0.04921377                0.46674619                0.18746259
               3.02007123               10.00847816                1.97495415                0.36466715                0.63622862                0.30782456               -1.34210328               -0.27733877                1.94301026                0.16705701
               4.02616599               10.00559266                1.99352805                0.32358054                0.47823313                0.22133115               -1.02022746               -0.23358881                3.54260667                0.08661107
               5.02963589               10.00216372                1.99639793                0.34343920                0.16131284                0.08644165               -0.35604157               -0.11151682                3.24222653                0.04875149
               6.02939224               10.00006846                2.00123354                0.39722981               -0.21963057                0.00041470                0.15357855               -0.07185136                3.31877209                0.02946366
               7.02524328                9.99786146                2.00622434                0.50464285               -0.83421360               -0.12954574                0.89193728               -0.07278065                3.95090604               -0.00397000
               8.01270797                9.99749453                2.03169144                0.83894626               -0.66515806               -0.17849927                1.69099218               -0.07978742                1.83449998                0.01475701
               9.01194012               10.00014256                2.00590609                0.97846914               -0.03885551               -0.16429605                0.49030716                0.10638991               -0.40803453               -0.03064969
              10.01193086               10.00510528                1.98890609                0.99248026               -0.00092564                0.14281578               -0.48690288                0.13931642               -0.01532950                0.20707556
               0.02094682                0.02385164                3.05290646                1.00000000               -0.44726941               -0.50736015                1.73164543               -0.10995570               -0.21581374                0.25298666
               1.01647413                0.01616012                3.03787314                1.00000000               -0.36463493               -0.36361414                1.25957035               -0.09725608               -0.26053615               -0.00659288
               2.01365412                0.00818198                3.02200483                0.94139764               -0.19772325               -0.22393432                0.77339544               -0.08736996               -0.23344335               -0.12525973
               3.01251966                0.00033746                3.00737639                0.48362347                0.12424507               -0.08387254                0.30255840                0.12401191                0.18214450               -0.12809062
               4.01613903               -0.00329366                2.99962579                0.41106190                0.37342466               -0.13816071                0.09093340                0.11766357                0.78018940               -0.00985397
               5.01998816               -0.00328971                2.99543923                0.42355213                0.20870527               -0.00638337               -0.17977171                0.00223775                0.96720265                0.00617936
               6.02031313               -0.00331923                2.98987926                0.49079092               -0.02676530                0.17063293               -0.50120135                0.04327939                0.87750512                0.04158448
               7.01945285               -0.00614122                2.98264321                0.69129765                0.03660409                0.21952434               -0.72230233                0.07609896                0.53937967                0.03380068
               8.02104521               -0.01179155                2.96972649                1.00000000                0.26669121                0.32115467               -1.13247858               -0.02784549                0.10261718                0.15776409
               9.02478667               -0.01842111                2.95387173                1.00000000                0.44602518                0.43035814               -1.53158455               -0.09541768               -0.08164573                0.00226964
              10.02996572               -0.02481651                2.93757008                1.00000000                0.51790415                0.56536584               -1.92826905               -0.11289064               -0.10612547               -0.13889708
               0.02753879                1.01877804                3.04800612                1.00000000               -0.42023930               -0.47514066                1.63277371               -0.05414899               -0.01224547                0.34431855
               1.02333640                1.01252397                3.03270252                1.00000000               -0.34235189               -0.33812279                1.15178773               -0.04530439                0.02289963                0.00203286
               2.02069175                1.00594264                3.01795247                0.59735467               -0.19193984               -0.20561345                0.66988745               -0.02410146                0.16519014               -0.28752824
               3.01949760                0.99949873                3.00545447                0.00010000               -0.07812557               -0.05317795                0.21547847                0.10190645                0.62820455               -0.32056156
               4.01912924                0.99532473                3.00037693                0.00010000                0.02628595                0.00240272                0.04948822                0.41766509                1.08327733               -0.16254728
               5.02002332                0.99664646                2.99716370                0.00010000                0.15212184                0.00729120               -0.16884678                0.56316794                1.12664307               -0.14473323
               6.02217168                0.99838710                2.99248551                0.00010000                0.22133395                0.03659401               -0.43341369                0.45454106                1.01418869               -0.09051042
               7.02445000                0.99605403                2.98586208                0.17860280                0.23675125                0.23135934               -0.66626835                0.21684954                0.78687203                0.12295458
               8.02690670                0.99141999                2.97532250                1.00000000                0.29474896                0.28300873               -0.94232431                0.02701485                0.38291216                0.17298132
               9.03034498                0.98588247                2.95952268                1.00000000                0.41627554                0.39391894               -1.37435839               -0.04093024                0.09138338                0.04802503
              10.03523221                0.98083714                2.94342781                1.00000000                0.48872360                0.53935098               -1.83592293               -0.04817906                0.06085258               -0.17132948
               0.03237197                2.01434883                3.04506119                1.00000000               -0.39685303               -0.40026319                1.52572591               -0.08049797                0.03773220                0.44558071
               1.02840344                2.00939766                3.02778848                1.00000000               -0.30873185               -0.28136633                1.00107510               -0.07232193                0.06420760                0.01415508
               2.02619734                2.00406971                3.01075156                0.19774008               -0.16138747               -0.16867899                0.48319851               -0.01149770                0.37917598               -0.44856999
               3.02517569                1.99927390                2.99973984                0.00010000                0.05736303               -0.02636421                0.00644306                0.19654190                1.06741342               -0.52072701
               4.02734460                1.99675440                2.99912002                0.00010000                0.15067287                0.10917267               -0.08939852                0.60423918                1.56575793               -0.25103238
               5.02818915                1.99685612                2.99663663                0.00010000                0.13258928                0.03730330               -0.20952250                0.77647492                1.46723645               -0.22358042
               6.02999638                1.99741265                2.99302175                0.00010000                0.12838954               -0.03692864               -0.37706580                0.74557940                1.52866971               -0.12108264
               7.03075694                1.99848597                2.99140573                0.00010000                0.08803404                0.06410160               -0.24611686                0.42322563                1.14084066                0.01565172
               8.03175706                1.99386862                2.98140881                0.40684793                0.18969886                0.21007856               -0.68926105               -0.08507397                0.57503379                0.26762738
               9.03455092                1.98945727                2.96604373                1.00000000                0.36678633                0.31531873               -1.22822909               -0.05978203                0.22779170                0.20492087
              10.03909279                1.98597050                2.94878760                1.00000000                0.45418710                0.47936417               -1.69075846               -0.04885871                0.11898107               -0.20314492
               0.03583117                3.01077278                3.04250882                1.00000000               -0.36620917               -0.31645099                1.40933138               -0.08799347                0.05464717                0.41633954
               1.03216908                3.00689665                3.02305237                1.00000000               -0.26228037               -0.21722379                0.82694295               -0.07641016                0.07427228                0.00500502
               2.03058556                3.00256906                3.00347024                0.04207283               -0.07126614               -0.12072412                0.24903848                0.00122352                0.49906092               -0.41975578
               3.03074376                2.99897145                2.99256719                0.00010000                0.15231220                0.00986839               -0.13969115                0.33432614                1.59553772               -0.09966047
               4.03363181                2.99750819                2.99713139                0.00010000                0.20754059                0.08956246               -0.21877578                0.50451172                2.15412460               -0.23697261
               5.03489457                2.99739253                2.99616293                0.00010000                0.09108038                0.06588554               -0.23431894                0.60762059                1.90175296               -0.17279455
               6.03545341                2.99764852                2.99468934                0.00010000                0.07819851                0.02854822               -0.28341290                0.52731591                1.79336875               -0.05893465
               7.03645854                2.99733606                2.99131063                0.00010000               -0.06097438               -0.02395971               -0.42472053                0.35276799                1.74935611               -0.05451087
               8.03423393                2.99562157                2.98935523                0.25141390                0.02944593                0.14698704               -0.15726653               -0.00933709                1.00228770                0.49793867
               9.03704746                2.99218885                2.97468953                1.00000000                0.34973219                0.26203157               -1.07573977               -0.07405675                0.31380166                0.26017948
              10.04122857                2.99042443                2.95403980                1.00000000                0.41811142                0.39215555               -1.50319033               -0.03814094               -0.00846334               -0.18371609
               0.03836436                4.00801981                3.03990088                1.00000000               -0.32854015               -0.24812048                1.30002292               -0.07938772                0.07176343                0.34176634
               1.03507896                4.00505318                3.01853903                1.00000000               -0.21086767               -0.15532523                0.64548644               -0.05897802                0.09555184               -0.01879108
               2.03414701                4.00165523                2.99702919                0.00010000                0.09220631               -0.05553207                0.00426744                0.04165361                1.05896221               -0.36406924
               3.03692309                3.99947127                2.99519536                0.00010000                0.24333722                0.11886068               -0.29656790                0.29391986                2.14854079                0.07848595
               4.03901375                3.99854564                2.99556516                0.00010000                0.16390703                0.11514082               -0.27496812                0.39256165                2.27054363               -0.15447240
               5.04020123                3.99817383                2.99599756                0.00010000                0.07927074                0.07706758               -0.24473330                0.45648236                2.26967202               -0.11745373
               6.04059917                3.99798361                2.99593920                0.00010000               -0.01809833                0.04422773               -0.22025326                0.45151136                2.26374611               -0.04231916
               7.03983926                3.99800678                2.99629868                0.00010000               -0.19408162                0.05979139               -0.16881886                0.24222596                2.38158891                0.21411251
               8.03671754                3.99680836                2.99984936                0.24892033               -0.07861687                0.12661805               -0.05618179                0.03954046                1.37218826                0.54976863
               9.03826692                3.99469790                2.98138005                1.00000000                0.25706378                0.23017951               -0.84155398               -0.05113139                0.22409922                0.15580106
              10.04185881                3.99381362                2.95894908                1.00000000                0.35918876                0.29959695               -1.33978080               -0.05431934                0.00993617               -0.17397580
               0.04017666                5.00581037                3.03701787                1.00000000               -0.28225666               -0.20484248                1.19316069               -0.05929702                0.07333154                0.24645680
               1.03735410                5.00379014                3.01393913                0.94528396               -0.15880559               -0.10503836                0.46909624               -0.02946823                0.10726411               -0.05874777
               2.03700055                5.00145842                2.99092256                0.00010000                0.11888190                0.00798362               -0.19349602                0.11843631                1.28230583               -0.31276294
               3.03973174                5.00134866                2.99178554                0.00010000                0.28899616                0.16407883               -0.35585690               -0.02506303                2.51930105               -0.47870236
               4.04278048                4.99981100                2.99404922                0.00010000                0.24272553                0.11070454               -0.35045532                0.15429733                2.60008251               -0.14158320
               5.04458625                4.99893388                2.99590562                0.00010000                0.09351082                0.07576112               -0.25475277                0.32540848                2.61910005               -0.07819986
               6.04465069                4.99853308                2.99770408                0.00010000               -0.10539708                0.05099427               -0.12196235                0.34575038                2.69057498                0.00494857
               7.04247831                4.99853189                3.00130122                0.00010000               -0.31585407                0.04642121                0.06311730                0.21219266                2.93120859                0.21534227
               8.03833361                4.99815393                3.00918210                0.25883595               -0.17293649                0.10269085                0.03814307                0.05792210                1.64072677                0.45031458
               9.03901958                4.99679244                2.98694780                0.99215313                0.17885712                0.17549667               -0.59741705               -0.01618443                0.11471316                0.11814889
              10.04191075                4.99641637                2.96286985                1.00000000                0.28911781                0.22266619               -1.16000423               -0.04666095                0.00321453               -0.16300735
               0.04121887                6.00392296                3.03371987                1.00000000               -0.23773213               -0.17809958                1.07848279               -0.04542919                0.05716237                0.14893363
               1.03884155                6.00295242                3.00913012                0.79132535               -0.11308254               -0.06711039                0.31424320               -0.00916164                0.11856345               -0.08292627
               2.03895722                6.00181490                2.98528179                0.00010000               -0.03861548                0.04462064               -0.34111566                0.13415577                1.09884286               -0.24493426
               3.03806924                6.00275284                2.98067958                0.00010000                0.27786325                0.03380985               -0.07755536               -0.23290242                2.76202228               -0.67085323
               4.04451448                6.00075974                2.99145860                0.00010000                0.49590423                0.09478356               -0.52354765               -0.02335081                3.24130508               -0.18877167
               5.04798732                5.99968905                2.99573998                0.00010000                0.17008414                0.07044838               -0.27342792                0.21338108                2.97434877               -0.06525962
               6.04791617                5.99900350                2.99937037                0.00010000               -0.17625283                0.04126182               -0.02907881                0.25573275                3.07608354                0.01422011
               7.04446227                5.99893520                3.00593834                0.00010000               -0.41503689                0.02280343                0.28189725                0.16890441                3.39760452                0.19386163
               8.03961543                5.99886218                3.01737816                0.27604245               -0.23907354                0.03546640                0.13040678                0.07152836                1.86755713                0.38156602
               9.03968080                5.99820783                2.99205103                0.90650671                0.10311527                0.10029273               -0.34630095                0.02111442                0.04137264                0.11476562
              10.04167773                5.99826694                2.96675064                1.00000000                0.19969383                0.14082684               -0.90530944               -0.02441029                0.02275755               -0.10900484
               0.04120917                7.00224837                3.03013299                1.00000000               -0.19302417               -0.16240184                0.96321343               -0.04425731                0.03723983                0.06786651
               1.03927892                7.00244794                3.00449890                0.71410954               -0.06629610               -0.03551006                0.15186506               -0.01289475                0.12774917               -0.05677169
               2.03988324                7.00235083                2.98025905                0.00010000               -0.15750353                0.07126567               -0.53163771               -0.00321420                1.04679752               -0.11417149
               3.03612885                7.00202486                2.97307958                0.00010000                0.27470038                0.06317232                0.01510051               -0.25158225                2.98238733               -0.26262971
               4.04537725                7.00170667                2.98837200                0.00010000                0.72406267                0.09796003               -0.72342297                0.01366770                3.69865402               -0.22034155
               5.05061011                7.00034284                2.99521524                0.00010000                0.25709732                0.06914172               -0.31189968                0.12228573                3.32148354               -0.07136149
               6.05051920                6.99935831                3.00075908                0.00010000               -0.23061982                0.02933757                0.05239526                0.16840270                3.42595866                0.01283739
               7.04599771                6.99898796                3.01000253                0.00010000               -0.50138263               -0.01913030                0.48644564                0.10906910                3.82046596                0.15091730
               8.04049154                6.99886325                3.02490861                0.30029815               -0.29803029               -0.02959461                0.22596144                0.04754873                2.08334510                0.29580488
               9.04003710                6.99879829                2.99720999                0.85094936                0.04063962                0.03488046               -0.14142821                0.01781754               -0.01415959                0.11205704
              10.04130434                6.99923290                2.97110366                0.99140534                0.12672328                0.07846622               -0.66115921               -0.01695478                0.06327972               -0.01872313
               0.03993460                8.00067492                3.02645187                1.00000000               -0.14534025               -0.16298296                0.85764572               -0.04993746                0.05018630                0.01360376
               1.03848120                8.00224222                3.00068559                0.71654374               -0.03092951                0.00433144               -0.02380334               -0.03639749                0.19188930               -0.00186224
               2.03931601                8.00324021                2.97743714                0.05071229               -0.23997266                0.14599756               -0.74208763               -0.07058268                1.29577157                0.05280697
               3.03368175                8.00401629                2.97339252                0.00010000                0.35769187                0.31404635               -0.52700253               -0.26566908                3.05290929                0.03790548
               4.04646985                8.00271894                2.98512524                0.00010000                0.95498255                0.12229663               -0.92626189               -0.02429226                3.78901661               -0.22951997
               5.05278140                8.00107189                2.99439030                0.00010000                0.30846297                0.07207008               -0.35585630                0.06119392                3.66095872               -0.06338592
               6.05263911                7.99959025                3.00186817                0.00010000               -0.28213447                0.02829029                0.12062100                0.07733167                3.73685773                0.01255624
               7.04713871                7.99855259                3.01328275                0.00010000               -0.59415210               -0.04475188                0.67520807                0.01814742                4.13552125                0.10644218
               8.04075607                7.99827029                3.03064851                0.33420513               -0.37356053               -0.10971417                0.36662059               -0.04395790                2.26149443                0.07369527
               9.03966750                7.99890544                3.00239089                0.84021408               -0.01433259               -0.00322227                0.01077633               -0.02645162               -0.00852619                0.08315307
              10.04046942                7.99983626                2.97606040                0.96236576                0.08019174                0.09025298               -0.55846761               -0.04972849                0.08124891                0.05193286
               0.03707583                8.99898872                3.02276094                0.99286687               -0.10901473               -0.17566006                0.75821230               -0.04774442                0.09191115               -0.00813670
               1.03598568                9.00253456                2.99754025                0.78245882               -0.01891563                0.06426417               -0.20214316               -0.03660219                0.29685237                0.02390641
               2.03669752                9.00527078                2.97611391                0.16349476               -0.23244664                0.26187925               -1.03394263               -0.04050390                1.48020762                0.11318308
               3.03133675                9.00830578                2.97399059                0.00010000                0.55691460                0.32971833               -1.46952340               -0.29929105                2.97129343                0.02813569
               4.04783581                9.00415261                2.98169152                0.00010000                1.18129613                0.07484753               -1.07488451               -0.15315119                3.87312889               -0.16360051
               5.05496267                9.00178425                2.99353903                0.00010000                0.33746562                0.07176843               -0.39450432                0.01533092                3.99938320               -0.04069250
               6.05458512                8.99992412                3.00268179                0.00010000               -0.36410266                0.04326888                0.17955031                0.01562227                4.03035886                0.02041339
               7.04768062                8.99809292                3.01613029                0.00010000               -0.76627915                0.00104864                0.82171535               -0.08587582                4.23670509                0.07111941
               8.03925954                8.99666897                3.03224784                0.36227037               -0.48692614               -0.11291147                0.58380009               -0.14771379                2.34838408               -0.12263050
               9.03794210                8.99873385                3.00704254                0.90047520               -0.04057059               -0.05479493                0.21889047               -0.02803547                0.13069971                0.03840571
              10.03844813                9.00103796                2.98076059                0.94997300                0.05060304                0.13488770               -0.56638071               -0.06964860                0.06465937                0.03932271
               0.03188802                9.99716172                3.01901921                0.99349153               -0.04209249               -0.18269947                0.58171013                0.11779658                0.11386156               -0.00640540
               1.03146709               10.00352750                2.99419798                0.91850595                0.04233482                0.09929350               -0.39494422                0.11394491                0.34403092                0.05011816
               2.03273471               10.00847780                2.97367358                0.62499865               -0.13264975                0.32070196               -1.25016982               -0.04212252                1.52763290                0.15715972
               3.02881410               10.01061065                2.97177386                0.34106655                0.85968249                0.23048707               -1.61367740               -0.46536083                3.09000718                0.13386779
               4.04992836               10.00421589                2.97959462                0.32210406                1.42512028                0.00632789               -1.17354130               -0.19591459                4.07702180               -0.17295074
               5.05731650               10.00250725                2.99286979                0.34215839                0.33572595                0.07230073               -0.38974513                0.04737007                4.21440774               -0.02655367
               6.05664288               10.00045563                3.00307983                0.38956055               -0.43200809                0.05315056                0.23106362                0.00909184                4.23654063                0.03674853
               7.04867634                9.99857357                3.01786489                0.48193499               -0.97410096                0.04806495                0.92691383               -0.12260615                4.40689146                0.15241418
               8.03716086                9.99601206                3.03395356                0.67375494               -0.69692722               -0.06569126                0.73756956               -0.24806864                2.46436300               -0.20796671
               9.03473780                9.99780954                3.01085977                0.97594747               -0.13463266               -0.09243012                0.48809215                0.00566804                0.23750673                0.02491797
              10.03446821               10.00253402                2.98452410                0.98001769               -0.02695868                0.14960553               -0.41090709                0.07445566                0.06764372               -0.01065197
               0.03617528                0.03185577                4.07025732                1.00000000               -0.43628199               -0.50252826                1.72014437               -0.10489338               -0.23491078                0.27516766
               1.03181246                0.02175100                4.05048233                1.00000000               -0.35761013               -0.36413109                1.26281938               -0.08518542               -0.26273972               -0.01372464
               2.02902307                0.01143368                4.02998619                0.93843637               -0.19744185               -0.23959015                0.81372268               -0.06630881               -0.23471383               -0.15389357
               3.02786362                0.00141364                4.01073265                0.49947190                0.17641733               -0.12732836                0.37254716                0.17401188                0.30297832               -0.13861444
               4.03255142               -0.00374009                4.00098068                0.45152803                0.45081032               -0.19420988                0.16286375                0.09694366                1.00651137               -0.00822525
               5.03687983               -0.00497254                3.99382406                0.47268551                0.25635633               -0.02877501               -0.14884803               -0.01044515                1.06938621                0.00471098
               6.03767855               -0.00589355                3.98484855                0.52836437                0.01019800                0.15939800               -0.50652351                0.02278979                0.95940283                0.03292179
               7.03708379               -0.00975387                3.97472591                0.71614711                0.04428882                0.27322429               -0.80719537                0.08022007                0.61677070                0.01118922
               8.03856432               -0.01663733                3.95839856                1.00000000                0.25593213                0.32788525               -1.13700644               -0.00977836                0.13128004                0.20191791
               9.04220243               -0.02470838                3.93869866                1.00000000                0.43254686                0.42961120               -1.51054903               -0.06917175               -0.07635999                0.02095990
              10.04721526               -0.03260762                3.91835215                1.00000000                0.50128320                0.55415429               -1.90090956               -0.09139341               -0.12084475               -0.14965233
               0.04523111                1.02683048                4.06421661                1.00000000               -0.40594599               -0.47651368                1.59856491               -0.04743738               -0.00604174                0.38214605
               1.04117165                1.01810969                4.04411208                1.00000000               -0.33512198               -0.34062711                1.13575617               -0.03636322                0.04355239               -0.01240952
               2.03852867                1.00903777                4.02475491                0.58933392               -0.19905118               -0.21514628                0.69415266               -0.01707448                0.21456400               -0.35798397
               3.03719062                1.00014035                4.00808384                0.00010000               -0.09073605               -0.10362101                0.29741338                0.16286764                0.82701904               -0.41221804
               4.03671395                0.99431781                4.00122191                0.00010000                0.03307392               -0.01384437                0.12203589                0.45986963                1.35231941               -0.22726096
               5.03785210                0.99473971                3.99554436                0.00010000                0.17915811                0.00052621               -0.14728593                0.62235427                1.32543410               -0.16048668
               6.04029711                0.99570043                3.98795593                0.00010000                0.27028879                0.03174413               -0.46251044                0.50453489                1.16966486               -0.05356619
               7.04325788                0.99297838                3.97873618                0.19902673                0.28233426                0.25496539               -0.72635436                0.24744161                0.95651389                0.27267839
               8.04594379                0.98664152                3.96575319                1.00000000                0.31189882                0.30139958               -0.98217355                0.02807394                0.45353070                0.23895368
               9.04949585                0.97958774                3.94583588                1.00000000                0.41283870                0.40293279               -1.36831459               -0.01897590                0.09024661                0.06209456
              10.05420057                0.97293393                3.92542535                1.00000000                0.47047136                0.53193027               -1.77246648               -0.03383860                0.05205935               -0.17954037
               0.05266811                2.02232549                4.06017017                1.00000000               -0.37902136               -0.41787967                1.48842369               -0.06454893                0.04034200                0.49448922
               1.04887790                2.01493846                4.03777669                1.00000000               -0.30085970               -0.29000946                0.99369190               -0.05585319                0.07099450               -0.01683004
               2.04665092                2.00713075                4.01567658                0.22084525               -0.15184803               -0.16779090                0.50654977               -0.02649529                0.43802875               -0.57214592
               3.04584094                1.99934122                4.00066049                0.00010000                0.02492690               -0.08624071                0.13156239                0.31207643                1.42423219               -0.78018966
               4.04714946                1.99598302                3.99792458                0.00010000                0.10516738                0.15280039               -0.08187982                0.74486283                1.91737434               -0.38087210
               5.04794429                1.99503798                3.99428815                0.00010000                0.11905604                0.05703409               -0.22138454                0.89232251                1.78055273               -0.27651257
               6.04953058                1.99474133                3.98959673                0.00010000                0.15736201               -0.02781082               -0.36329131                0.87752921                1.85260664               -0.10915183
               7.05109153                1.99534544                3.98757111                0.00010000                0.14929308                0.05876384               -0.44346825                0.46136189                1.45835902                0.13478860
               8.05251644                1.98939066                3.97366871                0.42150996                0.22194893                0.24913703               -0.80884241               -0.00911341                0.59579231                0.43415833
               9.05553051                1.98335028                3.95378543                1.00000000                0.36648345                0.34334299               -1.22574827               -0.04193871                0.22096156                0.22952429
              10.05984611                1.97803099                3.93211692                1.00000000                0.43156033                0.48436528               -1.64161755               -0.04432059                0.11541257               -0.19389876
               0.05871419                3.01847289                4.05642754                1.00000000               -0.34648695               -0.35334572                1.37108173               -0.06862730                0.04793409                0.48695251
               1.05524933                3.01230950                4.03136449                1.00000000               -0.25590957               -0.23421829                0.83101409               -0.05694624                0.06194966               -0.02304875
               2.05359600                3.00568196                4.00622562                0.06231978               -0.03347203               -0.11816535                0.29426772               -0.05448210                0.58271762               -0.55103060
               3.05457988                2.99841554                3.99171111                0.00010000                0.11592172                0.06653816               -0.08263014                0.38476620                2.02084058               -0.39996839
               4.05591444                2.99737381                3.99483814                0.00010000                0.11801764                0.13082722               -0.19401669                0.68767813                2.57834908               -0.28401949
               5.05694024                2.99588039                3.99366138                0.00010000                0.08128996                0.09767285               -0.25028706                0.71826153                2.27290620               -0.20552832
               6.05754024                2.99514421                3.99155929                0.00010000                0.04477756                0.05014598               -0.31168062                0.67363588                2.16205882               -0.06815229
               7.05783579                2.99415365                3.98845978                0.00010000                0.01082244               -0.04680119               -0.34811215                0.45917003                2.05600060               -0.00987203
               8.05775669                2.99162426                3.98452013                0.25134545                0.10904820                0.19358587               -0.52083501                0.07255547                1.30370384                0.74349654
               9.06001675                2.98645460                3.96401650                1.00000000                0.30980271                0.29327811               -1.05924611               -0.05836499                0.23351792                0.29924120
              10.06395274                2.98262123                3.93899659                1.00000000                0.39359870                0.41874494               -1.48789952               -0.03767079               -0.01215376               -0.19003240
               0.06362235                4.01525858                4.05263514                1.00000000               -0.30924365               -0.29763615                1.25358180               -0.06218910                0.05686193                0.43526709
               1.06052991                4.01025409                4.02508750                1.00000000               -0.20835532               -0.17974308                0.66182033               -0.04773920                0.07204587               -0.02854972
               2.05945524                4.00476744                3.99748387                0.00010000                0.06572485               -0.06220791                0.07475870                0.05472405                1.18563962               -0.48485142
               3.06184441                4.00067198                3.99244538                0.00010000                0.19914656                0.20908651               -0.25940179                0.33512018                2.50840365               -0.01814466
               4.06343817                3.99859956                3.99267303                0.00010000                0.13473562                0.13452304               -0.26798101                0.49589269                2.74831934               -0.21846488
               5.06453912                3.99699144                3.99337945                0.00010000                0.06459330                0.11028224               -0.26176438                0.55352698                2.72191876               -0.15539189
               6.06473004                3.99574425                3.99367763                0.00010000               -0.03721188                0.06769856               -0.23821811                0.52717376                2.70948584               -0.01018060
               7.06379488                3.99440942                3.99461723                0.00010000               -0.15317154                0.04992233               -0.21245240                0.41665754                2.87178846                0.26448564
               8.06166661                3.99326238                3.99812171                0.25060150               -0.02143217                0.14240609               -0.24358285                0.10563586                1.63037804                0.77202199
               9.06336624                3.98921584                3.97278271                1.00000000                0.25464090                0.25075160               -0.85853586               -0.04552790                0.10813892                0.20484783
              10.06675942                3.98640589                3.94564376                1.00000000                0.33931861                0.33629352               -1.31503073               -0.04086224                0.00177057               -0.21242665
               0.06747938                5.01252017                4.04859445                1.00000000               -0.26937062               -0.25913432                1.14048417               -0.05700909                0.07021772                0.35946713
               1.06478568                5.00871464                4.01889967                0.94066429               -0.16033926               -0.13204705                0.50271128               -0.03984066                0.09133828               -0.05185387
               2.06427260                5.00443780                3.98931444                0.00010000                0.13322468               -0.00686157               -0.12955457                0.11810398                1.54603554               -0.43601833
               3.06745017                5.00259727                3.98897401                0.00010000                0.26201178                0.13186920               -0.24196462                0.29710486                3.09253400               -0.36866376
               4.06951283                5.00006428                3.99046630                0.00010000                0.17079588                0.13113373               -0.31983043                0.29893304                3.16353203               -0.28201849
               5.07086609                4.99808604                3.99317528                0.00010000                0.05764522                0.10674895               -0.26647178                0.39152919                3.18960475               -0.13483733
               6.07066574                4.99649819                3.99643535                0.00010000               -0.11076360                0.07602234               -0.15159061                0.39318770                3.26778393                0.03677729
               7.06865081                4.99515210                4.00134579                0.00010000               -0.28013799                0.06850378               -0.05411280                0.34081744                3.49184615                0.27830890
               8.06506298                4.99447238                4.00880969                0.26225562               -0.13440644                0.10277103               -0.07068490                0.12038531                1.88668081                0.58947928
               9.06596269                4.99146963                3.98075224                0.99329710                0.18462143                0.19103492               -0.63033716               -0.02864628                0.07197830                0.15250779
              10.06875541                4.98934710                3.95157160                1.00000000                0.27927194                0.26003089               -1.12321937               -0.04096657                0.00712220               -0.22280860
               0.07009322                6.01007589                4.04418405                1.00000000               -0.22777542               -0.23288216                1.03179434               -0.06139977                0.07019442                0.28278388
               1.06781546                6.00761315                4.01258834                0.78042997               -0.10792654               -0.08899907                0.34340376               -0.04363071                0.11829260               -0.08088608
               2.06793469                6.00463021                3.98164064                0.00010000                0.21722809                0.03647535               -0.34031297                0.08505402                1.72571803               -0.41512106
               3.07216003                6.00330937                3.98227844                0.00010000                0.29966891                0.02527725               -0.02706076                0.24004310                3.71523853               -0.53547045
               4.07392807                6.00122224                3.98657657                0.00010000                0.18878831                0.10213319               -0.37373464                0.19423315                3.77013611               -0.36960324
               5.07593579                5.99912642                3.99271736                0.00010000                0.07998311                0.10251248               -0.28262413                0.26126269                3.72054198               -0.14105315
               6.07552773                5.99726470                3.99909285                0.00010000               -0.16493804                0.07048332               -0.06478692                0.27500568                3.78671109                0.04122608
               7.07263703                5.99577949                4.00750057                0.00010000               -0.38854732                0.04876467                0.09500192                0.26224342                4.05384163                0.24273612
               8.06775678                5.99531780                4.01865122                0.27959900               -0.23592186                0.05464722                0.11262364                0.09701366                2.11979393                0.51792228
               9.06791859                5.99303654                3.98822832                0.91054692                0.12141816                0.12421948               -0.40430679               -0.02500437                0.03598790                0.13282796
              10.07018515                5.99160651                3.95740766                1.00000000                0.22665507                0.19453466               -0.94092520               -0.03278948                0.02439812               -0.18765426
               0.07117686                7.00786252                4.03954174                1.00000000               -0.18181239               -0.20882068                0.92448718               -0.06903211                0.04989660                0.22849900
               1.06935874                7.00693466                4.00619849                0.69321167               -0.04497000               -0.04550972                0.15879215               -0.06294669                0.12282322               -0.07006752
               2.07027746                7.00516731                3.97396812                0.00010000                0.31501328                0.09061194               -0.61200292               -0.03526432                1.88185625               -0.34427744
               3.07565901                7.00310282                3.97560426                0.00010000                0.36514884               -0.00421876               -0.04771213                0.14818839                4.24321506               -0.57662130
               4.07758044                7.00210694                3.98192305                0.00010000                0.21949361                0.12526015               -0.47809271                0.19716322                4.31924497               -0.38439471
               5.08004888                7.00013629                3.99173932                0.00010000                0.09661688                0.10119946               -0.31121719                0.17264014                4.24666858               -0.13937489
               6.07951278                6.99790785                4.00136990                0.00010000               -0.21031470                0.05977121                0.01578461                0.16490911                4.28139733                0.03377500
               7.07584258                6.99612739                4.01310814                0.00010000               -0.48832887                0.01523697                0.24724053                0.16402595                4.57014386                0.20529363
               8.06974620                6.99556533                4.02775535                0.30108487               -0.33343458               -0.00779285                0.29790148                0.04458398                2.34536883                0.43023836
               9.06917389                6.99395402                3.99552274                0.85546863                0.06067431                0.06347630               -0.19358166               -0.03307108                0.00693688                0.13853479
              10.07095969                6.99323780                3.96327305                0.99527444                0.17857947                0.15087028               -0.79239747               -0.04047463                0.02395010               -0.13049243
               0.07056831                8.00589948                4.03487705                0.99915932               -0.13165584               -0.18917722                0.81816661               -0.07252579                0.05411796                0.19965933
               1.06925175                8.00670296                4.00032841                0.68242027                0.02464685                0.00980941               -0.05668728               -0.07402801                0.15951924               -0.01911411
               2.07106124                8.00644245                3.96748044                0.06057823                0.44662056                0.20546486               -0.97767959               -0.18901192                1.85121073               -0.19127070
               3.07818416                8.00322499                3.96597181                0.00010000                0.48883083                0.22392357               -0.76376432               -0.09421447                4.58407986               -1.08282324
               4.08083786                8.00372744                3.97697603                0.00010000                0.27017612                0.17655053               -0.65043836                0.18018885                4.89075335               -0.28776922
               5.08358768                8.00115041                3.99048748                0.00010000                0.09984719                0.09348348               -0.34185440                0.08350776                4.73585325               -0.11485169
               6.08283480                7.99846012                4.00324224                0.00010000               -0.26638041                0.06765357                0.08818165                0.06982940                4.73403408                0.03048342
               7.07826007                7.99608423                4.01802669                0.00010000               -0.60064846               -0.00651136                0.40853726                0.03557068                5.01619744                0.15560229
               8.07082184                7.99516194                4.03562867                0.32520254               -0.43376840               -0.10217314                0.53378752               -0.04112679                2.57321413                0.26048182
               9.06958471                7.99430607                4.00261246                0.84336307               -0.00068686                0.00653693                0.00339148               -0.04645452                0.02554526                0.13387184
              10.07080810                7.99462391                3.96916853                0.95743068                0.12233919                0.13810441               -0.67995621               -0.04832495                0.01779704               -0.08773589
               0.06811939                9.00407898                4.03020600                0.99041109               -0.07841809               -0.17868120                0.70985423               -0.05956568                0.09232277                0.15193169
               1.06733521                9.00713085                3.99497015                0.73824791                0.09279030                0.08589440               -0.29370744               -0.04626696                0.24631188                0.00710860
               2.06997519                9.00927660                3.96219249                0.16191741                0.45772600                0.37901703               -1.37682407               -0.20963052                1.40184593               -0.07026324
               3.07648973                9.00758129                3.94839814                0.00010000                0.66418027                0.61819914               -1.96262407               -0.29362404                4.67045222               -0.89186263
               4.08325880                9.00563795                3.97316697                0.00010000                0.52483114                0.12999917               -0.79277400                0.00986512                5.76029675               -0.18356875
               5.08698635                9.00200596                3.98926115                0.00010000                0.13583726                0.09103516               -0.36482718                0.02370634                5.12804144               -0.06560156
               6.08597554                8.99926092                4.00476613                0.00010000               -0.35670849                0.07736128                0.15433242                0.01421845                5.13342145                0.03148142
               7.07985218                8.99599716                4.02202486                0.00010000               -0.76368574                0.06781581                0.53932888               -0.07458747                5.35754017                0.07688629
               8.07070183                8.99352187                4.04137041                0.34038532               -0.55346732               -0.26190982                0.93359433               -0.18669450                2.85391479                0.10440947
               9.06878283                8.99408476                4.00940043                0.89088805               -0.06721645               -0.06498024                0.22274688               -0.04934853                0.14175147                0.09438497
              10.06935750                8.99599988                3.97484189                0.93790202                0.05746669                0.13706607               -0.56450510               -0.05113842                0.01227192               -0.07743248
               0.06327326               10.00232585                4.02470627                0.99288553               -0.01444730               -0.17531254                0.53352241                0.12488637                0.19363419                0.12206211
               1.06312879               10.00842085                3.98944251                0.90538028                0.15724671                0.12899995               -0.51691208                0.16420483                0.37567919                0.01451422
               2.06641819               10.01402279                3.95718995                0.62122594                0.64107728                0.47461889               -1.60339311                0.00270630                1.50259029               -0.01179687
               3.07595033               10.01558897                3.94268060                0.33229899                1.00961507                0.80076858               -2.23296684               -0.43870788                4.90748037               -0.28558547
               4.08661049               10.00632742                3.97005722                0.32265866                0.72442520                0.06894739               -0.89199470               -0.29572346                6.11977855               -0.14335349
               5.09043884               10.00297111                3.98860303                0.34399796                0.12587349                0.09651567               -0.36208128                0.02924491                5.45184675               -0.03024458
               6.08912796               10.00000735                4.00585482                0.39093315               -0.39657265                0.07464262                0.21728909                0.03871378                5.43623262                0.03758698
               7.08250738                9.99744055                4.02476262                0.47929258               -1.00638054                0.14433827                0.65357406               -0.23865991                5.72388112                0.07278058
               8.06900035                9.98992375                4.04644283                0.67026770               -0.81938323               -0.35981202                1.22755869               -0.39185184                3.11756916               -0.04051939
               9.06611972                9.99300646                4.01566793                0.97546640               -0.15226388               -0.10782944                0.46232288                0.10576279                0.28381627                0.06734399
              10.06595508                9.99736523                3.98068795                0.97335506               -0.01646422                0.13653488               -0.36530490                0.09563457                0.07895174               -0.08008690
               0.05579859                0.04143641                5.08730935                1.00000000               -0.43081293               -0.49283036                1.68641667               -0.09818716               -0.26302240                0.31310309
               1.05149046                0.02862612                5.06312952                1.00000000               -0.35445326               -0.36446911                1.26370807               -0.07561895               -0.29056702               -0.01417013
               2.04870953                0.01556667                5.03827928                0.94691774               -0.19528583               -0.24740980                0.83960815               -0.05799078               -0.25331936               -0.18039027
               3.04758474                0.00286279                5.01482733                0.51757701                0.22341596               -0.15362670                0.43759494                0.22325992                0.39500364               -0.16619134
               4.05317784               -0.00394062                5.00288307                0.49195214                0.49616321               -0.22237637                0.20861690                0.07878132                1.12724951               -0.01696788
               5.05750801               -0.00663610                4.99246227                0.52171712                0.27107456               -0.03912664               -0.12916914               -0.01775071                1.07837231                0.00446085
               6.05859934               -0.00887557                4.97974879                0.56594523                0.03651227                0.14431622               -0.50628336                0.01228900                0.95619773                0.02957669
               7.05823825               -0.01393797                4.96649930                0.74320414                0.05493618                0.26003593               -0.82389542                0.07513153                0.63761368                0.02670443
               8.05969806               -0.02246246                4.94698636                1.00000000                0.25338128                0.33913833               -1.14855570                0.00103594                0.13117056                0.23842718
               9.06330588               -0.03227635                4.92366075                1.00000000                0.42718894                0.43139485               -1.50133760               -0.05748721               -0.10130828                0.02712153
              10.06824184               -0.04195596                4.89955189                1.00000000                0.49359583                0.54375266               -1.86161871               -0.08269718               -0.14729250               -0.17467468
               0.06762702                1.03650811                5.07997742                1.00000000               -0.39578713               -0.47043646                1.55304443               -0.04430872               -0.00509010                0.43276169
               1.06366914                1.02498143                5.05541765                1.00000000               -0.33078686               -0.34087360                1.12592875               -0.02945373                0.05341312               -0.01535054
               2.06101128                1.01309257                5.03183553                0.60842790               -0.20490779               -0.22052922                0.71852363               -0.01451583                0.25802570               -0.41189657
               3.05957099                1.00132653                5.01140274                0.00010000               -0.11480874               -0.14099843                0.34886501                0.22853202                0.99750195               -0.46815923
               4.05871510                0.99383561                5.00281765                0.00010000                0.01134929               -0.02693303                0.17996946                0.52663467                1.54140368               -0.29711642
               5.05979797                0.99297264                4.99421798                0.00010000                0.18290289               -0.00775282               -0.12402915                0.66760143                1.40646684               -0.18791634
               6.06237316                0.99256759                4.98323530                0.00010000                0.29925216                0.02509112               -0.46961214                0.54279845                1.24470705               -0.03299944
               7.06578302                0.98866239                4.97133499                0.22288917                0.32522250                0.26980551               -0.74445030                0.29876068                1.04973868                0.33428671
               8.06887761                0.98092892                4.95567903                1.00000000                0.33473680                0.31236601               -1.01824285                0.05678685                0.50827105                0.28917833
               9.07247775                0.97203759                4.93215638                1.00000000                0.41084280                0.40717485               -1.36463788               -0.01156446                0.08691127                0.07110462
              10.07709447                0.96348157                4.90797848                1.00000000                0.46167137                0.52386240               -1.72524298               -0.03079083                0.04669049               -0.20728528
               0.07796578                2.03202768                5.07482967                1.00000000               -0.36488584               -0.42306263                1.44281533               -0.05745781                0.04196398                0.55834392
               1.07431693                2.02180864                5.04766232                1.00000000               -0.29458390               -0.29282821                0.98354689               -0.04653780                0.07443188               -0.02855307
               2.07207411                2.01115608                5.02088256                0.24261172               -0.14522928               -0.16757085                0.53607639               -0.04419011                0.50496058               -0.66822064
               3.07141234                2.00004283                5.00237108                0.00010000               -0.00048386               -0.10696693                0.19108176                0.36708455                1.60657462               -0.90466286
               4.07206443                1.99552072                4.99748242                0.00010000                0.03578583                0.16218659               -0.00258856                0.88497178                2.20392891               -0.50443904
               5.07212806                1.99320885                4.99220894                0.00010000                0.08505605                0.06090095               -0.15983608                0.99695528                2.04818951               -0.33215022
               6.07376555                1.99162626                4.98575592                0.00010000                0.18620429               -0.01815080               -0.43217562                0.98861636                2.14476853               -0.07562754
               7.07585214                1.99145814                4.98253636                0.00010000                0.18465211                0.07150533               -0.52824307                0.54966482                1.64145354                0.21589143
               8.07745859                1.98378486                4.96523197                0.41574283                0.23348983                0.25547886               -0.85946593                0.01413374                0.63234758                0.54797212
               9.08052194                1.97586714                4.94152877                1.00000000                0.36397375                0.35694006               -1.22212627               -0.02499831                0.22244867                0.24937648
              10.08473807                1.96852129                4.91595524                1.00000000                0.42161281                0.48076841               -1.59731782               -0.03804284                0.12025944               -0.21995537
               0.08691594                3.02804686                5.06993046                1.00000000               -0.33059497               -0.37347225                1.32935635               -0.06064447                0.04150663                0.55912029
               1.08360999                3.01912486                5.03967265                1.00000000               -0.25113218               -0.24308167                0.82879348               -0.04757410                0.05299642               -0.03931908
               2.08189330                3.00974115                5.00935559                0.07215398               -0.05309716               -0.11433498                0.32918012               -0.07549311                0.63807985               -0.65965622
               3.08254805                2.99918719                4.99091459                0.00010000                0.06776121                0.09013242               -0.05449818                0.39139275                2.24155448               -0.49572016
               4.08324852                2.99707935                4.99325105                0.00010000                0.05417484                0.15137331               -0.13498287                0.79925536                2.97958228               -0.38124307
               5.08363154                2.99419066                4.99115719                0.00010000                0.03238371                0.11716245               -0.23720849                0.83160903                2.66033215               -0.25011865
               6.08389619                2.99220458                4.98845573                0.00010000                0.04930850                0.06388422               -0.32182843                0.78436962                2.52511422               -0.04372135
               7.08461771                2.99009250                4.98434838                0.00010000                0.04275458               -0.05238336               -0.43976068                0.54063624                2.41143500                0.02437698
               8.08475129                2.98603850                4.97893853                0.24201400                0.13118196                0.20871912               -0.60743353                0.13924649                1.36856761                0.88157092
               9.08724135                2.97917639                4.95350460                1.00000000                0.31370130                0.30959845               -1.04603371               -0.02779243                0.19011836                0.33222838
              10.09102531                2.97309694                4.92428181                1.00000000                0.37839594                0.42343892               -1.45374614               -0.03624305               -0.01249993               -0.20509125
               0.09459689                4.02455824                5.06497251                1.00000000               -0.29257390               -0.32980296                1.21513220               -0.05839112                0.04593767                0.52584015
               1.09167115                4.01694701                5.03177544                1.00000000               -0.20474851               -0.19363195                0.66960374               -0.04189835                0.05839955               -0.03755947
               2.09050192                4.00886938                4.99852437                0.00010000                0.01154272               -0.05799367                0.12401712                0.04260464                1.28422937               -0.58839818
               3.09190200                4.00184547                4.99000732                0.00010000                0.12720768                0.24775704               -0.21320376                0.37806510                2.86951812               -0.04139339
               4.09304607                3.99854818                4.99020554                0.00010000                0.08665014                0.15938715               -0.23257942                0.61539761                3.25657802               -0.27423731
               5.09363501                3.99555210                4.99076228                0.00010000                0.02525153                0.13542832               -0.25633839                0.65667546                3.20823668               -0.18177052
               6.09355110                3.99290394                4.99117484                0.00010000               -0.04020278                0.08244114               -0.26453156                0.63990202                3.19072181                0.00255540
               7.09283095                3.99041047                4.99204963                0.00010000               -0.11957383                0.05611160               -0.28970672                0.51892373                3.32445007                0.34713310
               8.09115962                3.98795924                4.99497770                0.24226686                0.00383496                0.16877514               -0.35441670                0.17790656                1.77287910                0.86154454
               9.09290765                3.98205911                4.96420933                1.00000000                0.25062471                0.26102911               -0.85436484               -0.02566447                0.05092102                0.24962284
              10.09617212                3.97699007                4.93264846                1.00000000                0.32644698                0.35496765               -1.28682920               -0.03744557                0.00009908               -0.22650434
               0.10097057                5.02145080                5.05982755                1.00000000               -0.25096950               -0.29634478                1.10457951               -0.05899298                0.06129276                0.47172793
               1.09846088                5.01525222                5.02399336                0.92783002               -0.15618238               -0.14555671                0.51067550               -0.03949273                0.08610454               -0.05339127
               2.09784692                5.00858128                4.98833147                0.00010000                0.09848353               -0.00052961               -0.07555518                0.10848362                1.79925984               -0.53514361
               3.10043055                5.00414233                4.98694624                0.00010000                0.20014629                0.17838527               -0.19806987                0.36109414                3.54110433               -0.29061371
               4.10184985                5.00026709                4.98765261                0.00010000                0.09893741                0.16813691               -0.26953304                0.45945516                3.67966975               -0.27743610
               5.10240930                4.99689922                4.99057618                0.00010000               -0.00069979                0.13759226               -0.25484963                0.49165969                3.77305134               -0.16033908
               6.10183585                4.99385340                4.99467227                0.00010000               -0.12342042                0.09947655               -0.19509323                0.48157916                3.86057310                0.05577165
               7.09994089                4.99121473                5.00021896                0.00010000               -0.25875380                0.08085515               -0.14536166                0.43551883                4.03082614                0.35304034
               8.09666078                4.98941400                5.00776841                0.25452423               -0.11218285                0.11578621               -0.13487439                0.16530894                2.10059673                0.66752664
               9.09769723                4.98439698                4.97434106                0.99379901                0.18768514                0.20173917               -0.64527576               -0.02406232                0.03555524                0.20256283
              10.10041448                4.98019629                4.94040547                1.00000000                0.27172509                0.29111652               -1.11133376               -0.03832352                0.00281561               -0.24872648
               0.10581418                6.01863134                5.05435576                1.00000000               -0.20633671               -0.26627211                0.99503782               -0.06339527                0.06611144                0.41442333
               1.10375081                6.01403588                5.01599819                0.76553634               -0.10163485               -0.09728531                0.33935435               -0.04622112                0.12551288               -0.08848675
               2.10378148                6.00885879                4.97847553                0.00010000                0.18436319                0.05220982               -0.29708543                0.08224861                2.11741052               -0.54061591
               3.10743808                6.00541318                4.98013837                0.00010000                0.28483999                0.13283635               -0.25912721                0.28299038                4.11001204               -0.47973469
               4.10947828                6.00191092                4.98398391                0.00010000                0.12219055                0.16761150               -0.27380286                0.33340000                4.29557126               -0.35816991
               5.10988189                5.99830394                4.99008750                0.00010000               -0.03055525                0.14430037               -0.24852844                0.33349426                4.38464303               -0.16924429
               6.10886718                5.99489347                4.99807463                0.00010000               -0.19505793                0.10155109               -0.12174066                0.33330556                4.50253762                0.05821762
               7.10598073                5.99202758                5.00783838                0.00010000               -0.37918108                0.06764893                0.00032700                0.32278688                4.67989877                0.31712324
               8.10128356                5.99027496                5.01963064                0.27146672               -0.21683089                0.05382830                0.08008469                0.11949299                2.41689093                0.59035085
               9.10164411                5.98609389                4.98396490                0.91488380                0.12617318                0.13939350               -0.43558830               -0.02508261                0.03931507                0.17469834
              10.10380702                5.98281240                4.94793214                1.00000000                0.21629083                0.23329486               -0.94458236               -0.03473779                0.01344698               -0.24333913
               0.10889360                7.01612536                5.04862273                1.00000000               -0.15845932               -0.23137471                0.87981726               -0.06688073                0.04729125                0.37728349
               1.10730901                7.01330652                5.00767474                0.67567748               -0.03895028               -0.04738012                0.14436046               -0.05912496                0.13046066               -0.09791258
               2.10811459                7.00962548                4.96801900                0.00010000                0.28646092                0.11658210               -0.57302975                0.02039414                2.37091464               -0.53464056
               3.11303823                7.00679906                4.97212534                0.00010000                0.37562477                0.20763857               -0.41735492                0.12117600                4.61097112               -0.71721569
               4.11562709                7.00361932                4.97881014                0.00010000                0.15292037                0.19043563               -0.33280553                0.16385699                4.89199252               -0.43517427
               5.11609663                6.99978523                4.98899089                0.00010000               -0.04243804                0.14745429               -0.25267218                0.18077374                5.02303776               -0.17074472
               6.11477833                6.99588442                5.00107477                0.00010000               -0.25407501                0.09551055               -0.04927295                0.18479395                5.12819063                0.05005469
               7.11101513                6.99256771                5.01494734                0.00010000               -0.48970042                0.03601738                0.15054864                0.18508178                5.29947863                0.27957658
               8.10498432                6.99049057                5.03086664                0.29124559               -0.31784960               -0.02050500                0.30536731                0.04840815                2.72959349                0.51434714
               9.10465814                6.98718485                4.99333836                0.85596962                0.06491965                0.08056476               -0.23001104               -0.03169682                0.04652230                0.16250342
              10.10628271                6.98486219                4.95525571                0.99593257                0.16245730                0.18501536               -0.79471204               -0.03695532                0.00903269               -0.22788296
               0.11011424                8.01400385                5.04281520                0.99591118               -0.10460514               -0.19636150                0.75650948               -0.06653806                0.04507884                0.36147619
               1.10906819                8.01308827                4.99955184                0.65956949                0.02912901                0.01280567               -0.07822022               -0.05984956                0.14453525               -0.07429048
               2.11069682                8.01119043                4.95788355                0.04264422                0.33997799                0.22652644               -0.92069275               -0.01652352                2.30133726               -0.45481384
               3.11586775                8.00956595                4.95811724                0.00010000                0.45362127                0.34803413               -0.67818627               -0.23688550                4.94470714               -1.33773616
               4.11976925                8.00571963                4.97211647                0.00010000                0.26822524                0.18903622               -0.48243642               -0.08806421                5.66971212               -0.44086200
               5.12123226                8.00125303                4.98755321                0.00010000                0.00056638                0.12857172               -0.27197092                0.04558755                5.66878234               -0.13895344
               6.11978058                7.99680368                5.00363181                0.00010000               -0.30780178                0.10283731                0.01955548                0.06032069                5.71709044                0.04281049
               7.11507622                7.99274792                5.02145349                0.00010000               -0.60729992                0.01635062                0.30699555                0.01365955                5.88640426                0.21793035
               8.10763458                7.98986486                5.04132426                0.31275368               -0.42188356               -0.12737832                0.57190448               -0.05323978                3.04774905                0.41510229
               9.10663855                7.98770519                5.00245872                0.84576694                0.00393249                0.01906155               -0.02700047               -0.03523238                0.07215834                0.15770888
              10.10771323                7.98651271                4.96246128                0.95467785                0.10746780                0.15538518               -0.65684629               -0.04285166                0.00697578               -0.22242657
               0.10939399                9.01219813                5.03695802                0.98717832               -0.04685574               -0.17007152                0.62763249               -0.05485095                0.06593364                0.29292448
               1.10892543                9.01356263                4.99166610                0.70780176                0.09562293                0.08923887               -0.32319123               -0.03066577                0.19658732               -0.05631179
               2.11130645                9.01415601                4.94857742                0.11886858                0.24229414                0.35282520               -1.28626307               -0.04756414                1.74462034               -0.29697816
               3.11377131                9.01375974                4.93473811                0.00010000                0.54361415                0.33840312               -0.99304498               -0.42636395                5.19996122               -1.08880105
               4.12217873                9.00740004                4.96583604                0.00010000                0.60765114                0.09243382               -0.67220500               -0.23854089                6.85674039               -0.32371798
               5.12592434                9.00235666                4.98624248                0.00010000                0.11555569                0.09827884               -0.29116615               -0.00676445                6.24057247               -0.07277350
               6.12448984                8.99794117                5.00576844                0.00010000               -0.38485976                0.11131575                0.08090409               -0.00172853                6.23254755                0.03103489
               7.11822714                8.99289472                5.02691687                0.00010000               -0.77637925                0.09028679                0.45808618               -0.12542231                6.43667756                0.11646999
               8.10896226                8.98794300                5.05091972                0.32925305               -0.54607469               -0.24040180                0.90835320               -0.21781441                3.40373307                0.26413402
               9.10730565                8.98756608                5.01149748                0.89290221               -0.05758076               -0.05418820                0.19215783               -0.02213231                0.12472002                0.13941065
              10.10781064                8.98796989                4.96947049                0.93573690                0.05049963                0.13637303               -0.51507227               -0.04491939               -0.00945119               -0.18941557
               0.10628822               10.01060242                5.02968966                0.99174020                0.02087803               -0.15957067                0.45051712                0.11648616                0.24228629                0.24058896
               1.10649700               10.01487305                4.98385974                0.88892760                0.16301068                0.13104226               -0.54628840                0.13938257                0.44061346               -0.05478827
               2.10954843               10.01824694                4.94160572                0.58704244                0.37997182                0.40909329               -1.48061150               -0.10275356                1.98256820               -0.22772270
               3.11409643               10.01633401                4.92711453                0.32881189                0.84265382                0.25742740               -1.20418773               -0.50141933                5.49327751               -0.61085768
               4.12640151               10.00756831                4.96175473                0.32287136                0.82297039                0.01682672               -0.74806428               -0.23349282                7.32289439               -0.26203893
               5.13055584               10.00321860                4.98562817                0.34521195                0.14032209                0.08619395               -0.29472168                0.03623478                6.66816984               -0.03636294
               6.12920795                9.99903000                5.00742562                0.39174574               -0.39949482                0.10888266                0.13463408                0.03856339                6.63869571                0.03665681
               7.12256595                9.99455366                5.03093637                0.47857324               -1.03005086                0.16589403                0.58100907               -0.26477806                6.91997275                0.07222701
               8.10860693                9.98505683                5.05850474                0.66799883               -0.81984675               -0.28861721                1.13214231               -0.43214443                3.80698125                0.21098364
               9.10616901                9.98662143                5.02010622                0.97470315               -0.12998604               -0.09446520                0.41509964                0.09550338                0.32127404                0.13096761
              10.10600721                9.98924017                4.97721800                0.97291024               -0.01617993                0.12702761               -0.32880159                0.08153099                0.09927366               -0.16073159
               0.07927447                0.05278169                6.10398565                1.00000000               -0.42432926               -0.48162901                1.64820125               -0.09159606               -0.30201094                0.35597213
               1.07503118                0.03689136                6.07575649                1.00000000               -0.35077976               -0.36214677                1.25825302               -0.06835315               -0.33274821               -0.01328103
               2.07225888                0.02071339                6.04677835                0.96228429               -0.19356374               -0.25168163                0.85454562               -0.05309646               -0.28415098               -0.19636721
               3.07115991                0.00493900                6.01948455                0.53683439                0.26012966               -0.17055842                0.48218482                0.26676275                0.45114155               -0.19751079
               4.07746147               -0.00394862                6.00515301                0.53045167                0.52108225               -0.22752586                0.23406473                0.05984310                1.17729332               -0.02056160
               5.08158155               -0.00839474                5.99124067                0.56786800                0.26520000               -0.03705408               -0.11762615               -0.01809757                1.04244373                0.00268972
               6.08276547               -0.01227504                5.97472288                0.60112060                0.05084693                0.13083517               -0.49549382                0.00605676                0.91885416                0.02332061
               7.08259849               -0.01889115                5.95824800                0.76772784                0.06304093                0.25182035               -0.82505127                0.07208931                0.62062047                0.02780610
               8.08402629               -0.02925413                5.93542745                1.00000000                0.25061227                0.34336099               -1.15788832                0.01284961                0.10227058                0.26445115
               9.08761074               -0.04115722                5.90867191                1.00000000                0.42304199                0.42990259               -1.49529398               -0.05261797               -0.13783554                0.03000087
              10.09248713               -0.05295428                5.88111978                1.00000000                0.48763946                0.53391495               -1.82993091               -0.07940006               -0.18307588               -0.20576253
               0.09424885                1.04796540                6.09527750                1.00000000               -0.38670449               -0.46211784                1.50880185               -0.04117014               -0.01023916                0.49002796
               1.09038180                1.03326989                6.06663066                1.00000000               -0.32723778               -0.33894824                1.11560502               -0.02431814                0.05528504               -0.01304411
               2.08770409                1.01819657                6.03912538                0.63803255               -0.21116327               -0.22335567                0.73547264               -0.01269920                0.28256894               -0.45288184
               3.08615854                1.00323342                6.01506114                0.00010000               -0.14886575               -0.16014467                0.37659795                0.28961061                1.13456483               -0.51817742
               4.08472678                0.99377612                6.00482129                0.00010000               -0.02973741               -0.02952730                0.20701870                0.59650042                1.68309304               -0.34784961
               5.08556379                0.99123472                5.99306378                0.03010283                0.16737339               -0.00747420               -0.11116532                0.71551076                1.43908541               -0.18233339
               6.08807424                0.98903331                5.97856369                0.00273131                0.31225688                0.01417006               -0.46104662                0.58626969                1.27978514               -0.06083050
               7.09180893                0.98362705                5.96384717                0.24764407                0.36067882                0.27705135               -0.74817032                0.34961199                1.10924243                0.39662139
               8.09528782                0.97417948                5.94538834                1.00000000                0.35628547                0.31723673               -1.03194302                0.08297246                0.53905296                0.32356959
               9.09893463                0.96314181                5.91854313                1.00000000                0.41011881                0.40734038               -1.35649723               -0.00745759                0.08478264                0.07425786
              10.10349020                0.95238487                5.89092049                1.00000000                0.45555612                0.51414163               -1.69121519               -0.03013334                0.04075135               -0.24240109
               0.10784209                2.04353933                6.08902648                1.00000000               -0.35284446               -0.42264763                1.39835548               -0.05213983                0.04028295                0.63120587
               1.10431365                2.03011239                6.05744762                1.00000000               -0.29003641               -0.29299436                0.97348594               -0.03953713                0.07761464               -0.02984518
               2.10204136                2.01624627                6.02639811                0.26251012               -0.14705413               -0.16747737                0.56432032               -0.04823539                0.55826962               -0.75098563
               3.10137256                2.00173611                6.00448213                0.00010000               -0.03255908               -0.11842585                0.22472615                0.42857692                1.77530357               -1.00650415
               4.10139018                1.99546084                5.99787281                0.00010000               -0.03689924                0.16248563                0.10534236                1.01281860                2.46463616               -0.62139136
               5.10063458                1.99145577                5.99109143                0.00010000                0.03541735                0.05449829               -0.00710078                1.09629714                2.17838571               -0.34796318
               6.10209853                1.98800836                5.98095321                0.00010000                0.19049880               -0.00912204               -0.56109938                1.09855938                2.29672803               -0.08244804
               7.10444456                1.98664988                5.97700625                0.00010000                0.20362272                0.07504329               -0.56097667                0.64275072                1.81124309                0.26602569
               8.10617098                1.97709061                5.95647939                0.40806464                0.24058229                0.26652294               -0.88063369                0.05118548                0.66632636                0.62364827
               9.10925620                1.96698959                5.92934291                1.00000000                0.36136826                0.36383969               -1.21304296               -0.01104287                0.23479640                0.26890128
              10.11339835                1.95732855                5.90017056                1.00000000                0.41421471                0.47206626               -1.56367809               -0.03319727                0.12686034               -0.25507583
               0.12005993                3.03951245                6.08301467                1.00000000               -0.31758134               -0.38305252                1.28834143               -0.05558620                0.03662265                0.63798796
               1.11688412                3.02741000                6.04794036                1.00000000               -0.24721336               -0.24650946                0.82352321               -0.04165115                0.04561590               -0.04450767
               2.11511566                3.01484702                6.01280922                0.08086947               -0.06843037               -0.11113366                0.35873335               -0.08392607                0.68550394               -0.75619719
               3.11551551                3.00086490                5.99062115                0.00010000                0.00739098                0.10381750               -0.00313520                0.41799211                2.50004164               -0.60888570
               4.11526348                2.99702584                5.99213848                0.00010000               -0.02866517                0.16262117               -0.08501907                0.89421869                3.33834349               -0.47989739
               5.11494221                2.99232468                5.98891721                0.00010000               -0.02060778                0.12406310               -0.21618353                0.94625029                2.99669447               -0.32391480
               6.11485133                2.98885087                5.98512272                0.00010000                0.03197418                0.07852312               -0.32711393                0.89809108                2.84217539                0.00340845
               7.11558169                2.98512792                5.97966457                0.00010000                0.05602435               -0.05841882               -0.48850689                0.63477686                2.65981791                0.04470409
               8.11597182                2.97950994                5.97237146                0.23310832                0.14470731                0.22863904               -0.67714598                0.20420949                1.48536954                1.01650644
               9.11847584                2.97041860                5.94309582                1.00000000                0.30882590                0.31911268               -1.03493749               -0.01130258                0.19190889                0.36902282
              10.12214833                2.96182619                5.90992167                1.00000000                0.36724962                0.42117979               -1.42208149               -0.03500123               -0.01280093               -0.22732848
               0.13093526                4.03587828                6.07693778                1.00000000               -0.27892101               -0.34704823                1.17738198               -0.05392278                0.03923920                0.61616848
               1.12814605                4.02518220                6.03847957                1.00000000               -0.20136583               -0.19929720                0.66870819               -0.03674759                0.04874329               -0.04069162
               2.12690794                4.01402360                5.99996421                0.00010000               -0.02962276               -0.05316316                0.15972925                0.04097492                1.37635418               -0.68109323
               3.12755359                4.00381246                5.98818131                0.00010000                0.04534170                0.28945243               -0.17736443                0.40626326                3.22488812               -0.04960612
               4.12781478                3.99871326                5.98802144                0.00010000                0.00904798                0.18556761               -0.20605521                0.71686891                3.73201242               -0.31597452
               5.12773455                3.99393703                5.98825268                0.00010000               -0.02788305                0.16146734               -0.24609533                0.76154064                3.67106627               -0.20684971
               6.12725711                3.98957882                5.98838699                0.00010000               -0.06267665                0.09314795               -0.28696053                0.74637790                3.63334432                0.01041314
               7.12648102                3.98548150                5.98882310                0.00010000               -0.11463125                0.06481209               -0.34135555                0.63370379                3.71907272                0.39948716
               8.12496449                3.98166339                5.99103337                0.23433772                0.01164411                0.18300211               -0.41114645                0.24356702                1.93114543                0.99612292
               9.12671390                3.97337184                5.95569541                1.00000000                0.24593287                0.26733585               -0.84757792               -0.01751753                0.02997609                0.29466512
              10.12988315                3.96575214                5.91990718                1.00000000                0.31692451                0.36313519               -1.26296077               -0.03524118               -0.00095555               -0.24216794
               0.14037364                5.03257148                6.07068604                1.00000000               -0.23697865               -0.31545515                1.06545493               -0.05497638                0.05952253                0.57612974
               1.13800385                5.02342406                6.02911318                0.91222348               -0.15343650               -0.15100846                0.51141976               -0.03639121                0.08534457               -0.05871856
               2.13730491                5.01378376                5.98780333                0.00010000                0.04736334                0.00533857               -0.03323427                0.12323378                2.01657828               -0.64070120
               3.13895112                5.00665395                5.98501261                0.00010000                0.10856906                0.23615590               -0.18553742                0.41258647                3.98414811               -0.26631745
               4.13947629                5.00073719                5.98507564                0.00010000                0.01781711                0.20940242               -0.25317766                0.54878298                4.17959117               -0.28171543
               5.13930746                4.99555403                5.98807829                0.00010000               -0.06209322                0.16948946               -0.24957701                0.58900076                4.32210185               -0.16608215
               6.13823442                4.99071383                5.99253348                0.00010000               -0.15681294                0.12238646               -0.22417682                0.57203099                4.40984933                0.07304602
               7.13617120                4.98642416                5.99843856                0.00010000               -0.26408051                0.09560392               -0.19763751                0.53270696                4.54098508                0.40991098
               8.13295281                4.98316998                6.00611220                0.24661806               -0.10672338                0.11815971               -0.18159870                0.21723755                2.32369839                0.77537614
               9.13403673                4.97576532                5.96784673                0.99356282                0.18650482                0.20806825               -0.64948978               -0.01957991                0.01809792                0.25206822
              10.13668291                4.96908889                5.92934493                1.00000000                0.26461768                0.30686647               -1.09807202               -0.03581973               -0.00031762               -0.27412980
               0.14813058                6.02956918                6.06408481                1.00000000               -0.19246334               -0.28113639                0.94920380               -0.05846254                0.06695676                0.52927822
               1.14620595                6.02216203                6.01937543                0.74929650               -0.09939280               -0.10006499                0.33664117               -0.04354824                0.13122276               -0.10766966
               2.14614272                6.01413037                5.97569893                0.00010000                0.13229734                0.06413622               -0.25785981                0.11568994                2.42719297               -0.68735876
               3.14885189                6.00853558                5.97709589                0.00010000                0.18738164                0.20628414               -0.30194419                0.34535508                4.70119555               -0.54978314
               4.14989036                6.00290131                5.98110051                0.00010000                0.03430173                0.22668508               -0.28959811                0.39348476                4.85759185               -0.38380711
               5.14953793                5.99732682                5.98774679                0.00010000               -0.10313767                0.18508279               -0.23693266                0.40313963                5.01690400               -0.17826006
               6.14782760                5.99202655                5.99665803                0.00010000               -0.24294628                0.13189718               -0.15199474                0.39762386                5.15503035                0.07827885
               7.14467900                5.98739358                6.00750711                0.00010000               -0.39297608                0.08398257               -0.05223251                0.39345602                5.30691018                0.37592823
               8.13996808                5.98402658                6.02025291                0.26323245               -0.21378042                0.04943304                0.04771388                0.15669347                2.71243064                0.70044945
               9.14040339                5.97753321                5.97951656                0.91694649                0.12757602                0.14724734               -0.44913854               -0.02292888                0.03153438                0.21930034
              10.14251960                5.97188947                5.93851601                1.00000000                0.21162079                0.25310514               -0.93563540               -0.03323728                0.01360827               -0.29001432
               0.15401868                7.02694875                6.05713809                1.00000000               -0.14469845               -0.23877327                0.82334349               -0.05929885                0.04723909                0.49637819
               1.15257169                7.02142276                6.00908570                0.65885471               -0.03867586               -0.04681224                0.14083062               -0.05070548                0.13334171               -0.13693828
               2.15324516                7.01506648                5.96250753                0.00010000                0.22577940                0.13286879               -0.52663041                0.08683738                2.76011894               -0.74179628
               3.15708728                7.01077963                5.96725717                0.00010000                0.26547878                0.26609583               -0.46616265                0.20989443                5.36565356               -0.84217007
               4.15855473                7.00527089                5.97526694                0.00010000                0.05788637                0.24915007               -0.34906921                0.16909125                5.58035313               -0.53307013
               5.15824501                6.99925568                5.98668588                0.00010000               -0.12172947                0.18964636               -0.23051729                0.19954738                5.76885118               -0.20499973
               6.15612015                6.99335177                6.00038444                0.00010000               -0.31023602                0.12980560               -0.07862495                0.21484271                5.89966759                0.06618568
               7.15204029                6.98810381                6.01611911                0.00010000               -0.50865475                0.05398670                0.09770803                0.22117872                6.05452036                0.34237093
               8.14594705                6.98415865                6.03386270                0.28292278               -0.31625119               -0.03078390                0.28616390                0.07049808                3.10146843                0.64626439
               9.14571526                6.97871027                5.99092252                0.85565456                0.06792908                0.08839604               -0.24926510               -0.02600919                0.04669499                0.19858840
              10.14730563                6.97415100                5.94737881                0.99575742                0.15903689                0.20355652               -0.78056243               -0.03478230                0.01286298               -0.30060968
               0.15799660                8.02479371                6.05000724                0.99299321               -0.09224893               -0.19428744                0.68667975               -0.05663121                0.04032333                0.48132058
               1.15707411                8.02122579                5.99876400                0.63833862                0.02629996                0.01369772               -0.07479627               -0.04650534                0.12864345               -0.13351252
               2.15852260                8.01678775                5.94906659                0.02385460                0.28856342                0.22741904               -0.84138095                0.05910688                2.83992327               -0.70292744
               3.16284538                8.01385749                5.95240809                0.00010000                0.31367674                0.30141709               -0.50581974               -0.13801887                5.96641432               -1.52977627
               4.16479613                8.00788431                5.96732730                0.00010000                0.13013092                0.21272219               -0.42499566               -0.12016214                6.51310995               -0.59101800
               5.16544799                8.00111975                5.98504806                0.00010000               -0.07598999                0.16099206               -0.24228213                0.01793696                6.57583477               -0.19470054
               6.16327633                7.99462266                6.00363335                0.00010000               -0.35761454                0.13680208               -0.00955255                0.05927636                6.62596573                0.05293376
               7.15829570                7.98847331                6.02416660                0.00010000               -0.62523709                0.03699381                0.25052435                0.00912026                6.79333055                0.28356888
               8.15077159                7.98341090                6.04706676                0.30463379               -0.42024224               -0.12672850                0.54767998               -0.04616758                3.49715911                0.58282675
               9.14989086                7.97930113                6.00207245                0.84710126                0.00854525                0.02575992               -0.04907002               -0.02195491                0.06300700                0.19158427
              10.15094249                7.97596060                5.95603160                0.95434651                0.10516353                0.16519273               -0.63201086               -0.03821175                0.00841441               -0.30671223
               0.16002190                9.02306300                6.04275865                0.98453377               -0.03743509               -0.15596803                0.54388481               -0.04751785                0.05294899                0.39437297
               1.15964755                9.02169671                5.98850632                0.67627104                0.08868438                0.08560059               -0.30543528               -0.02486254                0.17210906               -0.11780228
               2.16179559                9.01961486                5.93646723                0.07511562                0.17913938                0.33119986               -1.15813422               -0.02982804                2.46660076               -0.48924952
               3.16323034                9.01680797                5.92853724                0.00010000                0.35468219                0.23807465               -0.35482489               -0.36340167                6.60284843               -1.37557934
               4.16888923                9.00952533                5.95972287                0.00010000                0.43175268                0.06824737               -0.51656246               -0.22869191                7.87884111               -0.42317644
               5.17186539                9.00247553                5.98343783                0.00010000                0.05314388                0.11763661               -0.26088426               -0.03770843                7.31050219               -0.11434017
               6.16995211                8.99608781                6.00638421                0.00010000               -0.42154717                0.14017367                0.05070248               -0.01572451                7.28132080                0.03473523
               7.16343445                8.98884369                6.03118658                0.00010000               -0.78781153                0.11863862                0.39924365               -0.14658611                7.50585456                0.16778462
               8.15419588                8.98162408                6.05953748                0.32162614               -0.53539918               -0.22187559                0.81467851               -0.22098448                3.94069636                0.41346666
               9.15272647                8.97922546                6.01324359                0.89340983               -0.04867169               -0.04464057                0.15826418               -0.01140738                0.10626399                0.17601788
              10.15322245                8.97745485                5.96454045                0.93610566                0.04959815                0.13474893               -0.47967656               -0.03833603               -0.01416113               -0.25818078
               0.15977883               10.02167435                6.03371662                0.99074455                0.02461707               -0.13886524                0.36978961                0.10203705                0.28484934                0.32291352
               1.16002500               10.02293780                5.97851675                0.87150610                0.15179725                0.12410880               -0.51873253                0.12461407                0.50175424               -0.11123645
               2.16281477               10.02341174                5.92757772                0.55738588                0.28209378                0.37968792               -1.35072992               -0.11402252                2.78853044               -0.33286728
               3.16566687               10.01861899                5.91859685                0.32747471                0.58699849                0.18110120               -0.53581740               -0.46447100                7.10565317               -0.81256570
               4.17455474               10.00924926                5.95509594                0.32312674                0.62322365               -0.02760769               -0.55530895               -0.19077446                8.51709982               -0.25687848
               5.17813135               10.00347248                5.98270860                0.34590274                0.10194686                0.09969579               -0.27185745                0.03543925                7.84440477               -0.04631203
               6.17659368                9.99742614                6.00854750                0.39210319               -0.41518134                0.13383230                0.09788203                0.03283669                7.79359187                0.03831784
               7.16982772                9.99084608                6.03638280                0.47882743               -1.03117781                0.20023968                0.50871097               -0.28331022                8.10552581                0.11261544
               8.15597012                9.97897339                6.06908568                0.66597379               -0.79978921               -0.26506820                1.00258632               -0.44446421                4.45807085                0.29308028
               9.15383193                9.97840832                6.02396992                0.97407691               -0.11265619               -0.08171464                0.36138756                0.09465634                0.35623216                0.16574484
              10.15371700                9.97865558                5.97411191                0.97358772               -0.01149360                0.12007311               -0.30180554                0.07418160                0.12412790               -0.21021561
               0.10621670                0.06597216                7.12027337                1.00000000               -0.41739047               -0.47043198                1.61029354               -0.08607823               -0.34453479                0.40004786
               1.10204279                0.04661216                7.08829458                1.00000000               -0.34591264               -0.35827538                1.24694028               -0.06292852               -0.38469053               -0.01041993
               2.09929845                0.02694527                7.05537019                0.97962579               -0.19049394               -0.25300828                0.85962285               -0.04926493               -0.32706682               -0.20338611
               3.09823292                0.00775940                7.02447103                0.55572232                0.28345691               -0.17940027                0.50779229                0.30166202                0.47710290               -0.23256394
               4.10496758               -0.00368841                7.00756436                0.56485859                0.52770505               -0.21527546                0.24182006                0.04127778                1.18169209               -0.01768011
               5.10878702               -0.01022851                6.99010975                0.60812342                0.25007542               -0.02962693               -0.11036290               -0.01509103                0.98298221                0.00336947
               6.10996909               -0.01609077                6.96983891                0.63116622                0.05795419                0.12114262               -0.48205927                0.00405416                0.86168119                0.01525526
               7.10994610               -0.02458019                6.94999828                0.78764048                0.06752338                0.24167556               -0.82293854                0.06948951                0.57830568                0.02932199
               8.11131956               -0.03709522                6.92382859                1.00000000                0.24553669                0.34435920               -1.15780405                0.02238650                0.05987687                0.28209779
               9.11485683               -0.05141877                6.89375487                1.00000000                0.41825104                0.42705244               -1.48656592               -0.05042853               -0.17738237                0.03009670
              10.11968458               -0.06567263                6.86295327                1.00000000                0.48277474                0.52553959               -1.80646289               -0.07836779               -0.21873985               -0.23899237
               0.12471592                1.06126784                7.11015345                1.00000000               -0.37889595               -0.45287648                1.46877229               -0.03822097               -0.01813224                0.54920439
               1.12092696                1.04302941                7.07772975                1.00000000               -0.32418709               -0.33550652                1.10327582               -0.01989338                0.05104653               -0.00769727
               2.11823218                1.02441518                7.04654498                0.66983752               -0.21802920               -0.22463660                0.74463451               -0.00787297                0.29021191               -0.48134348
               3.11656638                1.00596540                7.01893470                0.00010000               -0.19289279               -0.17033374                0.39467970                0.34772235                1.23860037               -0.56565780
               4.11437432                0.99415883                7.00695803                0.03286811               -0.08645443               -0.02679425                0.21397196                0.66450428                1.78854295               -0.33931971
               5.11483729                0.98947522                6.99199468                0.07986283                0.14055758                0.03123315               -0.10496561                0.73950835                1.44843530               -0.07901256
               6.11718547                0.98512065                6.97401437                0.03993152                0.31529671               -0.02454810               -0.44897201                0.60887704                1.29637038               -0.17533601
               7.12114322                0.97783657                6.95637158                0.27025955                0.38886216                0.27707251               -0.74476126                0.39162227                1.14626320                0.44865778
               8.12496272                0.96634837                6.93504017                1.00000000                0.37490156                0.31849636               -1.03274368                0.10720468                0.55811384                0.35047201
               9.12864125                0.95285176                6.90502644                1.00000000                0.40960243                0.40556206               -1.34577714               -0.00478715                0.08343952                0.07533875
              10.13315476                0.93958277                6.87415417                1.00000000                0.45135125                0.50456157               -1.66558307               -0.03012992                0.03662528               -0.28048522
               0.14192915                2.05691463                7.10279677                1.00000000               -0.34315616               -0.41862674                1.35815020               -0.04720648                0.03763895                0.70817953
               1.13849759                2.03990203                7.06713204                1.00000000               -0.28620778               -0.29133246                0.96295046               -0.03306557                0.08144039               -0.02536524
               2.13620500                2.02245253                7.03216896                0.28306590               -0.15269383               -0.16820392                0.58611533               -0.04294464                0.59798044               -0.82314490
               3.13544371                2.00435273                7.00686561                0.00010000               -0.07285709               -0.13275525                0.24932173                0.49882055                1.97198263               -1.09848127
               4.13474785                1.99577570                6.99958927                0.00010000               -0.14141750                0.15869665                0.30791354                1.16942134                2.73505341               -0.69593058
               5.13261536                1.99039615                6.99206692                0.00010000               -0.04812844                0.05379422                0.14270727                1.16932357                2.03935025               -0.35192681
               6.13378528                1.98341826                6.97453394                0.00010000                0.19677336               -0.01408424               -0.63092424                1.16859938                2.23265055               -0.07995854
               7.13655083                1.98096126                6.97131683                0.00010000                0.23315903                0.06665819               -0.57757637                0.76392772                2.03490143                0.29763254
               8.13844847                1.96927470                6.94761929                0.40075256                0.24879315                0.27331370               -0.88518260                0.08979571                0.69748336                0.67911715
               9.14152669                1.95669247                6.91726791                1.00000000                0.35857479                0.36762960               -1.20105750                0.00159829                0.25168116                0.28742984
              10.14561996                1.94441860                6.88468168                1.00000000                0.40932681                0.46154954               -1.53745280               -0.02924495                0.13566784               -0.29329200
               0.15779699                3.05289531                7.09569728                1.00000000               -0.30692443               -0.38522000                1.24969179               -0.05080776                0.03259575                0.71982060
               1.15472775                3.03720276                7.05614312                1.00000000               -0.24372030               -0.24708360                0.81634633               -0.03611051                0.03933591               -0.04419210
               2.15292259                3.02105110                7.01653026                0.09176779               -0.07540660               -0.10995615                0.38278098               -0.08850969                0.73025468               -0.84609035
               3.15321962                3.00331030                6.99085189                0.00010000               -0.06016305                0.10545798                0.04249506                0.45902431                2.73568329               -0.73162738
               4.15171933                2.99733277                6.99155067                0.00010000               -0.13192113                0.17579163               -0.04230825                1.00539469                3.65061162               -0.61146122
               5.15058119                2.99055110                6.98683352                0.00010000               -0.08634891                0.09289394               -0.18432417                1.07908077                3.28598244               -0.47259192
               6.14999235                2.98483897                6.98191345                0.00010000               -0.00079294                0.11415869               -0.32477145                1.02404571                3.10229249                0.10569288
               7.15056534                2.97916973                6.97457824                0.00010000                0.05175351               -0.06675196               -0.51627836                0.74954351                2.85963150                0.04753432
               8.15102742                2.97181464                6.96539561                0.22388743                0.14819916                0.24331237               -0.71082428                0.27481875                1.60496119                1.13189465
               9.15352932                2.96020435                6.93280586                1.00000000                0.30450937                0.32545186               -1.02282213                0.00528946                0.21316238                0.40530963
              10.15711761                2.94881376                6.89584018                1.00000000                0.35882869                0.41524254               -1.39704309               -0.03358323               -0.01320266               -0.25293964
               0.17229810                4.04921023                7.08852015                1.00000000               -0.26785104               -0.35344701                1.13951186               -0.04950030                0.03423293                0.70353369
               1.16961959                4.03496036                7.04514960                1.00000000               -0.19854150               -0.20103821                0.66433747               -0.03170491                0.04127887               -0.04174826
               2.16832727                4.02025341                7.00171895                0.00010000               -0.06385238               -0.05092828                0.18870179                0.04289996                1.44215212               -0.76548159
               3.16834254                4.00646189                6.98646003                0.00010000               -0.03561620                0.32955493               -0.18214565                0.43298530                3.53726519               -0.08236966
               4.16761494                3.99929153                6.98608444                0.00010000               -0.08258811                0.21104702               -0.18302467                0.82244080                4.18549349               -0.36499779
               5.16669078                3.99225403                6.98584037                0.00010000               -0.09836858                0.17661845               -0.23477053                0.86111002                4.09514091               -0.23124751
               6.16564757                3.98570144                6.98543563                0.00010000               -0.10623748                0.11021571               -0.29713059                0.85262055                4.03144157                0.00003652
               7.16456603                3.97962622                6.98522252                0.00010000               -0.13686734                0.07796040               -0.37004188                0.75280243                4.08633820                0.45079316
               8.16291022                3.97414095                6.98675478                0.22618086                0.00336709                0.19436703               -0.43819938                0.31372245                2.09700450                1.12809271
               9.16463337                3.96320151                6.94725777                1.00000000                0.24096271                0.27064239               -0.83921569               -0.00601759                0.02376143                0.33673248
              10.16772948                3.95272345                6.90738925                1.00000000                0.30961099                0.36455502               -1.24194188               -0.03309935               -0.00145437               -0.26110413
               0.18530674                5.04582637                7.08113665                1.00000000               -0.22562604               -0.32226870                1.02486727               -0.05073844                0.05990649                0.66852592
               1.18305048                5.03318200                7.03422175                0.89694436               -0.15138387               -0.15251967                0.50920766               -0.03261364                0.08816396               -0.06758046
               2.18227906                5.02003254                6.98766679                0.00010000               -0.01046385                0.00770053                0.00371484                0.14985042                2.20578338               -0.74175960
               3.18284120                5.00990139                6.98323550                0.00010000                0.00484718                0.28555382               -0.16927663                0.46195157                4.39061995               -0.26140627
               4.18237600                5.00155371                6.98258906                0.00010000               -0.07238540                0.23759736               -0.24288956                0.62731773                4.66130257               -0.29730932
               5.18139349                4.99408347                6.98558464                0.00010000               -0.13517185                0.19385574               -0.24665510                0.67306240                4.83824935               -0.17616595
               6.17967257                4.98704328                6.99018873                0.00010000               -0.21058095                0.14533279               -0.23900624                0.66026807                4.91904730                0.08665714
               7.17718187                4.98072894                6.99626621                0.00010000               -0.29729928                0.11196840               -0.22714810                0.63083645                5.02728529                0.46397822
               8.17372658                4.97570198                7.00413643                0.23880778               -0.11777032                0.11962527               -0.20740525                0.27503780                2.54832320                0.88653639
               9.17482647                4.96561720                6.96135127                0.99282163                0.18425764                0.21013000               -0.64748845               -0.01093987                0.01007271                0.29711022
              10.17741173                4.95610486                6.91844402                1.00000000                0.25852673                0.31273875               -1.08114916               -0.03369422               -0.00164858               -0.29725378
               0.19657207                6.04276486                7.07333984                1.00000000               -0.18109307               -0.28479410                0.90270881               -0.05366836                0.06722949                0.62287773
               1.19476114                6.03190997                7.02273102                0.73458794               -0.09835995               -0.10014112                0.33424294               -0.04007582                0.13718889               -0.13333214
               2.19460488                6.02040742                6.97331834                0.00010000                0.06496289                0.06946779               -0.21844269                0.15647226                2.69793683               -0.82929101
               3.19606040                6.01217296                6.97409948                0.00010000                0.06871722                0.23710341               -0.28305936                0.41933724                5.24431632               -0.63395599
               4.19597922                6.00404348                6.97819195                0.00010000               -0.06989775                0.25887107               -0.28166149                0.46938065                5.44565772               -0.41759754
               5.19466245                5.99613114                6.98534885                0.00010000               -0.18858780                0.21502477               -0.23725599                0.47636405                5.62333038               -0.18972980
               6.19220746                5.98860809                6.99503474                0.00010000               -0.30691964                0.15947709               -0.16721137                0.47001653                5.76868651                0.09640352
               7.18852405                5.98186559                7.00679373                0.00010000               -0.43423709                0.10133484               -0.08168884                0.46853849                5.90832492                0.43443642
               8.18352272                5.97653346                7.02058492                0.25535232               -0.22561792                0.04500097                0.02140360                0.20111107                2.99912113                0.81442292
               9.18401170                5.96740411                6.97498213                0.91915627                0.12787735                0.14917619               -0.45338390               -0.01528841                0.02584043                0.26139850
              10.18608027                5.95897823                6.92921943                1.00000000                0.20685733                0.26147760               -0.92028643               -0.03180544                0.01262949               -0.32446286
               0.20594316                7.04013049                7.06508960                1.00000000               -0.13367567               -0.23775816                0.76947874               -0.05337612                0.04493956                0.58708213
               1.20460640                7.03117917                7.01049135                0.64414087               -0.03988249               -0.04562838                0.14140199               -0.04440119                0.13427039               -0.17945393
               2.20514551                7.02142189                6.95748639                0.00010000                0.14927417                0.13823824               -0.47570387                0.13553107                3.11725401               -0.92856265
               3.20759188                7.01464346                6.96280209                0.00010000                0.13299653                0.27586951               -0.41737356                0.30920761                6.07499963               -0.90502345
               4.20780544                7.00673113                6.97182876                0.00010000               -0.06178619                0.26999331               -0.32526732                0.25763790                6.30571848               -0.58680246
               5.20635616                6.99838397                6.98438055                0.00010000               -0.22334939                0.22379633               -0.22288693                0.26410795                6.48834737               -0.23390395
               6.20333845                6.99023282                6.99950227                0.00010000               -0.38644397                0.16272433               -0.09194293                0.26727768                6.62735905                0.07989172
               7.19862728                6.98275563                7.01690150                0.00010000               -0.55640837                0.07431228                0.06684935                0.26772708                6.77834375                0.40471725
               8.19221028                6.97660200                7.03658992                0.27514700               -0.32756769               -0.03434184                0.25583788                0.09971360                3.45138747                0.77089919
               9.19207593                6.96860072                6.98835306                0.85586404                0.07085529                0.09058496               -0.26029091               -0.01727177                0.04010341                0.23554222
              10.19362739                6.96133441                6.93964447                0.99531983                0.15514617                0.21193018               -0.76348474               -0.03248334                0.01235151               -0.34899668
               0.21340718                8.03800970                7.05654879                0.99088667               -0.08254669               -0.18771393                0.62642468               -0.05050657                0.03446095                0.56906295
               1.21258171                8.03099740                6.99805592                0.62026242                0.02220135                0.01373339               -0.06563640               -0.03924381                0.11736547               -0.19116460
               2.21385121                8.02317219                6.94105593                0.00969666                0.21768035                0.22189931               -0.76325020                0.10774994                3.37241765               -0.91886189
               3.21693532                8.01769035                6.94800084                0.00010000                0.17701332                0.27079637               -0.41975205                0.06259605                6.87154780               -1.37117074
               4.21739147                8.00944335                6.96361656                0.00010000               -0.02462059                0.22183783               -0.33246707               -0.00168800                7.32957942               -0.66486406
               5.21644291                8.00060707                6.98270757                0.00010000               -0.21050629                0.20126786               -0.21461687                0.07680545                7.41685970               -0.23462212
               6.21318135                7.99186258                7.00344076                0.00010000               -0.44667459                0.17444499               -0.02083545                0.08869123                7.48356678                0.06071535
               7.20750942                7.98335184                7.02646398                0.00010000               -0.67547192                0.06392917                0.21511799                0.02738645                7.65003979                0.34587410
               8.19967191                7.97584662                7.05227786                0.29699597               -0.42877819               -0.12042937                0.49497159               -0.03135651                3.91213515                0.71753338
               9.19893385                7.96921581                7.00147732                0.84729790                0.01456558                0.02941238               -0.06799201               -0.01388775                0.05122895                0.22693181
              10.19996322                7.96321683                6.94982106                0.95583331                0.10293684                0.16957770               -0.61191254               -0.03458188                0.00691995               -0.36252174
               0.21895762                9.03637621                7.04783572                0.98287467               -0.02985856               -0.14324682                0.47888024               -0.04334873                0.04059054                0.46848151
               1.21865904                9.03145384                6.98555740                0.65181767                0.08249644                0.08150399               -0.28364468               -0.02135330                0.15358698               -0.17490877
               2.22060755                9.02585988                6.92541474                0.04468769                0.19568032                0.30982103               -1.05489582               -0.00033604                3.35948510               -0.65358987
               3.22257264                9.02005939                6.92764161                0.00010000                0.21237064                0.11365612               -0.06936815               -0.14680172                7.77255739               -1.22944666
               4.22485496                9.01116788                6.95550479                0.00010000                0.14501965                0.11206298               -0.34823897               -0.12048924                8.64172680               -0.47207980
               5.22547304                9.00240932                6.98102480                0.00010000               -0.12437273                0.15718774               -0.21127732                0.00516528                8.28711006               -0.14310584
               6.22236751                8.99372172                7.00678249                0.00010000               -0.51410325                0.18036019                0.03940003               -0.00754333                8.26897145                0.03873110
               7.21519097                8.98403422                7.03490174                0.00010000               -0.83241647                0.15308498                0.35093857               -0.14497230                8.50664213                0.21302828
               8.20571918                8.97419341                7.06721329                0.31582423               -0.53815054               -0.20122972                0.72976659               -0.21679692                4.43140207                0.51304698
               9.20442796                8.96918897                7.01466276                0.89254460               -0.03927369               -0.03660780                0.12718279               -0.00669422                0.09262144                0.20878459
              10.20493371                8.96472596                6.95987696                0.93729464                0.05057457                0.13380437               -0.45866941               -0.03417217               -0.01762393               -0.30480656
               0.22238494               10.03514476                7.03708546                0.99015672                0.02860351               -0.12314481                0.31090156                0.09100387                0.30789682                0.38124947
               1.22267098               10.03262748                6.97348509                0.85863601                0.14269982                0.11736379               -0.48606553                0.11238637                0.54613405               -0.16101620
               2.22523894               10.02936861                6.91459112                0.53802981                0.30101529                0.35087259               -1.24376433               -0.17006127                3.79481080               -0.44185865
               3.22869128               10.01996348                6.91639818                0.32713224                0.36964089               -0.00959126               -0.11959117               -0.27233586                8.44959114               -0.83361025
               4.23263176               10.01168461                6.95064855                0.32345836                0.26505458                0.05167236               -0.37039108               -0.03295331                9.41346462               -0.22542379
               5.23399237               10.00375082                6.98019102                0.34636983               -0.06130848                0.13415010               -0.21791474                0.04119281                8.91393099               -0.05029485
               6.23140559                9.99546978                7.00938326                0.39249635               -0.49270474                0.17480609                0.08172575                0.03694338                8.88436063                0.04940514
               7.22413828                9.98641354                7.04111059                0.47976166               -1.06121815                0.23793166                0.44802122               -0.28765703                9.22147488                0.14495112
               8.21018122                9.97182202                7.07855646                0.66516772               -0.79354295               -0.23713900                0.90224542               -0.45028967                5.04365003                0.35826774
               9.20826742                9.96848365                7.02733398                0.97366320               -0.09877191               -0.07053141                0.31486233                0.08749079                0.38305713                0.19364552
              10.20820579                9.96589292                6.97118189                0.97442092               -0.00616354                0.11669551               -0.28994464                0.06813459                0.14215471               -0.24465242
               0.13634135                0.08102248                8.13619152                1.00000000               -0.41008042               -0.45963997                1.57490037               -0.08175862               -0.38788279                0.44303564
               1.13224055                0.05781263                8.10069529                1.00000000               -0.34001271               -0.35341415                1.23178620               -0.05925332               -0.44200548               -0.00595272
               2.12954110                0.03429610                8.06397081                0.99613020               -0.18663759               -0.25251656                0.85811878               -0.04638406               -0.37875167               -0.20358439
               3.12850780                0.01136039                8.02964039                0.57280849                0.29577479               -0.18347056                0.52195968                0.33168778                0.47803312               -0.26886096
               4.13545659               -0.00308955                8.00998942                0.59394534                0.52294248               -0.19456336                0.24120684                0.02522633                1.16213459               -0.00960796
               5.13896665               -0.01209721                7.98903342                0.64144125                0.23269872               -0.02055025               -0.10571833               -0.01061500                0.91769596                0.00615806
               6.14011057               -0.02032085                7.96508170                0.65549472                0.06041390                0.11524200               -0.47021455                0.00371191                0.79612006                0.00705440
               7.14017492               -0.03105132                7.94178923                0.80270231                0.06783347                0.23329805               -0.81752422                0.06762326                0.52396046                0.02925435
               8.14146724               -0.04603532                7.91227136                1.00000000                0.23817444                0.34335479               -1.15116291                0.03044498                0.01291815                0.29565040
               9.14493841               -0.06309843                7.87894059                1.00000000                0.41241460                0.42339685               -1.47488874               -0.04992951               -0.21602934                0.02893625
              10.14971553               -0.08013593                7.84499052                1.00000000                0.47771171                0.51826836               -1.78723796               -0.07857994               -0.25234662               -0.27174760
               0.15873361                1.07642608                8.12465294                1.00000000               -0.37224075               -0.44316954                1.43353105               -0.03560915               -0.02727539                0.60725265
               1.15501121                1.05427849                8.08869617                1.00000000               -0.32151180               -0.33104591                1.08941775               -0.01627159                0.04279807               -0.00037595
               2.15230338                1.03177093                8.05401807                0.70046799               -0.22468561               -0.22490014                0.74698148               -0.00132524                0.28640548               -0.49974830
               3.15051750                1.00952568                8.02295473                0.00010000               -0.24328620               -0.17555474                0.40640380                0.40390010                1.31623491               -0.61142566
               4.14743765                0.99496482                8.00910073                0.07158361               -0.15206733                0.00195616                0.21235472                0.68024739                1.87184478               -0.19685459
               5.14747615                0.98769729                7.99096447                0.12332626                0.10935448                0.08378006               -0.10184744                0.66885118                1.45312694                0.06751926
               6.14962474                0.98083157                7.96958425                0.07221895                0.31161212               -0.05845186               -0.43779203                0.54877188                1.30784039               -0.28511541
               7.15370839                0.97128166                7.94895195                0.28986897                0.40852475                0.27235933               -0.73829752                0.42244813                1.17389159                0.48887253
               8.15779524                0.95739823                7.92473346                1.00000000                0.38905161                0.31764185               -1.02595906                0.12781068                0.57269955                0.37320958
               9.16148942                0.94113554                7.89162758                1.00000000                0.40859990                0.40285992               -1.33324973               -0.00312271                0.08340657                0.07542236
              10.16596724                0.92504675                7.85760883                1.00000000                0.44778145                0.49563181               -1.64533680               -0.03044770                0.03416913               -0.31903049
               0.17992435                2.07215909                8.11618948                1.00000000               -0.33540834               -0.41203024                1.32278953               -0.04240942                0.03480404                0.78419976
               1.17657027                2.05119172                8.07670663                1.00000000               -0.28284751               -0.28849486                0.95164318               -0.02671713                0.08652162               -0.01800208
               2.17426740                2.02979809                8.03812041                0.30420739               -0.15891793               -0.16978527                0.60052554               -0.03169044                0.62742456               -0.88573483
               3.17339191                2.00784929                8.00946856                0.00010000               -0.16887330               -0.14438773                0.26800121                0.59213745                2.27344366               -1.18142262
               4.17088993                1.99694958                8.00403108                0.00010000               -0.34574936                0.16683124                0.55887924                1.32927640                2.92398926               -0.72674639
               5.16647692                1.98957839                7.99394557                0.00010000               -0.16941485                0.07010536                0.13578063                1.21917326                1.75556991               -0.40525882
               6.16750164                1.97851011                7.96833473                0.00010000                0.27901533               -0.03842687               -0.55144111                1.21725889                2.11326129               -0.02222056
               7.17205723                1.97439586                7.96545472                0.00010000                0.33339652                0.04456249               -0.59460328                0.86955885                2.24048703                0.31998129
               8.17416957                1.96031751                7.93877574                0.39755773                0.25851033                0.28070630               -0.88015976                0.13055478                0.73477947                0.71774394
               9.17722743                1.94495877                7.90532176                1.00000000                0.35572964                0.36996948               -1.18783366                0.01321376                0.27138138                0.30492548
              10.18128416                1.92977670                7.86942151                1.00000000                0.40567260                0.45065431               -1.51673846               -0.02578728                0.14571428               -0.33229623
               0.19982018                3.06818548                8.10800850                1.00000000               -0.29823173               -0.38247531                1.21446284               -0.04585443                0.02952409                0.79921117
               1.19683786                3.04850859                8.06426729                1.00000000               -0.24040947               -0.24615561                0.80810375               -0.03038453                0.03432625               -0.04154736
               2.19501199                3.02837523                8.02046484                0.10474948               -0.08145504               -0.11103281                0.40160684               -0.08487569                0.77036430               -0.93014099
               3.19520876                3.00663793                7.99147105                0.00010000               -0.13589534                0.09660805                0.07589629                0.52338607                2.94026565               -0.86830566
               4.19229408                2.99830145                7.99129232                0.00010000               -0.24548405                0.17126702               -0.01159559                1.18579212                3.95168295               -0.84718892
               5.19029908                2.98909940                7.98523073                0.00010000               -0.15708157                0.04912820               -0.13270941                1.27854208                3.52745307               -0.66766230
               6.18915245                2.98006303                7.97862729                0.00010000               -0.05034582                0.13970794               -0.33348537                1.20378328                3.30954424                0.20959616
               7.18929216                2.97217291                7.96933900                0.00010000                0.03454883               -0.07932344               -0.52512299                0.88903663                3.03927060                0.05726139
               8.18984343                2.96301235                7.95815497                0.21620611                0.15011741                0.25834512               -0.72650395                0.35308921                1.73018931                1.23616726
               9.19229451                2.94853493                7.92263938                1.00000000                0.29861019                0.33011557               -1.01051773                0.01873550                0.25025506                0.43951628
              10.19581563                2.93405983                7.88198080                1.00000000                0.35211204                0.40747571               -1.37683724               -0.03216186               -0.01298754               -0.27967322
               0.21836103                4.06450959                8.09972802                1.00000000               -0.25881997               -0.35315794                1.10349002               -0.04502873                0.03052177                0.78381927
               1.21577283                4.04626860                8.05176632                1.00000000               -0.19602384               -0.20087822                0.65855671               -0.02665076                0.03540417               -0.04238155
               2.21444055                4.02757744                8.00373825                0.00747093               -0.09197089               -0.05130228                0.21288477                0.04538457                1.47018452               -0.84148377
               3.21393341                4.00978146                7.98453839                0.00010000               -0.11481216                0.35742218               -0.20407557                0.47149803                3.81847974               -0.12671458
               4.21214431                4.00037492                7.98436095                0.00010000               -0.18236165                0.21910243               -0.16153882                0.94193040                4.62630094               -0.42084635
               5.21028618                3.99056096                7.98355727                0.00010000               -0.18202579                0.17114161               -0.22011368                0.95515221                4.48465609               -0.27179323
               6.20850379                3.98130427                7.98244438                0.00010000               -0.16987691                0.13924167               -0.29755279                0.95148934                4.39206695               -0.00760962
               7.20688864                3.97280940                7.98142226                0.00010000               -0.18172317                0.09798048               -0.38462637                0.88285940                4.42835654                0.50247532
               8.20486933                3.96548442                7.98226938                0.21873433               -0.01669891                0.20291106               -0.45475123                0.38712398                2.26682875                1.26543246
               9.20655466                3.95156108                7.93891110                1.00000000                0.23608933                0.27241191               -0.82984127                0.00389396                0.02804068                0.37530719
              10.20959112                3.93792622                7.89506834                1.00000000                0.30364545                0.36268988               -1.22337096               -0.03104748               -0.00156390               -0.27992881
               0.23540157                5.06112232                8.09118338                1.00000000               -0.21645756               -0.32179016                0.98590769               -0.04653991                0.06187790                0.74742919
               1.23323699                5.04449103                8.03929734                0.88188704               -0.14973707               -0.15214078                0.50554351               -0.02873731                0.09346362               -0.07865440
               2.23240683                5.02734918                7.98787763                0.00010000               -0.06978760                0.00737557                0.03618336                0.17938925                2.37004168               -0.83431452
               3.23184124                5.01378637                7.98162708                0.00010000               -0.10268200                0.32542057               -0.15617629                0.51327574                4.75839066               -0.23538430
               4.23035319                5.00268349                7.98021785                0.00010000               -0.16842350                0.24673693               -0.22999058                0.70728474                5.11494402               -0.31509874
               5.22847277                4.99252223                7.98314518                0.00010000               -0.22096936                0.20876824               -0.23805774                0.75199678                5.32219248               -0.18692284
               6.22593380                4.98284786                7.98775336                0.00010000               -0.28517842                0.16684060               -0.24301949                0.74314742                5.39399692                0.09999842
               7.22276920                4.97413252                7.99389560                0.00010000               -0.35497899                0.13188102               -0.24143572                0.73146967                5.48960665                0.51941320
               8.21883422                4.96707057                8.00196410                0.23174624               -0.14193057                0.11885696               -0.22306974                0.33717141                2.77116512                0.99778221
               9.21993059                4.95398317                7.95489696                0.99187104                0.18150979                0.20991512               -0.64256146               -0.00129574                0.00821615                0.33909913
              10.22246442                4.94131363                7.90772194                1.00000000                0.25338245                0.31367799               -1.06425428               -0.03163028               -0.00186652               -0.31547957
               0.25069281                6.05807378                8.08213898                1.00000000               -0.17215865               -0.28204409                0.85925199               -0.04917953                0.06748100                0.69739239
               1.24897122                6.04322579                8.02606029                0.72107200               -0.09799071               -0.09911266                0.33174414               -0.03627555                0.14288169               -0.16156195
               2.24873299                6.02772495                7.97133008                0.00010000               -0.00533046                0.07042308               -0.18097399                0.19683794                2.94451345               -0.95912242
               3.24886461                6.01628987                7.97143471                0.00010000               -0.05894237                0.24957162               -0.24937356                0.49941822                5.74898113               -0.69450913
               4.24755415                6.00530966                7.97546728                0.00010000               -0.18514344                0.27133667               -0.26020129                0.55919541                5.99567965               -0.43517230
               5.24516174                5.99473632                7.98300167                0.00010000               -0.28988465                0.23483287               -0.22794287                0.55985483                6.19716631               -0.19177302
               6.24175645                5.98464108                7.99331381                0.00010000               -0.39332097                0.18478617               -0.17148452                0.54616332                6.34506349                0.11802150
               7.23729532                5.97544702                8.00587333                0.00010000               -0.49971735                0.11976944               -0.09712834                0.54853931                6.48131172                0.49314329
               8.23176211                5.96786156                8.02068098                0.24835334               -0.25048186                0.04065538                0.00001238                0.25006947                3.27711578                0.92420467
               9.23228569                5.95575939                7.97044888                0.92166655                0.12677388                0.14713749               -0.45099587               -0.00647954                0.02267746                0.30120423
              10.23429758                5.94419978                7.92011029                1.00000000                0.20118971                0.26279003               -0.89831031               -0.03068947                0.01256746               -0.34739156
               0.26411397                7.05548144                8.07252766                1.00000000               -0.12536533               -0.23224626                0.72143662               -0.04832798                0.04274577                0.65568419
               1.26286032                7.04250878                8.01191374                0.63122241               -0.04172310               -0.04446673                0.14364925               -0.03903664                0.13472775               -0.22149100
               2.26327951                7.02875764                7.95299345                0.00010000                0.06922921                0.13786034               -0.42479604                0.17810298                3.45012398               -1.09132608
               3.26424490                7.01877781                7.95890970                0.00010000               -0.00944333                0.26523416               -0.36578862                0.41018360                6.73795261               -0.93001952
               4.26309064                7.00811023                7.96876160                0.00010000               -0.19532283                0.28006726               -0.28923470                0.37839651                6.97520791               -0.59255980
               5.26033844                6.99721889                7.98222814                0.00010000               -0.34721330                0.25233679               -0.20479467                0.36163037                7.16148084               -0.23657950
               6.25614637                6.98654359                7.99854558                0.00010000               -0.49094640                0.19578339               -0.09376160                0.33719101                7.30674569                0.10116004
               7.25051952                6.97652791                8.01745610                0.00010000               -0.63115663                0.09717691                0.04869618                0.32520808                7.46328312                0.46458851
               8.24352324                6.96788368                8.03897946                0.26818004               -0.35283664               -0.03616794                0.22357010                0.13184289                3.78412871                0.88371773
               9.24346278                6.95692592                7.98571670                0.85659360                0.07233026                0.08853396               -0.26340866               -0.01138470                0.03371386                0.27037054
              10.24496985                6.94656943                7.93210912                0.99457234                0.15070645                0.21389504               -0.74137839               -0.03085746                0.01259714               -0.38215896
               0.27567157                8.05342886                8.06253573                0.98930905               -0.07572848               -0.17927318                0.57548881               -0.04542089                0.03013058                0.63382436
               1.27491428                8.04233645                7.99745128                0.60546628                0.01772279                0.01302923               -0.05467525               -0.03333728                0.10772919               -0.24445962
               2.27602602                8.03048216                7.93380158                0.00033978                0.14007074                0.21251145               -0.69082578                0.14398329                3.85767149               -1.10050831
               3.27771570                8.02159455                7.94401304                0.00010000                0.03274848                0.25219488               -0.39036177                0.23876926                7.72350095               -1.16615756
               4.27668099                8.01091100                7.96067796                0.00010000               -0.18773542                0.24707594               -0.27689826                0.17192269                8.06352320               -0.63996293
               5.27396099                7.99978306                7.98075572                0.00010000               -0.37448700                0.24555338               -0.17840533                0.18185970                8.17328187               -0.23885273
               6.26919125                7.98855675                8.00321664                0.00010000               -0.57507991                0.21881738               -0.01855037                0.14578603                8.27167646                0.07721382
               7.26245939                7.97739055                8.02846896                0.00010000               -0.75951512                0.09648683                0.19097451                0.05992117                8.45278978                0.40032443
               8.25400095                7.96713820                8.05696620                0.29047991               -0.45435762               -0.11386318                0.44678981               -0.01604147                4.30086607                0.82833940
               9.25337224                7.95753006                8.00071261                0.84708704                0.01962274                0.03092899               -0.08324035               -0.01040377                0.03978731                0.25947760
              10.25439341                7.94847768                7.94379335                0.95840800                0.10211665                0.17142301               -0.59592053               -0.03165271                0.00579132               -0.40252093
               0.28539036                9.05189597                8.05233626                0.98173449               -0.02500888               -0.13144939                0.42663448               -0.03936511                0.03103307                0.52317649
               1.28514027                9.04276936                7.98283343                0.63304387                0.07553576                0.07628157               -0.26046317               -0.01801880                0.13693725               -0.22594239
               2.28690108                9.03300787                7.91536931                0.02366443                0.17255847                0.28698240               -0.95734601                0.04121082                4.18310480               -0.79091879
               3.28859144                9.02382170                7.92714987                0.00010000                0.07197553                0.14195494               -0.13814024                0.04647215                8.75981072               -0.96205725
               4.28834059                9.01305175                7.95275809                0.00010000               -0.11307754                0.17711250               -0.25100732                0.03292259                9.25883712               -0.43768379
               5.28632989                9.00212996                7.97921228                0.00010000               -0.34429929                0.21755424               -0.15823672                0.07912290                9.12446982               -0.14955617
               6.28145460                8.99091993                8.00717221                0.00010000               -0.65966994                0.23279788                0.04423127                0.02488785                9.16564520                0.04884035
               7.27313649                8.97845764                8.03820535                0.00010000               -0.91958484                0.19684279                0.31737602               -0.13444492                9.43148512                0.24782505
               8.26306290                8.96560642                8.07413281                0.31180398               -0.56106311               -0.18428936                0.66076596               -0.21471804                4.88498135                0.58989290
               9.26191523                8.95754450                8.01578724                0.89098114               -0.03106667               -0.02956340                0.09944450               -0.00565565                0.08070099                0.23721793
              10.26244157                8.94999789                7.95536706                0.93876427                0.05263411                0.13374997               -0.44686555               -0.03111756               -0.02064837               -0.33851852
               0.29313749               10.05079987                8.03993465                0.98976043                0.03045203               -0.10961046                0.26404189                0.08093458                0.32484854                0.42548113
               1.29344201               10.04386208                7.96879544                0.84893024                0.13302045                0.10927224               -0.45153429                0.10127074                0.57835718               -0.20503558
               2.29579790               10.03622180                7.90270243                0.52473806                0.25796281                0.32139333               -1.13688295               -0.08173928                4.78999203               -0.53106062
               3.29860127               10.02443365                7.91620502                0.32735005                0.16166473                0.06119462               -0.10529875               -0.08744497                9.52879743               -0.56070745
               4.29903119               10.01445325                7.94768811                0.32381272               -0.04630038                0.14015055               -0.27102770                0.05408558               10.08182014               -0.19932803
               5.29767526               10.00413414                7.97835030                0.34669702               -0.28349355                0.20041888               -0.15905175                0.07250976                9.83437003               -0.04209484
               6.29336132                9.99321271                8.01018201                0.39285872               -0.62956237                0.22927720                0.08502562                0.05033565                9.87386428                0.06190015
               7.28508401                9.98132741                8.04534322                0.48086562               -1.13707938                0.28697671                0.40819637               -0.29326271               10.25155785                0.17248830
               8.27061974                9.96345241                8.08713059                0.66502118               -0.81081807               -0.21540067                0.82024394               -0.46374747                5.57700712                0.40150143
               9.26886765                9.95693880                8.03026717                0.97339088               -0.08777343               -0.06057026                0.27421351                0.08025547                0.40453531                0.21684542
              10.26886427                9.95115268                7.96831302                0.97505307               -0.00033839                0.11547822               -0.28735333                0.06365762                0.15586434               -0.27030730
               0.16945150                0.09791004                9.15177138                1.00000000               -0.40281052               -0.44950955                1.54292029               -0.07862280               -0.43023582                0.48362560
               1.16542340                0.07049135                9.11293031                1.00000000               -0.33365940               -0.34808016                1.21478187               -0.05710983               -0.50109852               -0.00024251
               2.16277831                0.04277905                9.07253257                1.00000000               -0.18242112               -0.25084365                0.85275503               -0.04455060               -0.43462234               -0.19970272
               3.16177497                0.01575351                9.03491022                0.58731885                0.30194703               -0.18447920                0.52897456                0.35923100                0.46219282               -0.30503644
               4.16881725               -0.00210321                9.01238850                0.61759239                0.51368408               -0.17167117                0.23855280                0.01237420                1.13059142                0.00168031
               5.17204866               -0.01396745                8.98799538                0.66838125                0.21592136               -0.01190980               -0.10175880               -0.00581401                0.85276576                0.01042052
               6.17313568               -0.02495479                8.96043462                0.67496553                0.05934932                0.11201061               -0.45914118                0.00425796                0.72687695               -0.00036915
               7.17323564               -0.03832054                8.93364779                0.81392113                0.06454398                0.22690574               -0.80919217                0.06603884                0.46447532                0.02906414
               8.17442656               -0.05610641                8.90080534                1.00000000                0.22907237                0.34146010               -1.14034602                0.03677621               -0.03410375                0.30747888
               9.17781709               -0.07621403                8.86425709                1.00000000                0.40556141                0.41930657               -1.46060310               -0.05019653               -0.25286736                0.02706949
              10.18253779               -0.09634420                8.82720851                1.00000000                0.47206998                0.51153695               -1.76908211               -0.07923056               -0.28384696               -0.30354996
               0.19608396                1.09341494                9.13882407                1.00000000               -0.36661657               -0.43334813                1.40295102               -0.03346745               -0.03668674                0.66219311
               1.19241779                1.06701055                9.09951810                1.00000000               -0.31911137               -0.32602409                1.07481621               -0.01353157                0.03204242                0.00803290
               2.18970173                1.04027062                9.06148461                0.72824985               -0.23046880               -0.22439916                0.74414741                0.00557062                0.27563189               -0.51038066
               3.18780841                1.01390872                9.02706277                0.01698881               -0.29501245               -0.17727789                0.41257658                0.45682067                1.37481430               -0.65429375
               4.18380148                0.99618008                9.01120512                0.10560412               -0.21960528                0.05761987                0.20825350                0.59690515                1.94226468                0.06115595
               5.18341631                0.98591345                8.98995773                0.16077327                0.07766612                0.09960828               -0.09939185                0.56798423                1.45907046                0.16160623
               6.18535480                0.97616531                8.96525853                0.09997450                0.30277658               -0.05571968               -0.42757124                0.47203748                1.31788167               -0.33173260
               7.18947184                0.96394852                8.94160563                0.30701109                0.41931337                0.26471852               -0.73001927                0.44133985                1.19809146                0.51646895
               8.19374107                0.94730819                8.91452099                1.00000000                0.39810881                0.31572446               -1.01528622                0.14404892                0.58693336                0.39424426
               9.19743402                0.92797904                8.87836145                1.00000000                0.40672925                0.39966065               -1.31942519               -0.00227771                0.08461341                0.07506656
              10.20187565                0.90877117                8.84124744                1.00000000                0.44416378                0.48724506               -1.62755701               -0.03093882                0.03309311               -0.35719986
               0.22159093                2.08924307                9.12925257                1.00000000               -0.32938391               -0.40369734                1.29202860               -0.03792310                0.03238732                0.85598986
               1.21829709                2.06397087                9.08616490                1.00000000               -0.27996855               -0.28492138                0.93989431               -0.02059307                0.09282343               -0.00947778
               2.21599156                2.03829107                9.04417947                0.32528819               -0.16475835               -0.17200833                0.60830813               -0.01692664                0.64947717               -0.93939403
               3.21500192                2.01220795                9.01222563                0.00010000               -0.36204643               -0.15171847                0.28080032                0.70735803                2.66496958               -1.25601897
               4.20875063                1.99904919                9.01076686                0.00010000               -0.57894071                0.19395186                0.66222093                1.45042931                3.04535330               -0.78371475
               5.20342311                1.98802471                8.99478254                0.00010000               -0.21046361                0.08363530                0.04114830                1.26302990                1.52881065               -0.46048150
               6.20454136                1.97393081                8.96350511                0.00010000                0.37482275               -0.06220370               -0.44808208                1.28346432                2.13468261                0.03386848
               7.21091956                1.96697383                8.95942476                0.00010000                0.43678330                0.01994489               -0.60830167                0.93142467                2.37898877                0.33964756
               8.21327702                1.95020808                8.93001610                0.39892738                0.26944937                0.28680760               -0.87046138                0.16975525                0.78297268                0.74869109
               9.21630855                1.93177919                8.89351124                1.00000000                0.35288615                0.37131472               -1.17428331                0.02335991                0.29253606                0.32152736
              10.22033475                1.91340070                8.85434691                1.00000000                0.40261952                0.44011449               -1.49935983               -0.02288056                0.15661154               -0.37102664
               0.24586990                3.08534099                9.11998654                1.00000000               -0.29119633               -0.37656684                1.18313647               -0.04083678                0.02753172                0.87271067
               1.24295793                3.06131212                9.07230519                1.00000000               -0.23718917               -0.24440939                0.79927311               -0.02450964                0.03080453               -0.03832095
               2.24112611                3.03683045                9.02456239                0.11916385               -0.08802395               -0.11400603                0.41561990               -0.07352239                0.80524840               -1.00783553
               3.24119745                3.01087435                8.99236981                0.00010000               -0.20664022                0.07818062                0.09993658                0.61580903                3.12702361               -1.02458353
               4.23699331                3.00005912                8.99131876                0.00010000               -0.37010854                0.14499425                0.01821179                1.45416276                4.25831236               -1.19507785
               5.23379528                2.98758615                8.98417933                0.00010000               -0.24591720                0.04394991               -0.09879165                1.48697365                3.73375036               -0.83219011
               6.23207496                2.97492124                8.97524374                0.00010000               -0.09861066                0.12461826               -0.33453635                1.39219138                3.47591512                0.27387124
               7.23182307                2.96434742                8.96407578                0.00010000                0.01279294               -0.09273537               -0.52363317                1.02558464                3.22413196                0.08639092
               8.23233082                2.95304434                8.95086553                0.21076879                0.14427583                0.27161986               -0.72314269                0.42694272                1.85478004                1.32543641
               9.23470859                2.93540533                8.91259550                1.00000000                0.29220921                0.33354445               -0.99863813                0.03078997                0.29392466                0.47152490
              10.23817501                2.91757346                8.86830343                1.00000000                0.34664207                0.39915173               -1.36013359               -0.03073857               -0.01215200               -0.30570460
               0.26883193                4.08171174                9.11058996                1.00000000               -0.25144897               -0.34885013                1.07074239               -0.04058043                0.02796196                0.85507396
               1.26631744                4.05908268                9.05832073                1.00000000               -0.19365238               -0.19985908                0.65212603               -0.02166084                0.03091989               -0.04347809
               2.26495888                4.03601095                9.00597665                0.01843009               -0.11140034               -0.05380145                0.23259487                0.04564585                1.46245598               -0.90920711
               3.26408943                4.01377157                8.98237852                0.00010000               -0.19184012                0.37115227               -0.22272478                0.52047307                4.07612249               -0.17896711
               4.26112208                4.00194907                8.98285366                0.00010000               -0.28944870                0.20431373               -0.14190496                1.06478080                5.06278232               -0.48918712
               5.25830046                3.98890371                8.98143810                0.00010000               -0.27490812                0.16572305               -0.20326614                1.04903264                4.84293822               -0.33421786
               6.25562392                3.97642318                8.97948458                0.00010000               -0.24961531                0.16262941               -0.29271350                1.04712711                4.72118855               -0.00469578
               7.25330815                3.96511913                8.97753000                0.00010000               -0.24329771                0.11593555               -0.38921243                1.00787468                4.75027013                0.55958592
               8.25075796                3.95564047                8.97765975                0.21225873               -0.04564632                0.21008442               -0.46364820                0.45743235                2.43850487                1.39483158
               9.25239523                3.93845007                8.93066095                1.00000000                0.23128762                0.27280315               -0.82040834                0.01338111                0.04011023                0.41071708
              10.25538372                3.92138374                8.88292183                1.00000000                0.29884889                0.35899283               -1.20727618               -0.02916230               -0.00108741               -0.29718851
               0.29031639                5.07836399                9.10085481                1.00000000               -0.20908878               -0.31716525                0.95040712               -0.04254688                0.06512518                0.81358534
               1.28822550                5.05731494                9.04433262                0.86739832               -0.14831226               -0.15101798                0.50134619               -0.02496638                0.10077144               -0.09141883
               2.28735015                5.03575442                8.98839045                0.00010000               -0.12783576                0.00491011                0.06389136                0.20721473                2.50910801               -0.91796178
               3.28566879                5.01829740                8.98011197                0.00010000               -0.20966828                0.36143008               -0.15513172                0.56021764                5.09219052               -0.18023793
               4.28315678                5.00414539                8.97798925                0.00010000               -0.26834784                0.24236090               -0.21636499                0.79034923                5.54532314               -0.32968714
               5.28030183                4.99090061                8.98082349                0.00010000               -0.31773464                0.21545067               -0.22511005                0.82436122                5.77562158               -0.19627374
               6.27680209                4.97817383                8.98532834                0.00010000               -0.37692821                0.18765635               -0.23903032                0.81893341                5.83780333                0.11698498
               7.27276327                4.96666613                8.99143750                0.00010000               -0.43267828                0.15244135               -0.24664597                0.82735794                5.92972535                0.57803690
               8.26814852                4.95724603                8.99967504                0.22535462               -0.17651623                0.11808590               -0.23329570                0.39633968                2.99008512                1.10290087
               9.26923294                4.94086140                8.94850004                0.99095546                0.17879560                0.20791879               -0.63596886                0.00740027                0.00979618                0.37879833
              10.27172444                4.92475332                8.89715894                1.00000000                0.24914912                0.31297414               -1.04832931               -0.02955340               -0.00259320               -0.32596993
               0.31007909                6.07536843                9.09052487                1.00000000               -0.16514049               -0.27582845                0.82049837               -0.04513446                0.06769317                0.75635669
               1.30842769                6.05606232                9.02936590                0.70866663               -0.09791825               -0.09782899                0.32948542               -0.03248100                0.14856860               -0.19077308
               2.30812073                6.03610915                8.96969886                0.00010000               -0.07624347                0.06847230               -0.14753373                0.23698637                3.17101457               -1.07690112
               3.30690282                6.02100017                8.96911201                0.00010000               -0.18974390                0.25836683               -0.21950416                0.58005718                6.21355863               -0.72606596
               4.30432585                6.00679629                8.97298792                0.00010000               -0.30717823                0.27619305               -0.23793241                0.65234606                6.50544221               -0.43240202
               5.30075925                5.99321272                8.98078999                0.00010000               -0.40443879                0.24988552               -0.21336189                0.64399857                6.73161995               -0.18171163
               6.29623707                5.98017630                8.99160505                0.00010000               -0.49880696                0.20896833               -0.16736026                0.61992746                6.88581951                0.14654467
               7.29078311                5.96816795                9.00485116                0.00010000               -0.58737888                0.13928232               -0.10404602                0.62608420                7.02434387                0.55271067
               8.28448949                5.95800219                9.02058516                0.24205175               -0.28735842                0.03725590               -0.01640432                0.29621136                3.54557554                1.02334557
               9.28503594                5.94260845                8.96596221                0.91280476                0.12596556                0.14415000               -0.44903854                0.00143139                0.02518375                0.33993279
              10.28700880                5.92764322                8.91125322                1.00000000                0.19728613                0.26274239               -0.88014077               -0.02801980                0.01810245               -0.35996379
               0.32802592                7.07284742                9.07951834                0.99843394               -0.11907511               -0.22454203                0.68003197               -0.04392507                0.04069064                0.70763863
               1.32683517                7.05535836                9.01336434                0.61996043               -0.04369431               -0.04369045                0.14667514               -0.03403966                0.13523795               -0.26139109
               2.32715203                7.03712387                8.94899047                0.00010000               -0.01261874                0.13385042               -0.37863234                0.22142569                3.75840693               -1.23285281
               3.32658279                7.02346473                8.95548631                0.00010000               -0.15804413                0.25634281               -0.32513233                0.50857654                7.34997985               -0.94054341
               4.32399115                7.00966925                8.96604407                0.00010000               -0.33904997                0.29256514               -0.25924453                0.50135032                7.59002395               -0.57132731
               5.31980179                6.99589833                8.98028466                0.00010000               -0.48728708                0.28165769               -0.18518266                0.46472798                7.78119870               -0.21606661
               6.31424541                6.98235319                8.99762704                0.00010000               -0.61713627                0.23019588               -0.08795301                0.41090093                7.93875972                0.13295813
               7.30745907                6.96945178                9.01787542                0.00010000               -0.73065761                0.12205592                0.03849402                0.38352490                8.10619971                0.52341789
               8.29963225                6.95799115                9.04106132                0.26202313               -0.39192623               -0.03710681                0.19607634                0.16243530                4.10100647                0.98332775
               9.29962054                6.94374440                8.98308489                0.85793319                0.07311221                0.08631845               -0.26480899               -0.00582390                0.03248212                0.30144872
              10.30109450                6.93000817                8.92481690                0.99379103                0.14739569                0.21326262               -0.72371844               -0.02818447                0.01624794               -0.40920420
               0.34417871                8.07087759                9.06805857                0.98811352               -0.07082582               -0.17032984                0.53309964               -0.04100678                0.02653937                0.68187490
               1.34347045                8.05518852                8.99696241                0.59345880                0.01320815                0.01162351               -0.04306833               -0.02809367                0.09941394               -0.29206593
               2.34444287                8.03878616                8.92723941                0.00010000                0.05292557                0.20083932               -0.62537352                0.18698405                4.28905266               -1.25320160
               3.34452896                8.02612702                8.94019361                0.00010000               -0.12618042                0.25807657               -0.38082898                0.38293620                8.50157045               -1.03191908
               4.34191926                8.01264759                8.95807859                0.00010000               -0.35795444                0.28674020               -0.25446124                0.33485015                8.74238214               -0.58078723
               5.33736987                7.99884588                8.97913946                0.00010000               -0.55088115                0.29626476               -0.15160628                0.29395709                8.85982530               -0.21355859
               6.33090164                7.98478022                9.00306975                0.00010000               -0.72771070                0.26899815               -0.01028894                0.21025658                8.99276221                0.10487843
               7.32281566                7.97060907                9.03028347                0.00010000               -0.87280284                0.13323418                0.17572419                0.09404224                9.19801626                0.45102529
               8.31344558                7.95726005                9.06121366                0.28507983               -0.49566057               -0.10821336                0.40644747               -0.00347969                4.66465009                0.92215733
               9.31290245                7.94433482                8.99981251                0.84697100                0.02359968                0.03171868               -0.09504332               -0.00821959                0.03018886                0.28693094
              10.31391757                7.93190847                8.93790265                0.96207806                0.10151296                0.17138775               -0.58277143               -0.02930408                0.00452134               -0.43515652
               0.35858393                9.06944083                9.05636841                0.98092614               -0.02192072               -0.12099946                0.38441600               -0.03591779                0.02343658                0.56388521
               1.35836473                9.05559083                8.98034813                0.61841232                0.06846353                0.07071209               -0.23718629               -0.01501439                0.12295087               -0.26980825
               2.35995320                9.04114065                8.90626782                0.00927954                0.10076769                0.26474946               -0.86821013                0.11108760                4.83843433               -0.90323615
               3.36038008                9.02862626                8.92487881                0.00010000               -0.09919520                0.22560010               -0.29317334                0.20079984                9.66607107               -0.76410425
               4.35796930                9.01540406                8.95048464                0.00010000               -0.34158863                0.25952009               -0.23284686                0.17004892                9.88667659               -0.37914194
               5.35354831                9.00182362                8.97786006                0.00010000               -0.56409783                0.28935047               -0.12444590                0.15725521                9.86459214               -0.13246477
               6.34668734                8.98773316                9.00766712                0.00010000               -0.83441137                0.29539839                0.05428264                0.06405777                9.97419031                0.06569070
               7.33686008                8.97211646                9.04124926                0.00010000               -1.04252141                0.24892441                0.29617790               -0.12505364               10.28086073                0.27771021
               8.32583691                8.95582688                9.08042861                0.30884115               -0.60261738               -0.17017810                0.60416397               -0.21929273                5.30462479                0.65022309
               9.32480773                8.94437877                9.01665165                0.88908093               -0.02379023               -0.02370552                0.07514514               -0.00588540                0.07071286                0.26176677
              10.32536111                8.93343592                8.95093965                0.94040926                0.05533783                0.13431850               -0.44169312               -0.02859526               -0.02312039               -0.36437275
               0.37116033               10.06845760                9.04236629                0.98948026                0.03099989               -0.09832233                0.22663313                0.07215574                0.33708309                0.45853937
               1.37147033               10.05660276                8.96445441                0.84150826                0.12344281                0.10119242               -0.41804625                0.09173808                0.60282037               -0.24151190
               2.37362919               10.04408115                8.89185346                0.51552517                0.14056095                0.29404954               -1.03891001                0.06941220                5.60187144               -0.60105242
               3.37428155               10.03063903                8.91429220                0.32790188               -0.07531538                0.20127625               -0.28227455                0.07798976               10.51615470               -0.38961231
               4.37212288               10.01783800                8.94522800                0.32416335               -0.30478380                0.24339401               -0.25376588                0.11505136               10.73381646               -0.15886836
               5.36818588               10.00463289                8.97700998                0.34690605               -0.51164650                0.28092657               -0.12267921                0.10626662               10.64588208               -0.02743607
               6.36188995                9.99068819                9.01108377                0.39311553               -0.79825074                0.29550342                0.09489629                0.06799480               10.76687379                0.07659812
               7.35222086                9.97558756                9.04927451                0.48194260               -1.25462674                0.34711001                0.38363577               -0.30550665               11.19697769                0.19556823
               8.33679742                9.95385649                9.09496134                0.66504205               -0.85225832               -0.19703861                0.75322277               -0.49029221                6.06451343                0.43267134
               9.33517569                9.94386071                9.03281825                0.97322209               -0.07830257               -0.05180604                0.23855380                0.07371389                0.42260857                0.23612842
              10.33523137                9.93459484                8.96543482                0.97543084                0.00556719                0.11589222               -0.29077871                0.06043913                0.16648403               -0.29038414
               0.20541878                0.11658960               10.16704993                1.00000000               -0.39613903               -0.44008459                1.51443039               -0.07643575               -0.47050130                0.52117208
               1.20145739                0.08463220               10.12499093                1.00000000               -0.32750198               -0.34276381                1.19782754               -0.05616818               -0.55922160                0.00610724
               2.19886874                0.05239797               10.08102591                1.00000000               -0.17808318               -0.24815537                0.84507408               -0.04362087               -0.49097251               -0.19339716
               3.19789572                0.02095456               10.04021988                0.59903480                0.30572625               -0.18301620                0.53050050                0.38539713                0.43734934               -0.33868726
               4.20498326               -0.00068918               10.01476047                0.63635614                0.50400578               -0.15012363                0.23673540                0.00207082                1.09245486                0.01471037
               5.20797584               -0.01581348                9.98699824                0.69002766                0.20062175               -0.00442529               -0.09727030               -0.00151261                0.78888187                0.01568925
               6.20899570               -0.02997605                9.95589887                0.69068335                0.05589393                0.11024770               -0.44751027                0.00526600                0.65553103               -0.00694542
               7.20909372               -0.04638572                9.92560539                0.82254139                0.05900826                0.22197869               -0.79759468                0.06435463                0.40227930                0.02925986
               8.21017586               -0.06731705                9.88946444                1.00000000                0.21920864                0.33894003               -1.12643513                0.04122202               -0.08039666                0.31895728
               9.21347789               -0.09076574                9.84972853                1.00000000                0.39799464                0.41484701               -1.44403231               -0.05065117               -0.28827796                0.02490730
              10.21813575               -0.11428478                9.80960888                1.00000000                0.46578653                0.50491330               -1.75011311               -0.07976789               -0.31400570               -0.33464674
               0.23661183                1.11218876               10.15271196                1.00000000               -0.36203031               -0.42365910                1.37641752               -0.03198716               -0.04577136                0.71297539
               1.23299152                1.08120456               10.11019250                1.00000000               -0.31702398               -0.32085646                1.06049521               -0.01149511                0.01991108                0.01678647
               2.23027135                1.04991641               10.06890102                0.75248003               -0.23491270               -0.22327709                0.73773146                0.01236575                0.26066451               -0.51554935
               3.22829327                1.01912440               10.03120626                0.03892025               -0.34416761               -0.17663429                0.41444148                0.50506818                1.42003767               -0.69331307
               4.22338799                0.99780958               10.01326580                0.13518711               -0.28445604                0.09254111                0.20467127                0.46373482                2.00449177                0.31014075
               5.22260415                0.98414226                9.98897663                0.19304506                0.04732397                0.09803234               -0.09660833                0.48279413                1.46645825                0.21315737
               6.22433447                0.97112643                9.96103283                0.12399869                0.29018075               -0.04108396               -0.41755072                0.41245877                1.32662562               -0.34806112
               7.22840776                0.95583407                9.93435156                0.32243729                0.42218104                0.25521904               -0.71981859                0.44891138                1.22046810                0.53429107
               8.23277809                0.93607235                9.90442774                1.00000000                0.40237409                0.31319242               -1.00278591                0.15576720                0.60170423                0.41488858
               9.23645524                0.91338273                9.86523908                1.00000000                0.40395124                0.39605021               -1.30463946               -0.00192751                0.08668526                0.07457893
              10.24085712                0.89076435                9.82505769                1.00000000                0.44018744                0.47924768               -1.61033898               -0.03137378                0.03287586               -0.39493131
               0.26674743                2.10811642               10.14203005                1.00000000               -0.32476029               -0.39432284                1.26533917               -0.03405114                0.03071868                0.92189358
               1.26349983                2.07821507               10.09550452                1.00000000               -0.27756098               -0.28091093                0.92806082               -0.01487098                0.10020310               -0.00083122
               2.26119621                2.04793243               10.05028658                0.34577057               -0.16979551               -0.17475364                0.61114619               -0.00060991                0.66670302               -0.98509104
               3.26010392                2.01742188               10.01508457                0.00010000               -0.59780575               -0.15655150                0.28974872                0.79644069                3.02808367               -1.32399318
               4.24924010                2.00116164               10.01727549                0.00010000               -0.78945197                0.22517500                0.58054249                1.54940518                3.21667648               -0.87419690
               5.24431488                1.98614716                9.99476854                0.00010000               -0.18435157                0.08288872               -0.02205377                1.32427938                1.39335154               -0.47359150
               6.24555306                1.96920227                9.95937309                0.00010000                0.44055709               -0.07827164               -0.40049587                1.35056642                2.22371459                0.05375289
               7.25312602                1.95871866                9.95328869                0.00010000                0.50947407               -0.00192884               -0.61558941                0.97448919                2.48772236                0.36045946
               8.25574255                1.93894680                9.92136651                0.40341636                0.28106599                0.29025378               -0.85946319                0.20389098                0.84090897                0.78031412
               9.25874734                1.91715526                9.88183609                1.00000000                0.35012465                0.37164943               -1.16097962                0.03166131                0.31438050                0.33757279
              10.26274504                1.89530017                9.83943431                1.00000000                0.39976992                0.43032404               -1.48371592               -0.02052901                0.16798410               -0.40919070
               0.29573351                3.10430230               10.13167123                1.00000000               -0.28554116               -0.36868122                1.15561931               -0.03603202                0.02665750                0.93882547
               1.29287810                3.07558634               10.08025275                1.00000000               -0.23405855               -0.24217281                0.79014974               -0.01881266                0.02891939               -0.03541494
               2.29105234                3.04642134               10.02877724                0.13434250               -0.09426159               -0.11835949                0.42535473               -0.05786488                0.83548925               -1.07889923
               3.29099287                3.01599337                9.99346978                0.00010000               -0.27007638                0.05190393                0.11674016                0.71833350                3.30602855               -1.19530899
               4.28565081                3.00231308                9.99165655                0.00010000               -0.49718799                0.13795238                0.03728299                1.74534752                4.54252492               -1.55261070
               5.28104911                2.98580004                9.98325490                0.00010000               -0.34382560                0.05426399               -0.09672842                1.67235301                3.92808531               -0.94969921
               6.27877430                2.96956099                9.97193656                0.00010000               -0.14480447                0.09617423               -0.32698475                1.56390277                3.63872261                0.31017166
               7.27815302                2.95579549                9.95886633                0.00010000               -0.01774931               -0.10396305               -0.51658411                1.14546398                3.40709282                0.12625042
               8.27841931                2.94187743                9.94369212                0.20709862                0.12910404                0.28123703               -0.70919141                0.48930767                1.97699653                1.40567949
               9.28073510                2.92081572                9.90266662                1.00000000                0.28687058                0.33578127               -0.98769659                0.04204282                0.33633502                0.50197585
              10.28415672                2.89937083                9.85477813                1.00000000                0.34216268                0.39133849               -1.34602251               -0.02936013               -0.01081016               -0.33046034
               0.32345871                4.10074280               10.12114287                1.00000000               -0.24541770               -0.34215978                1.04171281               -0.03637179                0.02651519                0.91685661
               1.32100453                4.07337161               10.06480884                1.00000000               -0.19134136               -0.19844266                0.64537001               -0.01694419                0.02778025               -0.04541466
               2.31963188                4.04556524               10.00839015                0.03052022               -0.12128441               -0.05768041                0.24802079                0.04228220                1.42826912               -0.96918968
               3.31857885                4.01845996                9.98008390                0.00010000               -0.26457521                0.37273762               -0.22844316                0.57244224                4.31049600               -0.24026761
               4.31434038                4.00392069                9.98152285                0.00010000               -0.40324089                0.18212047               -0.12787851                1.18349031                5.49517373               -0.57566946
               5.31051403                3.98723244                9.97949195                0.00010000               -0.37523580                0.17224116               -0.18928657                1.14010339                5.17570376               -0.40074915
               6.30683566                3.97112575                9.97659011                0.00010000               -0.33975809                0.17530492               -0.28516314                1.13542610                5.02711217                0.00346513
               7.30371887                3.95663940                9.97363801                0.00010000               -0.31635950                0.12882983               -0.38636618                1.11548914                5.05656810                0.61935743
               8.30050847                3.94457154                9.97299642                0.20672696               -0.08120377                0.21628765               -0.46703401                0.51927786                2.60880862                1.51319288
               9.30209479                3.92387089                9.92250293                1.00000000                0.22695688                0.27210780               -0.81205217                0.02314588                0.05710079                0.44460548
              10.30504761                3.90312694                9.87092281                1.00000000                0.29528204                0.35460023               -1.19448756               -0.02749382               -0.00017986               -0.31117022
               0.34974845                5.09745911               10.11019153                1.00000000               -0.20316695               -0.31027057                0.91907503               -0.03886622                0.06940915                0.86823610
               1.34771678                5.07161749               10.04932426                0.85373354               -0.14694027               -0.14965019                0.49682617               -0.02136484                0.10968939               -0.10546735
               2.34680964                5.04526773                9.98915546                0.00010000               -0.18152585                0.00108388                0.08653621                0.23029613                2.61893722               -0.99300364
               3.34408626                5.02344812                9.97852445                0.00010000               -0.31307545                0.39671247               -0.17364723                0.59778179                5.39878047               -0.10377047
               4.34054813                5.00595549                9.97589055                0.00010000               -0.37200747                0.23430543               -0.20602096                0.87206844                5.96459357               -0.34191402
               5.33664611                4.98924486                9.97864298                0.00010000               -0.42361352                0.22042415               -0.21188494                0.88872925                6.20443568               -0.20447115
               6.33207586                4.97306709                9.98297275                0.00010000               -0.48145471                0.20737619               -0.23107863                0.88516189                6.25519811                0.13846643
               7.32701702                4.95837209                9.98896268                0.00010000               -0.52512383                0.17119498               -0.24625295                0.91096537                6.34879149                0.63912358
               8.32157338                4.94620318                9.99729818                0.21954519               -0.21872007                0.11853236               -0.24160962                0.44699401                3.20464731                1.20332056
               9.32264261                4.92625787                9.94217758                0.99017013                0.17606810                0.20511514               -0.62873618                0.01430823                0.01541872                0.41474901
              10.32509475                4.90646284                9.88675536                1.00000000                0.24521321                0.31078003               -1.03255927               -0.02800438               -0.00272305               -0.33349418
               0.37436462                6.09453739               10.09854895                1.00000000               -0.15960133               -0.26792958                0.78688696               -0.04151116                0.06789812                0.80264930
               1.37276861                6.07037861               10.03264999                0.69729652               -0.09787257               -0.09665230                0.32733313               -0.02871520                0.15429595               -0.22002400
               2.37240717                6.04558691                9.96837940                0.00010000               -0.14609434                0.06461497               -0.11883347                0.27658134                3.37776134               -1.18318613
               3.36984672                6.02639420                9.96704462                0.00010000               -0.32110802                0.27186103               -0.20024030                0.65622611                6.64229672               -0.72961356
               4.36598501                6.00860680                9.97070864                0.00010000               -0.43348542                0.28187571               -0.22237755                0.73956829                6.98210159               -0.41516809
               5.36117701                5.99164093                9.97873443                0.00010000               -0.52866696                0.26516135               -0.19902413                0.71999074                7.23397647               -0.16264570
               6.35541167                5.97527328                9.98996660                0.00010000               -0.61874640                0.23354784               -0.15953148                0.68386584                7.39527389                0.18100319
               7.34880209                5.96006330               10.00379241                0.00010000               -0.69245515                0.15959345               -0.10584067                0.69305608                7.54043542                0.61334487
               8.34156257                5.94694219               10.02035290                0.23631561               -0.33403936                0.03592797               -0.02968625                0.33352077                3.80394012                1.11475411
               9.34212130                5.92797319                9.96146811                0.89981906                0.12575164                0.14233590               -0.44939883                0.00572936                0.02867132                0.37600201
              10.34407760                5.90934254                9.90250747                1.00000000                0.19563027                0.26365442               -0.87053213               -0.02626342                0.02363690               -0.36954812
               0.39723578                7.09210051               10.08612830                0.99706331               -0.11428341               -0.21605521                0.64505178               -0.04010481                0.03881571                0.74683257
               1.39609294                7.06968444               10.01484724                0.61005087               -0.04550538               -0.04336346                0.14982566               -0.02936848                0.13579771               -0.29836094
               2.39632567                7.04656003                9.94542080                0.00010000               -0.09510232                0.12769286               -0.33843348                0.26848069                4.04164420               -1.35557832
               3.39419090                7.02888534                9.95240705                0.00010000               -0.31164470                0.25847341               -0.29676304                0.60470877                7.91509606               -0.94978553
               4.39009278                7.01159301                9.96357670                0.00010000               -0.49057269                0.31239425               -0.23902209                0.61302578                8.16036462               -0.54097300
               5.38437944                6.99454809                9.97852449                0.00010000               -0.63809883                0.31477770               -0.16943776                0.55671840                8.35965602               -0.18315247
               6.37733080                6.97773805                9.99678652                0.00010000               -0.75851076                0.26704813               -0.08017724                0.47533443                8.53092469                0.17238175
               7.36920923                6.96156396               10.01822598                0.00010000               -0.84984450                0.14869611                0.03340161                0.43287054                8.71214920                0.58199187
               8.36033391                6.94692174               10.04290098                0.25657352               -0.44261914               -0.03640671                0.17449088                0.18714875                4.40356255                1.07178110
               9.36035685                6.92910459                9.98042052                0.85071462                0.07484349                0.08643637               -0.27177279               -0.00100439                0.03364448                0.33182433
              10.36183078                6.91173592                9.91763475                0.99319975                0.14739337                0.21546277               -0.71964584               -0.02556926                0.01957861               -0.42861513
               0.41839467                8.09021628               10.07319773                0.98719909               -0.06729503               -0.16172797                0.49827956               -0.03730106                0.02358121                0.71759100
               1.41772172                8.06951134                9.99658991                0.58354223                0.00906059                0.00983807               -0.03194085               -0.02342889                0.09224781               -0.33372420
               2.41857588                8.04814077                9.92129411                0.00010000               -0.04068986                0.18845313               -0.56812265                0.24328740                4.66702162               -1.38061889
               3.41690792                8.03156367                9.93639646                0.00010000               -0.29965502                0.27778380               -0.37745013                0.51095268                9.21278082               -0.96647488
               4.41258278                8.01485468                9.95558874                0.00010000               -0.53707918                0.33632486               -0.24733337                0.46864457                9.38736902               -0.52619650
               5.40616634                7.99793648                9.97772360                0.00010000               -0.73401470                0.35310239               -0.13646351                0.39096846                9.50320532               -0.17601894
               6.39790249                7.98061424               10.00301086                0.00010000               -0.89452669                0.32408404               -0.00278737                0.26595775                9.66261030                0.14018007
               7.38827581                7.96303722               10.03198345                0.00010000               -1.00687895                0.17284213                0.16618600                0.11913960                9.89402280                0.49990460
               8.37776491                7.94621405               10.06509514                0.28052504               -0.54943905               -0.10292700                0.37348736                0.00418968                5.00857866                1.00328625
               9.37728703                7.92970192                9.99881175                0.84702582                0.02693218                0.03347540               -0.10605542               -0.00503260                0.02503482                0.31034930
              10.37830355                7.91365180                9.93213792                0.98388553                0.10165278                0.17211720               -0.57589192               -0.02639308                0.00702055               -0.46117380
               0.43789964                9.08886596               10.06002458                0.98035034               -0.01997659               -0.11206977                0.35072690               -0.03306243                0.01743059                0.59433899
               1.43769988                9.06988120                9.97808971                0.60674681                0.06197209                0.06539802               -0.21584528               -0.01236669                0.11153836               -0.30677752
               2.43913909                9.05032910                9.89800511                0.00010000               -0.00019184                0.24443478               -0.79070852                0.19907306                5.35869083               -0.99417895
               3.43769604                9.03444102                9.92128641                0.00010000               -0.30231115                0.31254690               -0.38938701                0.33161556               10.50372483               -0.66278173
               4.43309286                9.01831950                9.94810115                0.00010000               -0.56283927                0.34672436               -0.24753778                0.27880375               10.54569347               -0.32882806
               5.42643926                9.00161013                9.97672336                0.00010000               -0.77718263                0.36745511               -0.11083294                0.22355062               10.56075722               -0.10575341
               6.41754921                8.98421973               10.00825787                0.00010000               -1.02235228                0.36485615                0.06141473                0.09712225               10.71977179                0.08744402
               7.40599221                8.96502080               10.04412891                0.00010000               -1.18981001                0.30755203                0.28197093               -0.12431717               11.06778801                0.30497414
               8.39375301                8.94486320               10.08621609                0.30636605               -0.65868802               -0.15868358                0.55883863               -0.23226690                5.69673631                0.70007801
               9.39281845                8.92977410               10.01729015                0.88699240               -0.01749225               -0.01868734                0.05402374               -0.00628080                0.06287891                0.28164114
              10.39340316                8.91517827                9.94653319                0.94238791                0.05847149                0.13514246               -0.44171602               -0.02672123               -0.02516288               -0.38656936
               0.45570293               10.08797489               10.04446731                0.98928345                0.03083207               -0.08910678                0.19721816                0.06476960                0.34598343                0.48343451
               1.45601125               10.07081930                9.96043451                0.83571864                0.11473010                0.09380964               -0.38808388                0.08386601                0.62177211               -0.27139454
               2.45799753               10.05302947                9.88192423                0.50904657               -0.02307102                0.27003717               -0.95398324                0.23560994                6.23926847               -0.65587907
               3.45554983               10.03781461                9.91055953                0.32863711               -0.35038928                0.33735915               -0.42138166                0.22336377               11.43785747               -0.31389506
               4.45098974               10.02178917                9.94261280                0.32450020               -0.54063493                0.34696657               -0.27483987                0.16323661               11.42716512               -0.12767661
               5.44473713               10.00528558                9.97589672                0.34701479               -0.72777375                0.36754464               -0.10899414                0.13589699               11.40837012               -0.00971335
               6.43643427                9.98791136               10.01207994                0.39324203               -0.97955670                0.36916345                0.10177721                0.08364006               11.59162989                0.09200764
               7.42514599                9.96918827               10.05301594                0.48290721               -1.40339974                0.41674642                0.36721389               -0.32817070               12.07258921                0.21535193
               8.40836627                9.94304038               10.10219504                0.66496376               -0.91498269               -0.18228181                0.70057743               -0.53167825                6.51540240                0.45603708
               9.40684634                9.92932817               10.03503824                0.97313381               -0.07027392               -0.04459278                0.20811621                0.06850239                0.43817616                0.25201782
              10.40696080                9.91635465                9.96249745                0.98806976                0.01144542                0.11763778               -0.29910316                0.05841033                0.17479690               -0.30616426
               0.24415947                0.13700941               11.18205999                1.00000000               -0.38964896               -0.43150823                1.48909664               -0.07510414               -0.50774896                0.55581534
               1.24026298                0.10021037               11.13688686                1.00000000               -0.32147802               -0.33776754                1.18170789               -0.05602872               -0.61538176                0.01265639
               2.23772991                0.06316089               11.08943405                1.00000000               -0.17377899               -0.24619222                0.84022137               -0.04303353               -0.54755063               -0.18659618
               3.23678740                0.02700701               11.04552023                0.60821563                0.30790430               -0.18292379                0.53332649                0.40667094                0.40791321               -0.37017382
               4.24388800                0.00118034               11.01712321                0.65103613                0.49502457               -0.13124634                0.23633021               -0.00757814                1.05131820                0.02831431
               5.24668789               -0.01761045               10.98604998                0.70742864                0.18755803                0.00167475               -0.09196187                0.00195867                0.72559429                0.02174656
               6.24763916               -0.03536161               10.95148442                0.70353649                0.05138823                0.10914834               -0.43497732                0.00646077                0.58321995               -0.01286705
               7.24771566               -0.05522769               10.91769590                0.82957543                0.05281636                0.21787260               -0.78288045                0.06245073                0.33822566                0.03002653
               8.24869548               -0.07965386               10.87827663                1.00000000                0.20957184                0.33577519               -1.10996161                0.04375043               -0.12670009                0.33053777
               9.25190709               -0.10673698               10.83537645                1.00000000                0.39007461                0.41000378               -1.42547740               -0.05097711               -0.32313315                0.02276536
              10.25649698               -0.13393475               10.79220625                1.00000000                0.45898817                0.49818679               -1.72951283               -0.07987967               -0.34359041               -0.36530178
               0.28020747                1.13269432               11.16635242                1.00000000               -0.35805126               -0.41438639                1.35309841               -0.03131795               -0.05379632                0.75965407
               1.27662695                1.09683269               11.12072801                1.00000000               -0.31531065               -0.31581899                1.04696645               -0.01068553                0.00692732                0.02522900
               2.27390125                1.06069897               11.07623924                0.77329485               -0.23912833               -0.22239287                0.73133041                0.01803703                0.24350839               -0.51727811
               3.27184439                1.02517778               11.03535160                0.05826233               -0.38901534               -0.17712225                0.41689167                0.54780912                1.45761901               -0.72931845
               4.26612095                0.99986787               11.01529855                0.16086314               -0.34329675                0.09970824                0.20228704                0.33703582                2.06054713                0.49086599
               5.26497845                0.98240630               10.98802556                0.22102971                0.01957189                0.09425321               -0.09357862                0.41833282                1.47403415                0.24422175
               6.26651238                0.96572987               10.95690752                0.14506194                0.27539188               -0.02681301               -0.40764170                0.37005388                1.33404656               -0.35561083
               7.27048629                0.94695104               10.92720926                0.33671515                0.41876255                0.24479690               -0.70792656                0.44694754                1.24104885                0.54566567
               8.27488763                0.92370389               10.89446527                1.00000000                0.40257405                0.31019196               -0.98942682                0.16321693                0.61645759                0.43570168
               9.27853777                0.89736306               10.85226866                1.00000000                0.40041583                0.39200425               -1.28917056               -0.00177564                0.08915891                0.07428757
              10.28289595                0.87104711               10.80904066                1.00000000                0.43581808                0.47156000               -1.59278346               -0.03154359                0.03306475               -0.43220922
               0.31525637                2.12872168               11.15455935                1.00000000               -0.32117419               -0.38448187                1.24198482               -0.03114207                0.02978052                0.98176994
               1.31204463                2.09389399               11.10472612                1.00000000               -0.27554009               -0.27665958                0.91648187               -0.01026453                0.10852899                0.00719225
               2.30974557                2.05871303               11.05640240                0.36533935               -0.17349761               -0.17750356                0.61037320                0.01440968                0.68160692               -1.02398636
               3.30857468                2.02346457               11.01802061                0.00010000               -0.81726897               -0.16044674                0.29541887                0.85278974                3.30895747               -1.38729302
               4.29340019                2.00317450               11.02237771                0.00010000               -0.96910650                0.24458395                0.44834986                1.63738973                3.42897907               -0.94822364
               5.28919255                1.98427462               10.99434146                0.00010000               -0.14523476                0.07312291               -0.05283915                1.40130790                1.33485937               -0.47147840
               6.29049549                1.96410213               10.95549520                0.00010000                0.47440212               -0.09111142               -0.38217886                1.40596147                2.32153912                0.06104357
               7.29868059                1.94966825               10.94711297                0.00010000                0.55261545               -0.02139667               -0.61708501                1.00854680                2.58962397                0.38454428
               8.30154780                1.92654998               10.91282683                0.40935206                0.29238854                0.29120620               -0.84906240                0.23088453                0.90558785                0.81611759
               9.30452836                1.90110310               10.87029164                1.00000000                0.34750921                0.37074766               -1.14823926                0.03789837                0.33666648                0.35369028
              10.30849799                1.87549645               10.82467259                1.00000000                0.39696280                0.42143178               -1.46887512               -0.01867451                0.17964688               -0.44665797
               0.34924000                3.12500469               11.14309893                1.00000000               -0.28096904               -0.35965536                1.13147887               -0.03182244                0.02683325                0.99751181
               1.34643031                3.09129950               11.08810819                1.00000000               -0.23105669               -0.23955531                0.78088684               -0.01373260                0.02860209               -0.03313917
               2.34461887                3.05714889               11.03306949                0.14978561               -0.09958000               -0.12320457                0.43146929               -0.04135106                0.86157259               -1.14365598
               3.34443871                3.02196884               10.99470461                0.00010000               -0.32800868                0.02234909                0.12756684                0.81013171                3.47025020               -1.37040545
               4.33805869                3.00475955               10.99206442                0.00010000               -0.61808659                0.15135932                0.03579093                2.00586147                4.79796686               -1.84969081
               5.33207698                2.98386876               10.98224476                0.00010000               -0.44103580                0.06130125               -0.10700763                1.83514091                4.12067431               -1.02873589
               6.32923798                2.96390765               10.96870405                0.00010000               -0.19338019                0.06770801               -0.32067533                1.70894755                3.80608850                0.33363121
               7.32820938                2.94652310               10.95374410                0.00010000               -0.05837535               -0.11291594               -0.50759962                1.24864954                3.58710731                0.17211508
               8.32807047                2.92952802               10.93668170                0.20473621                0.10699479                0.28741413               -0.69470221                0.53881617                2.09771065                1.48329932
               9.33034927                2.90477801               10.89284157                1.00000000                0.28326518                0.33640582               -0.97788204                0.05151119                0.37489557                0.53182873
              10.33373577                2.87947575               10.84138298                1.00000000                0.33865036                0.38433311               -1.33384785               -0.02810778               -0.00907439               -0.35429660
               0.38203029                4.12152857               11.13142421                1.00000000               -0.24045203               -0.33410281                1.01625103               -0.03261328                0.02610289                0.96979511
               1.37962577                4.08910288               11.07122813                1.00000000               -0.18905401               -0.19675301                0.63837796               -0.01272900                0.02590757               -0.04822041
               2.37824921                4.05624894               11.01093706                0.04306316               -0.12295580               -0.06219016                0.25945893                0.03592517                1.37935106               -1.02223112
               3.37716665                4.02391155               10.97780966                0.00010000               -0.33158531                0.36462105               -0.21976071                0.62116700                4.52037794               -0.31589834
               4.37161750                4.00620169               10.98029609                0.00010000               -0.52096917                0.16808851               -0.12204344                1.29302567                5.91485586               -0.66759061
               5.36674727                3.98550064               10.97765236                0.00010000               -0.47987030                0.18499755               -0.18152412                1.22429849                5.49177015               -0.45815943
               6.36202010                3.96545629               10.97378131                0.00010000               -0.43570309                0.18295096               -0.27711677                1.21288334                5.31978023                0.01596707
               7.35803321                3.94740993               10.96980267                0.00010000               -0.39754379                0.13855491               -0.37991114                1.20231328                5.35004519                0.67954213
               8.35406922                3.93229826               10.96831907                0.20212694               -0.12111790                0.22139723               -0.46734143                0.56886926                2.77571312                1.62253397
               9.35561085                3.90783122               10.91441990                1.00000000                0.22355646                0.27065938               -0.80547811                0.03098600                0.07664889                0.47854996
              10.35854035                3.88318311               10.85903207                1.00000000                0.29295006                0.35115139               -1.18540230               -0.02587864                0.00048813               -0.32081568
               0.41343911                5.11832263               11.11923631                1.00000000               -0.19837472               -0.30219640                0.89185727               -0.03558502                0.07450575                0.91295455
               1.41145536                5.08736444               11.05426914                0.84102290               -0.14552033               -0.14820110                0.49196144               -0.01800782                0.11983207               -0.12039944
               2.41052870                5.05590509               10.99012118                0.00010000               -0.22730305               -0.00344297                0.10415572                0.24644669                2.69265916               -1.06018156
               3.40690930                5.02926126               10.97663902                0.00010000               -0.40992932                0.43068724               -0.21479491                0.62345459                5.68274511               -0.01922859
               4.40233012                5.00812132               10.97386883                0.00010000               -0.48004790                0.23025453               -0.20158012                0.94840046                6.38697407               -0.35278835
               5.39730834                4.98756871               10.97658579                0.00010000               -0.53718820                0.22888306               -0.20169771                0.94394443                6.61628865               -0.20990248
               6.39158635                4.96756667               10.98070677                0.00010000               -0.59473379                0.22631556               -0.22231694                0.93949831                6.65298621                0.16372894
               7.38541367                4.94929420               10.98651244                0.00010000               -0.62798932                0.18808098               -0.24294693                0.97808063                6.74949100                0.70170717
               8.37902657                4.93395596               10.99484284                0.21436482               -0.26647619                0.11981049               -0.24828463                0.48601873                3.41482020                1.30036021
               9.38008415                4.91019120               10.93592531                0.98295676                0.17439284                0.20271647               -0.62572093                0.01933815                0.02641957                0.44977283
              10.38251442                4.88649878               10.87650775                1.00000000                0.24302790                0.30948780               -1.02266852               -0.02611857                0.00103212               -0.33765953
               0.44323497                6.11548464               11.10626261                1.00000000               -0.15518124               -0.25936662                0.75818273               -0.03831620                0.06810830                0.83874060
               1.44168315                6.08613886               11.03591256                0.68691280               -0.09768208               -0.09566070                0.32504408               -0.02506551                0.16009855               -0.24872979
               2.44128132                6.05618008               10.96732219                0.00010000               -0.21318191                0.05962489               -0.09514989                0.31414189                3.56347873               -1.27901187
               3.43741951                6.03252530               10.96510721                0.00010000               -0.45016285                0.29279585               -0.19484956                0.72231035                7.03873228               -0.70342823
               4.43227807                6.01080678               10.96854037                0.00010000               -0.56193499                0.29241847               -0.21614772                0.81519440                7.43643351               -0.38906640
               5.42618082                5.99007830               10.97680951                0.00010000               -0.65967491                0.28387025               -0.18811953                0.78262885                7.71457567               -0.13852120
               6.41908457                5.96998260               10.98841442                0.00010000               -0.74876455                0.25949520               -0.15132627                0.73346526                7.88127125                0.21937822
               7.41120552                5.95117155               11.00273435                0.00010000               -0.80959835                0.18031897               -0.10508868                0.74428945                8.03363053                0.67501506
               8.40289260                5.93469447               11.01999144                0.23112789               -0.38753636                0.03642794               -0.04188411                0.35981973                4.05482709                1.20280628
               9.40345480                5.91188555               10.95697423                0.88606869                0.12551081                0.14230230               -0.45130952                0.00769558                0.03534622                0.40784484
              10.40540282                5.88937287               10.89384258                1.00000000                0.19480209                0.26533171               -0.86792598               -0.02410885                0.03045517               -0.38123064
               0.47136435                7.11313530               11.09241937                0.99593991               -0.11057323               -0.20757534                0.61588026               -0.03685710                0.03712524                0.77634889
               1.47025862                7.08545123               11.01636085                0.60123460               -0.04696207               -0.04336467                0.15257582               -0.02509227                0.13642700               -0.33222406
               2.47042511                7.05709759               10.94222180                0.00010000               -0.17649030                0.12046983               -0.30458195                0.31806863                4.30004311               -1.46220551
               3.46672881                7.03511718               10.94955105                0.00010000               -0.46720543                0.26964362               -0.27940379                0.69712684                8.43887057               -0.95867878
               4.46108100                7.01396969               10.96126362                0.00010000               -0.64718573                0.33962199               -0.22744789                0.70951880                8.69877899               -0.50871077
               5.45378510                6.99324611               10.97689590                0.00010000               -0.79592950                0.35241615               -0.15873834                0.63089593                8.90988948               -0.14585554
               6.44516241                6.97275657               10.99602349                0.00010000               -0.90987549                0.30649365               -0.07322288                0.52319475                9.09456849                0.21542831
               7.43558759                6.95290058               11.01854346                0.00010000               -0.98267232                0.17663424                0.03081900                0.46671278                9.28985967                0.64020282
               8.42550896                6.93468452               11.04455114                0.25173187               -0.50139611               -0.03418998                0.15697650                0.20164566                4.69398508                1.15353625
               9.42555967                6.91303724               10.97764943                0.83638897                0.07743266                0.08933160               -0.28414120                0.00132297                0.03480599                0.36040314
              10.42705762                6.89180541               10.91042398                0.99286855                0.14979516                0.22068431               -0.72702749               -0.02304219                0.02161311               -0.44578248
               0.49786596                8.11133314               11.07802416                0.98649517               -0.06469452               -0.15386388                0.47001828               -0.03426003                0.02112275                0.74434941
               1.49721902                8.08527157               10.99632359                0.57515685                0.00553917                0.00797260               -0.02215076               -0.01936595                0.08611136               -0.36997701
               2.49797675                8.05858948               10.91587696                0.00010000               -0.13645340                0.17646812               -0.51988654                0.30759040                5.00092694               -1.48722411
               3.49448995                8.03791817               10.93264460                0.00010000               -0.48186185                0.30451905               -0.37126816                0.63197308                9.86648936               -0.94295302
               4.48833951                8.01759922               10.95313193                0.00010000               -0.72390472                0.39168730               -0.24439032                0.57868349               10.00710136               -0.48517824
               5.48001186                7.99712662               10.97641019                0.00010000               -0.92227575                0.41446594               -0.12861831                0.46674481               10.12039445               -0.13746089
               6.46989399                7.97611248               11.00301400                0.00010000               -1.07000135                0.38281936                0.00213835                0.30462167               10.29901567                0.17802700
               7.45861183                7.95470424               11.03360719                0.00010000               -1.15525703                0.21414355                0.15947080                0.12841146               10.55383814                0.54703936
               8.44678885                7.93401067               11.06868341                0.27658545               -0.61257316               -0.09779914                0.34758788                0.00346928                5.33793650                1.07503131
               9.44636036                7.91367218               10.99769140                0.83850834                0.03083915                0.03739250               -0.12059449               -0.00177920                0.02339268                0.33289737
              10.44740564                7.89378655               10.92638481                0.98406450                0.10452716                0.17697973               -0.58293166               -0.02285617                0.01169455               -0.48164235
               0.52280229                9.11005802               11.06338295                0.97994141               -0.01873259               -0.10461560                0.32415862               -0.03075220                0.01265052                0.61746994
               1.52261496                9.08561068               10.97603123                0.59718747                0.05640161                0.06068430               -0.19749586               -0.01006187                0.10239593               -0.33792824
               2.52393032                9.06062695               10.89045365                0.00010000               -0.11282136                0.22679197               -0.72604438                0.29548351                5.79069895               -1.06808077
               3.52035853                9.04120756               10.91709107                0.00010000               -0.52420521                0.39483522               -0.42852794                0.45183374               11.27611718               -0.61704214
               4.51344621                9.02180344               10.94553388                0.00010000               -0.78758984                0.43309790               -0.26139949                0.36586820               11.21595696               -0.29431244
               5.50460674                9.00153543               10.97564340                0.00010000               -0.98844905                0.44826429               -0.10754105                0.27418998               11.23803540               -0.07939269
               6.49367723                8.98041296               11.00889541                0.00010000               -1.21745584                0.43858617                0.06433486                0.11786793               11.42763344                0.11038938
               7.48025762                8.95718345               11.04688868                0.00010000               -1.35334144                0.37081543                0.27120555               -0.13693534               11.81032756                0.33021536
               8.46661040                8.93272854               11.09160538                0.30411310               -0.72547076               -0.14956764                0.52393155               -0.25520279                6.06925216                0.74289694
               9.46574820                8.91378509               11.01773212                0.88486387               -0.01193247               -0.01336574                0.03506378               -0.00535403                0.05866454                0.29761112
              10.46637175                8.89534501               10.94210533                0.94470447                0.06235506                0.13782503               -0.44920052               -0.02384552               -0.02439832               -0.40649919
               0.54614560               10.10924082               11.04631066                0.98914800                0.03032511               -0.08171964                0.17443430                0.05877440                0.35261439                0.50253436
               1.54644885               10.08648525               10.95669273                0.83109685                0.10719689                0.08745738               -0.36262445                0.07761365                0.63699704               -0.29603070
               2.54828954               10.06312532               10.87277380                0.50441129               -0.20493557                0.24983644               -0.88312175                0.40240285                6.75918700               -0.69924577
               3.54235014               10.04581487               10.90586457                0.32945003               -0.64802675                0.46073120               -0.48664724                0.35595367               12.29632189               -0.28197728
               4.53532900               10.02626118               10.93973120                0.32481938               -0.77320016                0.44577384               -0.29544156                0.20213080               12.14888163               -0.10822459
               5.52688614               10.00609191               10.97483010                0.34704346               -0.93628353                0.45564786               -0.10677176                0.15909120               12.15332643                0.00609001
               6.51660333                9.98488420               11.01311931                0.39324015               -1.16642978                0.44712423                0.10429834                0.09404163               12.37608205                0.10659565
               7.50355754                9.96212054               11.05661879                0.48374129               -1.57600869                0.49370911                0.35470291               -0.36325175               12.89874339                0.23231233
               8.48508316                9.93101932               11.10897289                0.66472054               -0.99603622               -0.17092174                0.66116362               -0.58850846                6.94056034                0.47548911
               9.48363682                9.91340487               11.03698057                0.97311055               -0.06371291               -0.03802268                0.18206114                0.06504778                0.45179062                0.26417704
              10.48380890                9.89654305               10.95945276                0.98822281                0.01720839                0.11980448               -0.31078164                0.05753305                0.18077806               -0.32117025
               0.28561005                0.15912104               12.19683186                1.00000000               -0.38343659               -0.42385579                1.46661149               -0.07433168               -0.54290884                0.58789660
               1.28177569                0.11720303               12.14862509                1.00000000               -0.31628505               -0.33331495                1.16693147               -0.05651093               -0.66665344                0.01960161
               2.27928435                0.07505568               12.09783034                1.00000000               -0.17054277               -0.24531686                0.83967077               -0.04237762               -0.59993075               -0.18456779
               3.27836483                0.03388835               12.05088641                0.61519044                0.30977655               -0.18506898                0.54027058                0.42568860                0.37208724               -0.40451709
               4.28547988                0.00352643               12.01948708                0.66237708                0.48808420               -0.11540253                0.23727983               -0.01639390                1.00521612                0.04232697
               5.28812651               -0.01932972               11.98515900                0.72141992                0.17671457                0.00649346               -0.08600446                0.00463353                0.66320530                0.02829271
               6.28901417               -0.04107959               11.94719933                0.71412051                0.04697498                0.10830212               -0.42196313                0.00764374                0.51110526               -0.01829888
               7.28906601               -0.06481191               11.90994778                0.83557679                0.04735695                0.21422184               -0.76602766                0.06029821                0.27295264                0.03136089
               8.28996131               -0.09308357               11.86726521                1.00000000                0.20097983                0.33197529               -1.09159229                0.04450668               -0.17398420                0.34222693
               9.29308561               -0.12409485               11.82121898                1.00000000                0.38215156                0.40481346               -1.40538211               -0.05106061               -0.35824545                0.02087807
              10.29760434               -0.15525963               11.77501862                1.00000000                0.45187327                0.49134528               -1.70727004               -0.07947126               -0.37311481               -0.39561163
               0.32678474                1.15488248               12.17977393                1.00000000               -0.35414803               -0.40578582                1.33245582               -0.03128651               -0.06105652                0.80281132
               1.32324326                1.11386988               12.13113182                1.00000000               -0.31334099               -0.31121507                1.03428609               -0.01141488               -0.00542496                0.03359349
               2.32051792                1.07260251               12.08352763                0.79102463               -0.24284587               -0.22166143                0.72710941                0.02086411                0.22778382               -0.52002516
               3.31838634                1.03203766               12.03954409                0.07527388               -0.42964699               -0.17826721                0.42170026                0.58564128                1.48970181               -0.76661117
               4.31192498                1.00237240               12.01731154                0.18316329               -0.39552396                0.09524318                0.20055316                0.23582482                2.10932737                0.61202052
               5.31047586                0.98073521               11.98710506                0.24549788               -0.00466365                0.09140570               -0.09071381                0.36995440                1.48144321                0.26567231
               6.31183170                0.96000343               11.95287999                0.16378240                0.25975628               -0.01468996               -0.39823330                0.33966290                1.34060396               -0.36065622
               7.31567099                0.93733031               11.92019303                0.35014448                0.41080728                0.23433081               -0.69513504                0.43768004                1.25973901                0.55333514
               8.32004785                0.91023618               11.88463920                1.00000000                0.39960255                0.30681452               -0.97571646                0.16686467                0.63041616                0.45678481
               9.32366304                0.87995328               11.83945567                1.00000000                0.39632817                0.38755037               -1.27330075               -0.00165336                0.09165768                0.07453021
              10.32797441                0.84965382               11.79320202                1.00000000                0.43113767                0.46421582               -1.57468720               -0.03135981                0.03336130               -0.46887776
               0.36700951                2.15100532               12.16686975                1.00000000               -0.31821495               -0.37474011                1.22135375               -0.02931283                0.02947437                1.03639670
               1.36382736                2.11097873               12.11383416                1.00000000               -0.27378250               -0.27241724                0.90540084               -0.00732755                0.11701344                0.01462706
               2.36153386                2.07062245               12.06249404                0.38382882               -0.17598004               -0.17944750                0.60693928                0.02568593                0.69439500               -1.05850044
               3.36030776                2.03032300               12.02099295                0.00010000               -1.00175178               -0.16207241                0.29769673                0.89127233                3.51925893               -1.44770105
               4.34149882                2.00543129               12.02624249                0.00010000               -1.12065910                0.25142385                0.34571261                1.71602068                3.63810084               -0.99821228
               5.33789458                1.98249839               11.99371175                0.00010000               -0.11432439                0.05896010               -0.06828592                1.47712123                1.32762825               -0.47041377
               6.33921233                1.95862661               11.95172951                0.00010000                0.48461429               -0.10279654               -0.37337644                1.44706695                2.41470474                0.06827197
               7.34758686                1.93987471               11.94094699                0.00010000                0.57316482               -0.03911070               -0.61473090                1.03363186                2.69075449                0.41267647
               8.35067563                1.91305272               11.90438526                0.41600058                0.30240229                0.29074952               -0.83989968                0.25048296                0.97414537                0.85574391
               9.35363491                1.88365616               11.85887130                1.00000000                0.34502222                0.36853744               -1.13617682                0.04203248                0.35949092                0.37071287
              10.35757608                1.85402468               11.81005681                1.00000000                0.39411683                0.41357995               -1.45446269               -0.01724771                0.19156809               -0.48318967
               0.40625165                3.14738768               12.15430081                1.00000000               -0.27720762               -0.35019999                1.11024737               -0.02844281                0.02777961                1.04968288
               1.40347958                3.10842154               12.09587049                1.00000000               -0.22821452               -0.23662426                0.77160489               -0.00958219                0.02957445               -0.03146197
               2.40168736                3.06901356               12.03740663                0.16515668               -0.10383195               -0.12767607                0.43464840               -0.02609028                0.88387874               -1.20231863
               3.40140294                3.02879621               11.99602112                0.00010000               -0.38086811               -0.00577130                0.13366020                0.88534716                3.61516818               -1.53903230
               4.39407000                3.00740088               11.99237237                0.00010000               -0.72899858                0.16665881                0.02535701                2.22070865                5.03038848               -2.07804437
               5.38682297                2.98191442               11.98111474                0.00010000               -0.53366364                0.06149155               -0.11773121                1.97581263                4.31364995               -1.08484376
               6.38339673                2.95794750               11.96552306                0.00010000               -0.24527279                0.04078814               -0.31591178                1.82511530                3.97684113                0.35597585
               7.38191751                2.93654810               11.94871434                0.00010000               -0.10603344               -0.12063987               -0.49884474                1.33494124                3.76435730                0.22419139
               8.38127606                2.91605117               11.92979807                0.20329663                0.08071064                0.29041753               -0.68416257                0.57529045                2.21766327                1.56221632
               9.38353172                2.88732403               11.88310898                1.00000000                0.28081730                0.33509939               -0.96919869                0.05770509                0.41105560                0.56264126
              10.38689241                2.85792542               11.82810117                1.00000000                0.33606817                0.37805867               -1.32325477               -0.02701352               -0.00717425               -0.37728794
               0.44437292                4.14400132               12.14146789                1.00000000               -0.23630906               -0.32539407                0.99396589               -0.02944558                0.02658459                1.01513046
               1.44200983                4.10624625               12.07757640                1.00000000               -0.18677714               -0.19482341                0.63118029               -0.00917125                0.02514455               -0.05170965
               2.44063738                4.06806893               12.01357932                0.05562332               -0.11912287               -0.06672901                0.26733029                0.02834551                1.32590624               -1.06931127
               3.43962738                4.03020758               11.97568868                0.00010000               -0.39212958                0.34848958               -0.20054782                0.66430585                4.70528297               -0.41436512
               4.43279479                4.00876447               11.97908198                0.00010000               -0.63815831                0.16272832               -0.12364839                1.38957458                6.31474663               -0.75333884
               5.42686421                3.98372822               11.97586147                0.00010000               -0.58569147                0.19876251               -0.17819906                1.29944391                5.79891360               -0.50202709
               6.42108096                3.95944237               11.97104778                0.00010000               -0.53410989                0.18805323               -0.27031938                1.27729477                5.60488458                0.03355608
               7.41618201                3.93746191               11.96603979                0.00010000               -0.48377287                0.14632301               -0.37288224                1.26859735                5.63429617                0.74091772
               8.41140550                3.91886107               11.96364959                0.19831146               -0.16336236                0.22434210               -0.46637580                0.60385439                2.93961054                1.72778852
               9.41291477                3.89035814               11.90639337                1.00000000                0.22137651                0.26874848               -0.80085618                0.03495783                0.09745125                0.51202475
              10.41583303                3.86158586               11.84721477                1.00000000                0.29182687                0.34868592               -1.17948504               -0.02432384                0.00063181               -0.32925739
               0.48117289                5.14087979               12.12802867                1.00000000               -0.19443402               -0.29360925                0.86832420               -0.03277382                0.08019362                0.94947865
               1.47922855                5.10452507               12.05916349                0.82926937               -0.14399721               -0.14669705                0.48668723               -0.01498227                0.13084235               -0.13585072
               2.47829294                5.06767898               11.99123857                0.00163275               -0.26175178               -0.00814337                0.11710493                0.25428255                2.72315243               -1.12046721
               3.47399351                5.03576600               11.97422855                0.00010000               -0.49760479                0.46030176               -0.27509020                0.63761417                5.94614963                0.05956669
               4.46834085                5.01065545               11.97185895                0.00010000               -0.59297848                0.23331021               -0.20326963                1.01701266                6.82452258               -0.36187122
               5.46213394                4.98588967               11.97460903                0.00010000               -0.65659544                0.24160836               -0.19568465                0.98916928                7.01810652               -0.21095437
               6.45520894                4.96170856               11.97852641                0.00010000               -0.71315911                0.24508720               -0.21460291                0.98080932                7.03815788                0.19285609
               7.44787076                4.93947456               11.98410374                0.00010000               -0.73760124                0.20353374               -0.23878043                1.02725585                7.13654945                0.76576240
               8.44045691                4.92053802               11.99233249                0.20982289               -0.31823316                0.12144738               -0.25309292                0.51190846                3.62034167                1.39556999
               9.44150610                4.89269900               11.92966316                0.96872810                0.17467959                0.20239136               -0.63026452                0.02117176                0.04006366                0.48544688
              10.44395051                4.86489914               11.86630199                1.00000000                0.24444088                0.31079221               -1.02442570               -0.02413787                0.00746936               -0.34232536
               0.51642689                6.13812913               12.11371261                1.00000000               -0.15158881               -0.25069247                0.73382151               -0.03556096                0.06831160                0.86683060
               1.51491101                6.10331231               12.03915088                0.67744386               -0.09723962               -0.09480719                0.32235729               -0.02162821                0.16597419               -0.27653775
               2.51448210                6.06790606               11.96647640                0.00010000               -0.27539089                0.05410885               -0.07650435                0.34723484                3.72552668               -1.36556493
               3.50940319                6.03941361               11.96314763                0.00010000               -0.57353612                0.32041842               -0.20560259                0.77287938                7.40609328               -0.64376421
               4.50301138                6.01343067               11.96638568                0.00010000               -0.69043547                0.30858929               -0.21908594                0.87647198                7.87919275               -0.35704446
               5.49559448                5.98856039               11.97497204                0.00010000               -0.79495611                0.30703147               -0.18159801                0.82984326                8.18308790               -0.11125051
               6.48711226                5.96434412               11.98694008                0.00010000               -0.88484007                0.28692329               -0.14449472                0.76689348                8.35156793                0.26029933
               7.47789768                5.94153259               12.00169064                0.00010000               -0.93465154                0.20103095               -0.10370679                0.77769613                8.50974364                0.73769943
               8.46841923                5.92129002               12.01951522                0.22650735               -0.44602992                0.03812388               -0.05233616                0.37620559                4.30024390                1.28912347
               9.46897708                5.89440597               11.95244192                0.87195068                0.12653902                0.14482414               -0.45873025                0.00928532                0.04420965                0.43890665
              10.47095001                5.86780170               11.88514895                1.00000000                0.19729277                0.26894535               -0.87687667               -0.02225542                0.03640030               -0.39564300
               0.55009532                7.13586595               12.09844591                0.99501018               -0.10762653               -0.19947191                0.59172532               -0.03413349                0.03561669                0.79867984
               1.54901906                7.10262893               12.01789876                0.59332705               -0.04794961               -0.04354412                0.15451874               -0.02123225                0.13717967               -0.36314471
               2.54913633                7.06876115               11.93932916                0.00010000               -0.25462882                0.11291900               -0.27709615                0.36683779                4.53489284               -1.55542582
               3.54392648                7.04217437               11.94681897                0.00010000               -0.62064120                0.28754914               -0.27220715                0.78228174                8.92713025               -0.96202421
               4.53672351                7.01682723               11.95902775                0.00010000               -0.80545596                0.37250917               -0.22309781                0.79018853                9.21491491               -0.47424311
               5.52781736                6.99203030               11.97534972                0.00010000               -0.95744471                0.39396825               -0.15256441                0.68587362                9.44228630               -0.10744380
               6.51757461                6.96744703               11.99532206                0.00010000               -1.06692920                0.34793729               -0.06806885                0.55192131                9.63961460                0.25968813
               7.50647878                6.94349518               12.01884236                0.00010000               -1.12334877                0.20501022                0.02903474                0.48194754                9.84773289                0.69809037
               8.49510764                6.92130049               12.04604051                0.24744843               -0.56493291               -0.03147948                0.14157578                0.20602549                4.97565326                1.23236921
               9.49518012                6.89559549               11.97473770                0.82212708                0.08031499                0.09356002               -0.29797920                0.00269728                0.03573222                0.38685146
              10.49671394                6.87027804               11.90309420                0.99278237                0.15338169                0.22679510               -0.73980766               -0.02171318                0.02248351               -0.46346625
               0.58221826                8.13413970               12.08259809                0.98594945               -0.06271073               -0.14685429                0.44724507               -0.03178881                0.01907542                0.76474209
               1.58159115                8.10244142               11.99614689                0.56790586                0.00275773                0.00622892               -0.01415690               -0.01586118                0.08089904               -0.40168556
               2.58227341                8.07016444               11.91089638                0.00010000               -0.23042047                0.16547431               -0.48057547                0.37400313                5.30060687               -1.57733025
               3.57698274                8.04516460               11.92897110                0.00010000               -0.66570947                0.33529191               -0.36392431                0.74640429               10.47308310               -0.93708647
               4.56895923                8.02088086               11.95070093                0.00010000               -0.91452941                0.45033744               -0.24196927                0.67056584               10.60529350               -0.45353153
               5.55869215                7.99643976               11.97515123                0.00010000               -1.11367106                0.47860365               -0.12431974                0.52215393               10.72031520               -0.10130948
               6.54668580                7.97130286               12.00305363                0.00010000               -1.25044949                0.44375873                0.00490602                0.32375119               10.91469087                0.21553021
               7.53368317                7.94563279               12.03517286                0.00010000               -1.31231888                0.25591643                0.15405185                0.11837875               11.19014303                0.59261591
               8.52043943                7.92066043               12.07204690                0.27314052               -0.68148451               -0.09344194                0.32714070               -0.00843245                5.65756514                1.14145270
               9.52005347                7.89627717               11.99639986                0.82401132                0.03555998                0.04208353               -0.13853631               -0.00055755                0.02203277                0.35615192
              10.52115063                7.87233760               11.92047929                0.98436218                0.10971511                0.18511469               -0.60111013               -0.02121427                0.01374178               -0.49952517
               0.61285609                9.13292886               12.06650775                0.97965330               -0.01789993               -0.09847705                0.30337065               -0.02889477                0.00880759                0.63548169
               1.61267709                9.10275351               11.97413979                0.58913881                0.05185646                0.05671299               -0.18246305               -0.00806629                0.09515219               -0.36446272
               2.61389322                9.07207064               11.88348422                0.00010000               -0.22694724                0.21199071               -0.67377568                0.39313571                6.16631948               -1.12896731
               3.60813815                9.04888021               11.91271585                0.00010000               -0.75167788                0.47317317               -0.43719148                0.56497319               11.99158766               -0.59608571
               4.59885966                9.02583398               11.94287316                0.00010000               -1.01498562                0.51745948               -0.26673467                0.43823901               11.87958530               -0.27087394
               5.58783844                9.00160237               11.97457254                0.00010000               -1.20015300                0.52971157               -0.10662551                0.31058055               11.90330211               -0.05637898
               6.57485661                8.97632221               12.00954456                0.00010000               -1.41748243                0.51463042                0.06478329                0.12462748               12.11363240                0.13230092
               7.55948879                8.94861350               12.04955302                0.00010000               -1.52809988                0.43707471                0.26238132               -0.16532138               12.52504417                0.35384198
               8.54429461                8.91943166               12.09669472                0.30204280               -0.79984952               -0.14226383                0.49770495               -0.29000354                6.43069219                0.78195744
               9.54349180                8.89643716               12.01799142                0.87726783               -0.00629080               -0.00811750                0.01604609               -0.00512542                0.05724414                0.31227674
              10.54416879                8.87398034               11.93754918                0.94715346                0.06769937                0.14493878               -0.46688219               -0.02161417               -0.02369351               -0.42291212
               0.64199107               10.13217016               12.04795600                0.98905827                0.02969749               -0.07587041                0.15700631                0.05405065                0.35777475                0.51763581
               1.64228805               10.10357568               11.95318202                0.82731357                0.10091771                0.08221779               -0.34176378                0.07280006                0.64984077               -0.31670521
               2.64400943               10.07440425               11.86426180                0.50102997               -0.38845911                0.23336123               -0.82568066                0.56423909                7.20603861               -0.73428925
               3.63451886               10.05462806               11.90082659                0.33027374               -0.95037899                0.57478507               -0.50575706                0.47936124               13.09678912               -0.26730512
               4.62500185               10.03123005               11.93670397                0.32511959               -1.00516603                0.53960646               -0.30405847                0.23451450               12.87413628               -0.09626902
               5.61441554               10.00703399               11.97376128                0.34701148               -1.14173137                0.54316195               -0.10650988                0.17598189               12.88856833                0.01872432
               6.60216722                9.98159547               12.01416591                0.39312303               -1.35741280                0.52732664                0.10431713                0.09807613               13.13723213                0.11942190
               7.58726729                9.95437428               12.06010999                0.48446750               -1.76757574                0.57607800                0.34426923               -0.41116597               13.69383200                0.24687646
               8.56681570                9.91781515               12.11541832                0.66437962               -1.09325018               -0.16165017                0.63153829               -0.66086348                7.35157106                0.49466199
               9.56540228                9.89611482               12.03867947                0.97314847               -0.05918624               -0.03223337                0.15928188                0.06210986                0.46800404                0.27282680
              10.56563198                9.87523638               11.95628181                0.98845221                0.02296948                0.12560408               -0.32833495                0.05847437                0.19155921               -0.33204047
               0.32971484                0.18288320               13.21139222                1.00000000               -0.37834048               -0.41705337                1.44682240               -0.07385533               -0.57563227                0.61788732
               1.32593143                0.13558893               13.16022549                1.00000000               -0.31224347               -0.32934335                1.15397425               -0.05708025               -0.71250618                0.02613789
               2.32346997                0.08807495               13.10622747                1.00000000               -0.16795123               -0.24401864                0.83812984               -0.04191201               -0.64643686               -0.18612665
               3.32257241                0.04160131               13.05632564                0.62013999                0.31248803               -0.18622899                0.54493142                0.44335947                0.33281476               -0.43914318
               4.32971973                0.00637794               13.02186880                0.67100346                0.48336696               -0.10250716                0.23953515               -0.02422078                0.95454448                0.05646367
               5.33223975               -0.02093670               12.98432989                0.73262270                0.16763788                0.01036980               -0.07980570                0.00656914                0.60157297                0.03514256
               6.33307249               -0.04708892               12.94304516                0.72281813                0.04345381                0.10754839               -0.40919935                0.00868678                0.44012455               -0.02335965
               7.33310882               -0.07509098               12.90237535                0.84077745                0.04360534                0.21095025               -0.74851497                0.05788422                0.20713217                0.03325564
               8.33394459               -0.10755730               12.85644479                1.00000000                0.19399743                0.32768418               -1.07230299                0.04378153               -0.22273205                0.35395618
               9.33698877               -0.14279279               12.80726881                1.00000000                0.37454015                0.39941310               -1.38437928               -0.05089072               -0.39410847                0.01935071
              10.34143540               -0.17821378               12.75806085                1.00000000                0.44466240                0.48451557               -1.68386487               -0.07859118               -0.40286028               -0.42560759
               0.37627055                1.17871266               13.19300154                1.00000000               -0.35057959               -0.39802298                1.31429510               -0.03160624               -0.06768589                0.84306033
               1.37276476                1.13229550               13.14141373                1.00000000               -0.31129461               -0.30705326                1.02261750               -0.01243633               -0.01654102                0.04157744
               2.37004466                1.08563476               13.09078142                0.80570113               -0.24551230               -0.22054614                0.72313850                0.02241174                0.21375270               -0.52427112
               3.36785451                1.03973902               13.04378561                0.09004374               -0.46490643               -0.17838947                0.42502809                0.61785487                1.51664454               -0.80321324
               4.36074653                1.00535287               13.01930961                0.20255978               -0.44078206                0.08857439                0.19914869                0.15758196                2.15196563                0.69521385
               5.35903887                0.97916699               12.98621128                0.26705042               -0.02550197                0.08966793               -0.08826562                0.33260218                1.48872923                0.28280292
               6.36023649                0.95398657               12.94894285                0.18059630                0.24414954               -0.00432890               -0.38975836                0.31666991                1.34696689               -0.36471570
               7.36392186                0.92701853               12.91330656                0.36286316                0.39984137                0.22457211               -0.68246012                0.42320387                1.27677426                0.55920910
               8.36823332                0.89571954               12.87495094                1.00000000                0.39431233                0.30316458               -0.96207206                0.16723067                0.64318324                0.47810867
               9.37180811                0.86120134               12.82680264                1.00000000                0.39185773                0.38284234               -1.25734334               -0.00151534                0.09395368                0.07552518
              10.37607047                0.82663138               12.77754691                1.00000000                0.42623677                0.45736399               -1.55622160               -0.03084898                0.03361089               -0.50482153
               0.42191704                2.17492274               13.17898642                1.00000000               -0.31564373               -0.36562294                1.20316225               -0.02820320                0.02960201                1.08670311
               1.41876061                2.12944787               13.12283413                1.00000000               -0.27211826               -0.26837394                0.89489909               -0.00537424                0.12500486                0.02163229
               2.41647468                2.08366403               13.06854118                0.40115409               -0.17746026               -0.18087630                0.60200239                0.03434048                0.70516119               -1.08990606
               3.41521140                2.03803352               13.02397454                0.00010000               -1.15156410               -0.16232826                0.29801042                0.92036092                3.68264907               -1.50495651
               4.39344340                2.00814943               13.02929196                0.00010000               -1.24766547                0.25031554                0.28003896                1.78247208                3.82859604               -1.03727379
               5.39025809                1.98085665               12.99297574                0.00010000               -0.09445226                0.04275872               -0.07652870                1.54177512                1.34984133               -0.47182648
               6.39155435                1.95282450               12.94802767                0.00010000                0.47909175               -0.11388348               -0.36817325                1.47412617                2.50181054                0.07856306
               7.39983993                1.92940047               12.93481836                0.00010000                0.57760221               -0.05521977               -0.61045801                1.04905673                2.79195240                0.44485117
               8.40310640                1.89850599               12.89602884                0.42312586                0.31033516                0.28942364               -0.83191381                0.26296854                1.04456418                0.89826201
               9.40604663                1.86486405               12.84756811                1.00000000                0.34259735                0.36537172               -1.12482425                0.04433421                0.38297742                0.38927738
              10.40995834                1.83093350               12.79558334                1.00000000                0.39117124                0.40703281               -1.44047363               -0.01618447                0.20374941               -0.51869611
               0.46665623                3.17140020               13.16530387                1.00000000               -0.27402482               -0.34097109                1.09159764               -0.02582282                0.02921606                1.09650609
               1.46391598                3.12692802               13.10354028                1.00000000               -0.22552088               -0.23360869                0.76250733               -0.00631748                0.03149757               -0.03021589
               2.46214581                3.08201724               13.04176246                0.18028392               -0.10698269               -0.13166287                0.43559001               -0.01275952                0.90271363               -1.25541954
               3.46177633                3.03649246               12.99737782                0.00010000               -0.42864859               -0.03083516                0.13645167                0.94500988                3.74374496               -1.69452672
               4.45357284                3.01035918               12.99257156                0.00010000               -0.82885174                0.17494534                0.01651007                2.39129827                5.24603188               -2.25658916
               5.44519929                2.98002217               12.97989014                0.00010000               -0.61988192                0.05545799               -0.12539733                2.09256843                4.50557493               -1.12725765
               6.44117520                2.95170890               12.96238581                0.00010000               -0.29888925                0.01497760               -0.31174314                1.91385379                4.14938904                0.38187061
               7.43922151                2.92591413               12.94376721                0.00010000               -0.15730497               -0.12807897               -0.49131448                1.40382526                3.93857206                0.28283230
               8.43802910                2.90150801               12.92299845                0.20250684                0.05228860                0.29068126               -0.67726541                0.59980502                2.33661148                1.64374040
               9.44026728                2.86850877               12.87345759                1.00000000                0.27893951                0.33267377               -0.96169341                0.06060430                0.44648409                0.59555108
              10.44360789                2.83477203               12.81491789                1.00000000                0.33406126                0.37318257               -1.31401590               -0.02608202               -0.00535143               -0.39956948
               0.51034496                4.16810332               13.15130353                1.00000000               -0.23277338               -0.31663584                0.97446337               -0.02690621                0.02777957                1.05423830
               1.50801723                4.12477569               13.08385174                1.00000000               -0.18449540               -0.19275331                0.62383277               -0.00631076                0.02530117               -0.05570151
               2.50665505                4.08103077               13.01628367                0.06795625               -0.11237833               -0.07092848                0.27212105                0.02110035                1.27490791               -1.11149045
               3.50576966                4.03741682               12.97379870                0.00010000               -0.44576998                0.32505958               -0.17621609                0.70265762                4.86792551               -0.54335545
               4.49773965                4.01164833               12.97782312                0.00010000               -0.75049579                0.16105075               -0.12878051                1.47081225                6.69175921               -0.83074697
               5.49075974                3.98196581               12.97408838                0.00010000               -0.69000935                0.21084383               -0.17696383                1.36397199                6.10174269               -0.53369847
               6.48393946                3.95312406               12.96837493                0.00010000               -0.63212131                0.19112956               -0.26485241                1.32763351                5.88535218                0.05687468
               7.47811732                3.92683889               12.96234503                0.00010000               -0.57158042                0.15222353               -0.36674125                1.31563167                5.91199235                0.80513772
               8.47250786                3.90431961               12.95899155                0.19510605               -0.20613088                0.22468628               -0.46557543                0.62617591                3.10147957                1.83320593
               9.47399470                3.87151753               12.89840278                1.00000000                0.22011647                0.26714064               -0.79835545                0.03630895                0.11933551                0.54443077
              10.47691019                3.83839715               12.83544237                1.00000000                0.29154868                0.34730288               -1.17635017               -0.02312419                0.00063159               -0.34011481
               0.55277335                5.16506749               13.13660279                1.00000000               -0.19110391               -0.28496470                0.84791223               -0.03046865                0.08624186                0.97950033
               1.55086231                5.12307295               13.06400289                0.81836775               -0.14233300               -0.14514278                0.48093189               -0.01236039                0.14241215               -0.15156634
               2.54992669                5.08059867               12.99246328                0.01190147               -0.28251985               -0.01262914                0.12585648                0.25303734                2.70650599               -1.17500516
               3.54521192                5.04299365               12.97113722                0.00010000               -0.57433008                0.48213841               -0.34450916                0.64219842                6.18913564                0.12045746
               4.53844009                5.01358019               12.96980344                0.00010000               -0.71044530                0.24243790               -0.20969929                1.07716268                7.28463497               -0.36972879
               5.53100301                4.98423904               12.97267210                0.00010000               -0.77926459                0.25733912               -0.19311429                1.02398654                7.41475404               -0.20719082
               6.52285480                4.95553149               12.97641471                0.00010000               -0.83322137                0.26344429               -0.20869860                1.00887113                7.41566544                0.22605654
               7.51433858                4.92895860               12.98173683                0.00010000               -0.84904099                0.21740164               -0.23511693                1.05890959                7.51415538                0.83192457
               8.50587398                4.90600174               12.98978099                0.20586004               -0.37113297                0.12246526               -0.25777368                0.52656645                3.82119336                1.49124914
               9.50691592                4.87385159               12.92332002                0.95365274                0.17560934                0.20358091               -0.63804487                0.02134530                0.05335775                0.52041792
              10.50938617                4.84171809               12.85601924                1.00000000                0.24702424                0.31353203               -1.03188287               -0.02302107                0.01362589               -0.35087032
               0.59372466                6.16240402               13.12093904                1.00000000               -0.14858178               -0.24220393                0.71315679               -0.03323711                0.06845868                0.88886856
               1.59223884                6.12187284               13.04235971                0.66877564               -0.09647769               -0.09403183                0.31903927               -0.01845979                0.17185140               -0.30327367
               2.59179510                6.08077819               12.96579210                0.00010000               -0.33033684                0.04852137               -0.06277014                0.37314047                3.86006902               -1.44417019
               3.58563210                6.04705959               12.96099515                0.00010000               -0.68787966                0.35297878               -0.23387655                0.80399118                7.74735553               -0.54921337
               4.57803751                6.01649709               12.96415865                0.00010000               -0.81719614                0.32946930               -0.22954016                0.92307333                8.32052777               -0.32067590
               5.56928818                5.98711260               12.97317755                0.00010000               -0.93200896                0.33395024               -0.17917794                0.86146742                8.64666995               -0.08144400
               6.55939733                5.95839294               12.98552452                0.00010000               -1.02314606                0.31526467               -0.13973959                0.78407946                8.81209448                0.30341928
               7.54882526                5.93118692               13.00066021                0.00010000               -1.06255639                0.22107830               -0.10287595                0.79305950                8.97414799                0.80170701
               8.53814620                5.90676892               13.01894471                0.22243834               -0.50600015                0.03992400               -0.06201248                0.38274694                4.54106825                1.37463956
               9.53870525                5.87558915               12.94779963                0.85745907                0.12852777                0.14823740               -0.47008891                0.01017853                0.05249706                0.47179629
              10.54071676                5.84466779               12.87630505                1.00000000                0.20115028                0.27438307               -0.89115393               -0.02172967                0.03855879               -0.40895286
               0.63317098                7.16022341               13.10425388                0.99423261               -0.10520271               -0.19189424                0.57177763               -0.03184886                0.03427972                0.81581530
               1.63211895                7.12119232               13.01945123                0.58618233               -0.04841143               -0.04380045                0.15541042               -0.01772225                0.13810002               -0.39143177
               2.63220275                7.08156909               12.93667987                0.00010000               -0.32730589                0.10548142               -0.25571789                0.41152407                4.74693395               -1.63765549
               3.62557283                7.05005322               12.94410691                0.00010000               -0.76771015                0.31099876               -0.27615444                0.85577217                9.38505759               -0.95287073
               4.61684855                7.02016958               12.95680167                0.00010000               -0.96181635                0.40930399               -0.22540177                0.85462831                9.71701523               -0.43485749
               5.60633651                6.99091805               12.97384461                0.00010000               -1.11932418                0.43825096               -0.15024779                0.72222437                9.96423467               -0.06812750
               6.59446206                6.96183678               12.99466212                0.00010000               -1.22563567                0.39038174               -0.06499857                0.56154843               10.17309621                0.30462850
               7.58182379                6.93338017               13.01912415                0.00010000               -1.26676869                0.23294870                0.02685224                0.47797965               10.39188746                0.75631554
               8.56912669                6.90680022               13.04738265                0.24367720               -0.63015858               -0.02916996                0.12734880                0.20015622                5.25210568                1.31032891
               9.56922062                6.87681633               12.97168985                0.80792864                0.08337969                0.09761748               -0.31205015                0.00344557                0.03830115                0.41316211
              10.57079428                6.84720575               12.89562783                0.99279974                0.15736615                0.23366358               -0.75502244               -0.02081571                0.02404059               -0.48004723
               0.67114987                8.15856614               13.08696906                0.98552281               -0.06111570               -0.14068293                0.42893883               -0.02976203                0.01737476                0.78067430
               1.67053871                8.12099683               12.99604046                0.56153099                0.00074054                0.00469911               -0.00811076               -0.01278725                0.07654071               -0.42973512
               2.67116468                8.08288781               12.90626545                0.00010000               -0.31958236                0.15565461               -0.44949848                0.43803149                5.57322045               -1.65466892
               3.66414706                8.05327956               12.92536612                0.00010000               -0.84497129                0.36885671               -0.35959195                0.85119328               11.04178952               -0.93386792
               4.65426525                8.02468317               12.94829254                0.00010000               -1.10407985                0.51066728               -0.24077757                0.74653654               11.18573934               -0.42459202
               5.64206546                7.99587762               12.97392379                0.00010000               -1.30495351                0.54398756               -0.12214355                0.55911363               11.30788157               -0.06674424
               6.62816618                7.96620058               13.00311212                0.00010000               -1.43220252                0.50549571                0.00600357                0.32378080               11.51738967                0.25233101
               7.61342141                7.93584589               13.03668823                0.00010000               -1.47265093                0.29714961                0.14885213                0.08847484               11.81169423                0.63776201
               8.59871316                7.90618552               13.07522622                0.27009515               -0.75263896               -0.09019734                0.30938313               -0.03226212                5.97144455                1.20736375
               9.59836863                7.87754150               12.99492068                0.80952201                0.04042242                0.04673421               -0.15711901               -0.00132298                0.02079602                0.37966413
              10.59952161                7.84934106               12.91436261                0.98470765                0.11529754                0.19392439               -0.62234168               -0.02063972                0.01381133               -0.51798031
               0.70771436                9.15740975               13.06945036                0.97945282               -0.01728273               -0.09345452                0.28714297               -0.02738648                0.00568529                0.64995536
               1.70754153                9.12128630               12.97238197                0.58220364                0.04831445                0.05349270               -0.17065695               -0.00632053                0.08949286               -0.38746610
               2.70868065                9.08468219               12.87697813                0.00010000               -0.33700929                0.19982799               -0.63257717                0.48725631                6.50462230               -1.18017140
               3.70080134                9.05743036               12.90834724                0.00010000               -0.97497101                0.54838633               -0.43386536                0.66987156               12.66120990               -0.58291606
               4.68918123                9.03038292               12.94019919                0.00010000               -1.23999846                0.59955087               -0.26640907                0.49896132               12.52880505               -0.25249934
               5.67600137                9.00179780               12.97351089                0.00010000               -1.41059119                0.61056504               -0.10559406                0.33469339               12.55751719               -0.03591843
               6.66096940                8.97194670               13.01019108                0.00010000               -1.61965138                0.59146884                0.06407180                0.11792202               12.78591061                0.15296624
               7.64360835                8.93932316               13.05213630                0.00010000               -1.70917783                0.50491149                0.25435930               -0.20950345               13.22376615                0.37695955
               8.62678585                8.90499627               13.10155948                0.30011544               -0.87848630               -0.13600782                0.47662579               -0.33700994                6.78763560                0.82119721
               9.62603862                8.87775102               13.01805305                0.86267501               -0.00017440               -0.00280934               -0.00461972               -0.00736347                0.05777602                0.32905604
              10.62678236                8.85108424               12.93276768                0.94970792                0.07437365                0.15479593               -0.49192869               -0.02098899               -0.02414144               -0.43915179
               0.74284904               10.15669705               13.04945078                0.98900286                0.02908212               -0.07127042                0.14376857                0.05043188                0.36203772                0.53002645
               1.74313986               10.12206668               12.94985745                0.82414912                0.09583508                0.07803836               -0.32515549                0.06919959                0.66127649               -0.33447411
               2.74476574               10.08688437               12.85626019                0.49851790               -0.56480534                0.22021876               -0.78016956                0.71753996                7.60688696               -0.76343789
               3.73184375               10.06424729               12.89574943                0.33107058               -1.24443537                0.68169307               -0.50391343                0.59373177               13.84956469               -0.25823034
               4.71987703               10.03667419               12.93365003                0.32540061               -1.23240968                0.62912641               -0.30380131                0.26166224               13.58853083               -0.08785522
               5.70719556               10.00808892               12.97269990                0.34693521               -1.34388868                0.62911159               -0.10526060                0.18720688               13.61332292                0.02897917
               6.69299926                9.97802995               13.01520566                0.39290741               -1.55068962                0.60832582                0.10313385                0.09574627               13.88306808                0.13053753
               7.67618177                9.94594412               13.06350418                0.48512279               -1.97270778                0.66209637                0.33448306               -0.47088731               14.46995659                0.25995179
               8.65354511                9.90346536               13.12160365                0.66402305               -1.20241849               -0.15309070                0.60626557               -0.74701470                7.75862703                0.51511312
               9.65213340                9.87748531               13.04016621                0.96704686               -0.05548581               -0.02657075                0.13737894                0.05805863                0.49083274                0.28444871
              10.65243539                9.85243698               12.95288606                0.98875921                0.03019906                0.13527437               -0.35646968                0.06047035                0.20675609               -0.34363069
               0.37643086                0.20826013               14.22576831                1.00000000               -0.37405498               -0.41106565                1.42947082               -0.07350342               -0.60544929                0.64584885
               1.37269031                0.15534931               14.17170457                1.00000000               -0.30877018               -0.32565246                1.14214777               -0.05752124               -0.75372033                0.03188321
               2.37025546                0.10222523               14.11459294                1.00000000               -0.16552616               -0.24218587                0.83422084               -0.04162439               -0.68836028               -0.18847902
               3.36937979                0.05018556               14.06178504                0.62333591                0.31555351               -0.18610619                0.54556990                0.45856910                0.29377761               -0.47072192
               4.37656653                0.00977409               14.02427778                0.67744074                0.48009177               -0.09205665                0.24219480               -0.03155269                0.90212429                0.07055443
               5.37898162               -0.02238966               13.98356289                0.74153044                0.16023388                0.01350810               -0.07387601                0.00774453                0.54047638                0.04230671
               6.37977121               -0.05334217               13.93901534                0.72991694                0.04137007                0.10687794               -0.39745971                0.00947817                0.37073788               -0.02813598
               7.37980902               -0.08600922               13.89497748                0.84528731                0.04210033                0.20807057               -0.73165376                0.05520659                0.14139587                0.03573120
               8.38061321               -0.12301675               13.84581915                1.00000000                0.18891777                0.32310580               -1.05307526                0.04190784               -0.27289220                0.36569265
               9.38358738               -0.16277551               13.79353140                1.00000000                0.36749196                0.39399928               -1.36317619               -0.05048212               -0.43090801                0.01814947
              10.38796305               -0.20274391               13.74134133                1.00000000                0.43756710                0.47788093               -1.65995541               -0.07733676               -0.43298646               -0.45540572
               0.42860665                1.20414948               14.20605983                1.00000000               -0.34740937               -0.39115425                1.29837834               -0.03190513               -0.07353750                0.88060827
               1.42513255                1.15209279               14.15158417                1.00000000               -0.30927773               -0.30322470                1.01179582               -0.01318616               -0.02637124                0.04889631
               2.42242109                1.09980337               14.09799040                0.81751181               -0.24707533               -0.21909668                0.71823702                0.02364619                0.20117615               -0.52926760
               3.42019105                1.04832450               14.04804466                0.10275471               -0.49412394               -0.17769484                0.42587613                0.64401678                1.54011092               -0.83791338
               4.41253861                1.00885353               14.02129452                0.21946336               -0.47869213                0.08248858                0.19788898                0.09619670                2.19021227                0.75652969
               5.41061720                0.97774542               13.98533975                0.28614365               -0.04314228                0.08863370               -0.08627195                0.30235741                1.49589106                0.29837522
               6.41167577                0.94772661               13.94508482                0.19581468                0.22905885                0.00485427               -0.38249745                0.29803963                1.35359690               -0.36816098
               7.41519838                0.91607148               13.90654383                0.37495643                0.38698332                0.21601529               -0.67065139                0.40517063                1.29257017                0.56442731
               8.41941543                0.88021431               13.86539776                1.00000000                0.38738796                0.29936039               -0.94888170                0.16484757                0.65471029                0.49959330
               9.42294614                0.84116448               13.81430880                1.00000000                0.38713277                0.37811292               -1.24163389               -0.00134173                0.09592853                0.07725283
              10.42715809                0.80203490               13.76207759                1.00000000                0.42119495                0.45118487               -1.53770995               -0.03008149                0.03374108               -0.54018133
               0.47990613                2.20043705               14.19093299                1.00000000               -0.31334358               -0.35743923                1.18716530               -0.02739738                0.03006793                1.13332933
               1.47677270                2.14928482               14.13173214                1.00000000               -0.27047295               -0.26465878                0.88501809               -0.00376804                0.13243333                0.02817276
               2.47449667                2.09784329               14.07453409                0.41736773               -0.17813662               -0.18203441                0.59620163                0.04149271                0.71450218               -1.11871947
               3.47320996                2.04663166               14.02695315                0.00010000               -1.27135659               -0.16214909                0.29693961                0.94291304                3.81710171               -1.55964874
               4.44906954                2.01142387               14.03184327                0.00010000               -1.35271350                0.24422027                0.24015306                1.83455279                4.00084336               -1.07211809
               5.44615569                1.97938301               13.99218118                0.00010000               -0.08318044                0.02556022               -0.08113928                1.59170291                1.38785369               -0.47381788
               6.44740593                1.94675491               13.94436605                0.00010000                0.46345215               -0.12444755               -0.36493323                1.48798725                2.58421831                0.09268166
               7.45542474                1.91831108               13.92873783                0.00010000                0.57056145               -0.06967066               -0.60566053                1.05467403                2.89292117                0.48064085
               8.45881716                1.88297046               13.88774698                0.43062626                0.31576086                0.28744809               -0.82491190                0.26890682                1.11560662                0.94293873
               9.46173995                1.84478675               13.83637482                1.00000000                0.34017181                0.36179483               -1.11422937                0.04525776                0.40711059                0.40947866
              10.46562060                1.80627978               13.78124734                1.00000000                0.38806438                0.40200498               -1.42703896               -0.01536155                0.21615241               -0.55339940
               0.53036315                3.19700069               14.17613276                1.00000000               -0.27122075               -0.33249403                1.07529548               -0.02380965                0.03108218                1.13897128
               1.52765095                3.14679961               14.11112064                1.00000000               -0.22295253               -0.23076039                0.75384942               -0.00374957                0.03423850               -0.02930732
               2.52590410                3.09616268               14.04611843                0.19513745               -0.10911061               -0.13524983                0.43517346               -0.00130966                0.91871368               -1.30369914
               3.52546873                3.04508152               13.99875015                0.00010000               -0.47128914               -0.05252983                0.13724595                0.99058602                3.86082877               -1.83513888
               4.51647832                3.01373793               13.99270257                0.00010000               -0.91742590                0.17468952                0.01151544                2.52229286                5.44997834               -2.40435715
               5.50712022                2.97825662               13.97860680                0.00010000               -0.69854404                0.04446419               -0.12980818                2.18456447                4.69486290               -1.16046873
               6.50250744                2.94523765               13.95928820                0.00010000               -0.35219498               -0.01019719               -0.30799909                1.97734375                4.32212230                0.41307052
               7.50007632                2.91467807               13.93888805                0.00010000               -0.20947685               -0.13580200               -0.48528917                1.45530528                4.10924036                0.34769580
               8.49831790                2.88596327               13.91625276                0.20217700                0.02328244                0.28860983               -0.67298674                0.61412453                2.45426874                1.72838073
               9.50054196                2.84840038               13.86387511                1.00000000                0.27734437                0.32987911               -0.95539735                0.06112154                0.48203788                0.63048883
              10.50386479                2.81007500               13.80182086                1.00000000                0.33228248                0.37012122               -1.30585356               -0.02524448               -0.00353762               -0.42192536
               0.57983210                4.19378717               14.16095716                1.00000000               -0.22963780               -0.30832033                0.95745730               -0.02503670                0.02953620                1.08828958
               1.57753572                4.14466961               14.09005306                1.00000000               -0.18217584               -0.19069189                0.61636921               -0.00417561                0.02624260               -0.06017227
               2.57618858                4.09513830               14.01902175                0.07995787               -0.10446428               -0.07461200                0.27453059                0.01480407                1.23029060               -1.15002045
               3.57544643                4.04558107               13.97216436                0.00010000               -0.49241430                0.29485908               -0.15089262                0.73733454                5.01316657               -0.70534052
               4.56634029                4.01491766               13.97650637                0.00010000               -0.85495846                0.15937062               -0.13388022                1.53557890                7.04584196               -0.90254285
               5.55834726                3.98027229               13.97232219                0.00010000               -0.79044661                0.22000309               -0.17629776                1.41654213                6.40178236               -0.55600315
               6.55053136                3.94655097               13.96575073                0.00010000               -0.72710164                0.19212215               -0.26049163                1.36364125                6.16215559                0.08588552
               7.54380523                3.91559504               13.95870497                0.00010000               -0.65770096                0.15598959               -0.36207168                1.34514798                6.18424364                0.87320530
               8.53737734                3.88874265               13.95433808                0.19235870               -0.24772868                0.22232862               -0.46576140                0.63844874                3.26125890                1.94027952
               9.53885066                3.85138433               13.89042626                1.00000000                0.21945693                0.26550661               -0.79732329                0.03662950                0.14178220                0.57664124
              10.54176648                3.81368221               13.82368776                1.00000000                0.29158233                0.34720299               -1.17478957               -0.02222255                0.00041465               -0.35292801
               0.62809753                5.19083429               14.14498692                1.00000000               -0.18812247               -0.27658743                0.83018147               -0.02871862                0.09234411                1.00445913
               1.62621630                5.14298578               14.06878213                0.80813912               -0.14043994               -0.14355586                0.47439661               -0.01022931                0.15418145               -0.16736504
               2.62528873                5.09467044               13.99375570                0.02199052               -0.28901198               -0.01661201                0.13052443                0.24261889                2.64501245               -1.22508259
               3.62043607                5.05097870               13.96733837                0.00010000               -0.63950305                0.49392958               -0.40949223                0.63961120                6.41135079                0.15393919
               4.61249867                5.01692535               13.96766496                0.00010000               -0.83091589                0.25506339               -0.21867346                1.12886175                7.76817682               -0.37850264
               5.60381775                4.98265668               13.97074674                0.00010000               -0.90205771                0.27433512               -0.19270921                1.04847468                7.80877987               -0.19930363
               6.59445752                4.94908010               13.97435244                0.00010000               -0.95150780                0.28070647               -0.20462734                1.02406500                7.78798391                0.26335465
               7.58478759                4.91779786               13.97940140                0.00010000               -0.95799640                0.22921801               -0.23281520                1.07424799                7.88388616                0.90092572
               8.57529759                4.89040984               13.98717702                0.20238538               -0.42262968                0.12192467               -0.26322611                0.53182435                4.01783785                1.58811779
               9.57633500                4.85371051               13.91690227                0.93769497                0.17634995                0.20438707               -0.64517151                0.02126232                0.06689712                0.55490248
              10.57882459                4.81701906               13.84566433                1.00000000                0.24895888                0.31659234               -1.03844659               -0.02195270                0.02056448               -0.36149868
               0.67495474                6.18825542               14.12797574                1.00000000               -0.14597651               -0.23410266                0.69565315               -0.03125768                0.06845039                0.90647038
               1.67349498                6.14179850               14.04553166                0.66076603               -0.09533532               -0.09331172                0.31496980               -0.01553019                0.17759357               -0.32882331
               2.67304804                6.09480606               13.96522100                0.00010000               -0.37556130                0.04321283               -0.05375975                0.38958802                3.96235522               -1.51580685
               3.66598375                6.05545966               13.95847010                0.00010000               -0.79042472                0.38836478               -0.27936243                0.81413217                8.06536539               -0.42435478
               4.65723954                6.02001892               13.96179488                0.00010000               -0.94108729                0.35354237               -0.24509033                0.95633896                8.76993962               -0.28167236
               5.64716200                5.98575900               13.97138848                0.00010000               -1.06840291                0.36324076               -0.18000857                0.87850167                9.10965230               -0.04940982
               6.63587148                5.95216510               13.98414528                0.00010000               -1.16007789                0.34359524               -0.13720805                0.78599451                9.26633299                0.34888840
               7.62396045                5.92017940               13.99963312                0.00010000               -1.18851532                0.23978057               -0.10340759                0.79122251                9.42933535                0.86766773
               8.61210118                5.89118115               14.01827497                0.21886572               -0.56468804                0.04078630               -0.07217500                0.37895705                4.77776748                1.46137774
               9.61266669                5.85547207               13.94304014                0.84252028                0.13045825                0.15135826               -0.48160836                0.00994409                0.06077501                0.50592667
              10.61471034                5.82001406               13.86732587                1.00000000                0.20436550                0.28002414               -0.90411020               -0.02109193                0.03998325               -0.42241012
               0.72038622                7.18615223               14.10988146                0.99357618               -0.10311596               -0.18493591                0.55530790               -0.02985781                0.03311022                0.82921531
               1.71935506                7.14111954               14.02100697                0.57967762               -0.04834473               -0.04412570                0.15520946               -0.01434657                0.13921895               -0.41746026
               2.71941933                7.09553470               13.93421481                0.00010000               -0.39246111                0.09833709               -0.23972857                0.44952896                4.93566014               -1.71096815
               3.71150584                7.05874599               13.94129588                0.00010000               -0.90466093                0.33936249               -0.29252338                0.91345931                9.81676225               -0.92492178
               4.70132611                7.02399619               13.95451971                0.00010000               -1.11321168                0.44862849               -0.23410067                0.90261501               10.21268550               -0.38848697
               5.68924161                6.98992150               13.97234477                0.00010000               -1.27845552                0.48397959               -0.15129549                0.74120046               10.48092485               -0.02713273
               6.67575700                6.95595200               13.99402209                0.00010000               -1.38228072                0.43277132               -0.06415476                0.55348288               10.69909969                0.35076991
               7.66159599                6.92259347               14.01937940                0.00010000               -1.40864707                0.25982360                0.02339821                0.45580340               10.92607751                0.81595880
               8.64758406                6.89122557               14.04858749                0.24035532               -0.69475122               -0.02751355                0.11345515                0.18394478                5.52456836                1.38985298
               9.64770097                6.85673768               13.96849670                0.79375580                0.08673634                0.10175900               -0.32705925                0.00301467                0.04154343                0.44077332
              10.64931878                6.82261954               13.88799375                0.99282056                0.16178159                0.24120427               -0.77214338               -0.02018177                0.02540827               -0.49670590
               0.76442297                8.18455670               14.09117687                0.98518368               -0.05973854               -0.13529928                0.41416379               -0.02805380                0.01598986                0.79341774
               1.76382558                8.14091598               13.99598468                0.55587216               -0.00054014                0.00338232               -0.00395976               -0.00998952                0.07301998               -0.45493903
               2.76441216                8.09677280               13.90190641                0.00010000               -0.40170700                0.14688890               -0.42561517                0.49659966                5.82302653               -1.72225274
               3.75579144                8.06224691               13.92177926                0.00010000               -1.01479143                0.40462907               -0.36155658                0.94270727               11.57987943               -0.92411136
               4.74411633                8.02899149               13.94588538                0.00010000               -1.28806178                0.57151570               -0.24256280                0.80688406               11.75309159               -0.39302280
               5.73003021                7.99543859               13.97270836                0.00010000               -1.49235843                0.60931953               -0.12215697                0.57921579               11.88649443               -0.03178531
               6.71426917                7.96082052               14.00317370                0.00010000               -1.61136270                0.56679973                0.00534479                0.30648470               12.11130327                0.28939545
               7.69780295                7.92537588               14.03814990                0.00010000               -1.63166502                0.33716347                0.14275741                0.04050310               12.42303555                0.68410153
               8.68163587                7.89063087               14.07823456                0.26734244               -0.82349724               -0.08737000                0.29203582               -0.06610503                6.28171868                1.27588975
               9.68133301                7.85750725               13.99325748                0.79510071                0.04535601                0.05175336               -0.17596439               -0.00272920                0.02057729                0.40472778
              10.68254299                7.82483814               13.90803245                0.98507383                0.12099797                0.20271568               -0.64429143               -0.02001623                0.01406299               -0.53768982
               0.80710659                9.18344625               14.07225061                0.97931395               -0.01674106               -0.08934314                0.27436914               -0.02612987                0.00313094                0.66193139
               1.80693918                9.14118719               13.97072665                0.57613109                0.04569048                0.05096234               -0.16178226               -0.00475900                0.08518744               -0.40783375
               2.80802040                9.09847247               13.87083268                0.00010000               -0.43989420                0.18992975               -0.60076281                0.57472046                6.81667540               -1.22428746
               3.79814129                9.06683857               13.90403854                0.00010000               -1.18741428                0.62060809               -0.42852072                0.76414522               13.29490938               -0.56858206
               4.78427211                9.03542651               13.93754498                0.00010000               -1.45721986                0.67898850               -0.26472834                0.54874845               13.16259747               -0.23463967
               5.76899689                9.00210789               13.97246066                0.00010000               -1.61613516                0.68984818               -0.10500098                0.34788299               13.20119627               -0.01625293
               6.75194941                8.96728800               14.01082600                0.00010000               -1.82005948                0.66782703                0.06215921                0.09919965               13.44820540                0.17322247
               7.73259570                8.92933674               14.05464021                0.00010000               -1.89094141                0.57308497                0.24576306               -0.26721807               13.91237931                0.40105749
               8.71413058                8.88947817               14.10622724                0.29816574               -0.95782935               -0.13009003                0.45624864               -0.39368241                7.14276098                0.86328133
               9.71343912                8.85777275               14.01789903                0.84731331                0.00630539                0.00351097               -0.02709730               -0.01003931                0.05999225                0.34895904
              10.71425669                8.82667385               13.92771061                0.95224092                0.08175688                0.16444361               -0.51972888               -0.02066893               -0.02545319               -0.45811169
               0.84841849               10.18276984               14.05083137                0.98897299                0.02856875               -0.06764087                0.13364569                0.04772894                0.36579522                0.54056678
               1.84870417               10.14193523               13.94667891                0.82145898                0.09183506                0.07480397               -0.31227888                0.06657751                0.67196961               -0.35014550
               2.85025519               10.10057139               13.84865841                0.49662577               -0.72919300                0.20989187               -0.74475592                0.85967116                7.97746996               -0.78851014
               3.83412031               10.07465907               13.89074832                0.33182409               -1.52165991                0.78204949               -0.49522979                0.69789566               14.56495264               -0.24910721
               4.81982199               10.04257126               13.93062794                0.32566498               -1.44969686                0.71447567               -0.30021723                0.28381199               14.28720281               -0.08039210
               5.80512638               10.00923555               13.97165607                0.34682745               -1.53988409                0.71276625               -0.10389240                0.19323815               14.32632019                0.03800091
               6.78902431                9.97417706               14.01622858                0.39260944               -1.74289776                0.68890675                0.10055584                0.08759112               14.61665265                0.14053261
               7.77026842                9.93683757               14.06679966                0.48574403               -2.18490462                0.75008323                0.32362395               -0.54012793               15.23267200                0.27258874
               8.74532621                9.88802907               14.12754363                0.66359429               -1.31659434               -0.14490922                0.58079767               -0.84344149                8.16594004                0.53792162
               9.74393653                9.85757747               14.04142705                0.95922692               -0.04994094               -0.01952723                0.11192548                0.05463860                0.51828630                0.30080486
              10.74432740                9.82812701               13.94915242                0.98910609                0.03908618                0.14531612               -0.39042845                0.06202486                0.21964588               -0.35987516
               0.42573332                0.23521712               15.23998163                1.00000000               -0.37009238               -0.40569799                1.41378607               -0.07319330               -0.63251429                0.67173878
               1.42203240                0.17646739               15.18306844                1.00000000               -0.30555147               -0.32215340                1.13082041               -0.05789787               -0.79076915                0.03695955
               2.41962229                0.11751044               15.12291188                1.00000000               -0.16346407               -0.24021792                0.82938057               -0.04144683               -0.72642531               -0.19124085
               3.41876312                0.05966765               15.06723704                0.62507262                0.31810377               -0.18550026                0.54452247                0.47120462                0.25643157               -0.49916287
               4.42598437                0.01375555               15.02671270                0.68215151                0.47742987               -0.08375800                0.24470334               -0.03846482                0.84969864                0.08473294
               5.42831172               -0.02364428               14.98285237                0.74860421                0.15441432                0.01604902               -0.06885458                0.00815880                0.47987177                0.04976412
               6.42907266               -0.05979061               14.93509596                0.73568813                0.04106068                0.10632488               -0.38733520                0.00993069                0.30313634               -0.03271596
               7.42913293               -0.09750905               14.88774227                0.84918454                0.04300875                0.20557707               -0.71618850                0.05223662                0.07632319                0.03878837
               8.42993283               -0.13940067               14.83538328                1.00000000                0.18577546                0.31842409               -1.03457267                0.03919356               -0.32413191                0.37738056
               9.43284844               -0.18398461               14.78000528                1.00000000                0.36114889                0.38875857               -1.34232995               -0.04984665               -0.46866429                0.01710935
              10.43715581               -0.22879442               14.72486174                1.00000000                0.43073703                0.47161597               -1.63609077               -0.07578942               -0.46361332               -0.48527558
               0.48375112                1.23116014               15.21896911                1.00000000               -0.34443570               -0.38503631                1.28411727               -0.03208877               -0.07867940                0.91556971
               1.48030676                1.17324586               15.16164964                1.00000000               -0.30717104               -0.29962674                1.00152016               -0.01380515               -0.03494695                0.05555040
               2.47760770                1.11510826               15.10514617                0.82678609               -0.24770768               -0.21744139                0.71274359                0.02440984                0.19027448               -0.53508998
               3.47535261                1.05781264               15.05230313                0.11363764               -0.51760066               -0.17662981                0.42551549                0.66454210                1.56176303               -0.87136303
               4.46725569                1.01291797               15.02326739                0.23422539               -0.50931137                0.07717298                0.19695358                0.04757156                2.22520387                0.80570512
               5.46516638                0.97651621               14.98448585                0.30317486               -0.05756698                0.08787641               -0.08475153                0.27676739                1.50283324                0.31378293
               6.46610435                0.94127264               14.94129290                0.20971927                0.21469715                0.01326877               -0.37652742                0.28199621                1.36066406               -0.37123585
               7.46946033                0.90454672               14.89989353                0.38651070                0.37291010                0.20890542               -0.66003932                0.38477073                1.30745025                0.56948296
               8.47356255                0.86378357               14.85597331                1.00000000                0.37932615                0.29552151               -0.93645663                0.16024795                0.66505271                0.52106715
               9.47704685                0.81990297               14.80196996                1.00000000                0.38225860                0.37359675               -1.22649114               -0.00108900                0.09750528                0.07944327
              10.48120772                0.77592174               14.74679271                1.00000000                0.41608725                0.44583318               -1.51950361               -0.02909562                0.03370295               -0.57537887
               0.54092012                2.22751640               15.20272973                1.00000000               -0.31119352               -0.35023384                1.17295400               -0.02660378                0.03083194                1.17674221
               1.53780818                2.17047486               15.14053449                1.00000000               -0.26882044               -0.26124529                0.87567142               -0.00232322                0.13921348                0.03424088
               2.53554371                2.11316161               15.08046522                0.43265580               -0.17819645               -0.18263322                0.58968418                0.04715297                0.72258448               -1.14533539
               3.53424425                2.05613505               15.02991333                0.00010000               -1.36557347               -0.16170866                0.29425666                0.95967707                3.93433990               -1.61276697
               4.50823224                2.01529901               15.03409502                0.00010000               -1.43759299                0.23454847                0.21626958                1.87191358                4.15943667               -1.10441604
               5.50549239                1.97811325               14.99135296                0.00010000               -0.07750852                0.00777876               -0.08391263                1.62601526                1.43382559               -0.47461127
               6.50668207                1.94047477               14.94072900                0.00010000                0.44125097               -0.13435086               -0.36311656                1.48939286                2.66337093                0.11053926
               7.51431741                1.90666906               14.92270514                0.00010000                0.55497359               -0.08229043               -0.60128777                1.05082082                2.99315377                0.51934922
               8.51778154                1.86650976               14.87953060                0.43845173                0.31855405                0.28504780               -0.81884206                0.26915674                1.18653813                0.98902852
               9.52068849                1.82348732               14.82528352                1.00000000                0.33774106                0.35820696               -1.10454769                0.04527879                0.43174689                0.43097129
              10.52453636                1.78012224               14.76704256                1.00000000                0.38478683                0.39856776               -1.41437103               -0.01461172                0.22873571               -0.58772382
               0.59730212                3.22415547               15.18680978                1.00000000               -0.26870363               -0.32507237                1.06098147               -0.02226287                0.03347581                1.17787189
               1.59461509                3.16802095               15.11861727                1.00000000               -0.22057767               -0.22820513                0.74593519               -0.00152820                0.03797289               -0.02877105
               2.59289057                3.11145560               15.05046593                0.20976745               -0.11031653               -0.13842628                0.43396521                0.00816834                0.93242056               -1.34757529
               3.59240876                3.05457847               15.00012274                0.00010000               -0.50874024               -0.07066271                0.13670031                1.02287287                3.97034930               -1.96120827
               4.58271576                3.01760894               14.99280187                0.00010000               -0.99489126                0.16680390                0.00959263                2.61798672                5.64610235               -2.53327776
               5.57251093                2.97667178               14.97729397                0.00010000               -0.76896860                0.02962801               -0.13169101                2.25176607                4.88055302               -1.18653458
               6.56733639                2.93858562               14.95622583                0.00010000               -0.40345915               -0.03486240               -0.30471948                2.01734309                4.49334464                0.45016844
               7.56444175                2.90290091               14.93406142                0.00010000               -0.26044851               -0.14397071               -0.48087639                1.48981643                4.27568816                0.41815351
               8.56212742                2.86948453               14.90953871                0.20218010               -0.00509015                0.28455950               -0.67088183                0.61982006                2.57033399                1.81594691
               9.56433994                2.82706711               14.85434965                1.00000000                0.27591104                0.32679381               -0.95019143                0.06003672                0.51811154                0.66736137
              10.56764564                2.78389309               14.78880082                1.00000000                0.33056985                0.36864382               -1.29839071               -0.02444635               -0.00161039               -0.44436412
               0.65274389                4.22101495               15.17045268                1.00000000               -0.22663963               -0.30086908                0.94288791               -0.02403461                0.03195239                1.11808792
               1.65047749                4.16591076               15.09617912                1.00000000               -0.17971637               -0.18869540                0.60873071               -0.00298954                0.02827577               -0.06533225
               2.64914956                4.11039309               15.02177428                0.09160891               -0.09645607               -0.07789182                0.27635040                0.00955862                1.19362180               -1.18503133
               3.64854837                4.05472180               14.97078085                0.00010000               -0.53254482                0.25941113               -0.12655509                0.76814565                5.14582534               -0.89637539
               4.63849866                4.01863509               14.97514552                0.00010000               -0.94986692                0.15563452               -0.13689429                1.58317477                7.37875561               -0.97167544
               5.62955103                3.97870581               14.97056243                0.00010000               -0.88494303                0.22574480               -0.17527563                1.45613153                6.69850504               -0.57122630
               6.62079980                3.93977752               14.96316509                0.00010000               -0.81680971                0.19092009               -0.25712203                1.38536316                6.43481535                0.12026968
               7.61321484                3.90378964               14.95510359                0.00010000               -0.73940292                0.15740250               -0.35917804                1.35867090                6.45090186                0.94538128
               8.60601174                3.87220095               14.94967633                0.18994997               -0.28670866                0.21713415               -0.46727275                0.64180018                3.41892921                2.04996351
               9.60748066                3.83002320               14.88245632                1.00000000                0.21918620                0.26343219               -0.79655413                0.03603886                0.16473256                0.60904818
              10.61039547                3.78749512               14.81194658                1.00000000                0.29148045                0.34784568               -1.17298844               -0.02142340               -0.00000400               -0.36702646
               0.70702982                5.21813809               15.15320642                1.00000000               -0.18526575               -0.26880316                0.81530361               -0.02720703                0.09813842                1.02525947
               1.70517716                5.16424705               15.07349082                0.79833996               -0.13795576               -0.14196137                0.46639923               -0.00861826                0.16548780               -0.18318497
               2.70427070                5.10989776               14.99507377                0.03177344               -0.28237458               -0.01950720                0.13010313                0.22369290                2.54693198               -1.27041193
               3.69952967                5.05976669               14.96294738                0.00010000               -0.69377256                0.49465885               -0.45745512                0.63205163                6.61385995                0.15160711
               4.69039525                5.02072163               14.96542997                0.00010000               -0.95192696                0.26869050               -0.22770467                1.17196202                8.26927643               -0.39048571
               5.68049113                4.98118668               14.96881791                0.00010000               -1.02177167                0.29102848               -0.19318647                1.06310933                8.20051624               -0.18820824
               6.66995982                4.94240403               14.97232216                0.00010000               -1.06496982                0.29617716               -0.20227722                1.02709177                8.15543858                0.30459344
               7.65919173                4.90604896               14.97708052                0.00010000               -1.06149722                0.23863140               -0.23234779                1.07453175                8.24638380                0.97316469
               8.64872987                4.87382721               14.98451646                0.19930440               -0.47125888                0.11925253               -0.26903800                0.52847919                4.21034660                1.68688769
               9.64976655                4.83233575               14.91041659                0.92105700                0.17717285                0.20450270               -0.65151419                0.02059916                0.08036377                0.58939278
              10.65227333                4.79085001               14.83525031                1.00000000                0.25067754                0.31975236               -1.04339646               -0.02110009                0.02856388               -0.37395180
               0.75998182                6.21563889               15.13485211                1.00000000               -0.14363734               -0.22657488                0.68080837               -0.02911819                0.06824545                0.92063768
               1.75854545                6.16307153               15.04865910                0.65326379               -0.09390275               -0.09284767                0.31048607               -0.01215606                0.18304045               -0.35314870
               2.75810377                6.11000294               14.96471691                0.00631755               -0.40899595                0.03832804               -0.04799310                0.39498895                4.02820777               -1.58138262
               3.75036553                6.06461497               14.95540791                0.00010000               -0.87929257                0.42394659               -0.33909018                0.80397311                8.36269909               -0.28069379
               4.74051792                6.02400890               14.95925684                0.00010000               -1.06173559                0.37938547               -0.26286040                0.97847631                9.23515115               -0.24222573
               5.72913082                5.98452638               14.96957738                0.00010000               -1.20192820                0.39344205               -0.18307637                0.88268313                9.57370582               -0.01554966
               6.71647935                5.94570106               14.98278036                0.00010000               -1.29242680                0.37098701               -0.13683633                0.77427500                9.71555596                0.39693387
               7.70328228                5.90856227               14.99859206                0.00010000               -1.30924096                0.25667995               -0.10582544                0.77365775                9.87633544                0.93635214
               8.69029453                5.87458600               15.01750121                0.21571686               -0.62062172                0.04052337               -0.08295407                0.36609367                5.01013693                1.55042490
               9.69086985                5.83411325               14.93816746                0.82721623                0.13252116                0.15393541               -0.49288547                0.00914194                0.06870001                0.54160413
              10.69294496                5.79389017               14.85822284                1.00000000                0.20751081                0.28575209               -0.91593481               -0.02055798                0.04120884               -0.43666594
               0.81158217                7.21360659               15.11536004                0.99301125               -0.10121851               -0.17867720                0.54162900               -0.02803870                0.03219832                0.83968846
               1.81056998                7.16239009               15.02255542                0.57372092               -0.04775659               -0.04465822                0.15400719               -0.01090771                0.14078335               -0.44170562
               2.81062704                7.11066432               14.93188530                0.00010000               -0.44834040                0.09109735               -0.22810988                0.47911934                5.09925216               -1.77718123
               3.80160318                7.06824563               14.93825644                0.00010000               -1.02868308                0.37198522               -0.32153103                0.95225836               10.22486847               -0.87357654
               4.79005338                7.02830934               14.95211965                0.00010000               -1.25752749                0.48942744               -0.24846511                0.93449809               10.70889731               -0.33472409
               5.77645263                6.98905552               14.97081870                0.00010000               -1.43219774                0.52998203               -0.15522962                0.74453213               10.99578564                0.01612814
               6.76140942                6.94982377               14.99337902                0.00010000               -1.53363396                0.47417566               -0.06563901                0.52991942               11.21954791                0.39884336
               7.74577995                6.91118256               15.01959211                0.00010000               -1.54543265                0.28524259                0.01809086                0.41764444               11.45186721                0.87813350
               8.73050077                6.87463768               15.04965176                0.23741451               -0.75673584               -0.02612167                0.09866116                0.15886654                5.79316376                1.47263308
               9.73064523                6.83541446               14.96514866                0.77957420                0.09037858                0.10602349               -0.34314006                0.00199061                0.04501523                0.47038540
              10.73230834                6.79656505               14.88018496                0.99281100                0.16631093                0.24901201               -0.78978281               -0.01954341                0.02661443               -0.51358441
               0.86185404                8.21206534               15.09525234                0.98490183               -0.05844762               -0.13063544                0.40201472               -0.02656161                0.01490112                0.80367469
               1.86126956                8.16217837               14.99596126                0.55081488               -0.00117086                0.00226484               -0.00151684               -0.00736148                0.07034252               -0.47803386
               2.86183062                8.11182489               14.89775315                0.00010000               -0.47519416                0.13900604               -0.40767880                0.54757687                6.05195403               -1.78260293
               3.85176568                8.07205468               14.91813499                0.00010000               -1.17163189                0.44220168               -0.37154833                1.01783046               12.09242661               -0.90165751
               4.83839799                8.03379745               14.94344129                0.00010000               -1.46293231                0.63191170               -0.24850748                0.85145094               12.31219998               -0.35537637
               5.82250703                7.99512602               14.97148065                0.00010000               -1.67236424                0.67347560               -0.12477823                0.58393923               12.45877651                0.00520243
               6.80495070                7.95518458               15.00321902                0.00010000               -1.78428882                0.62662472                0.00254381                0.27428263               12.69837454                0.32788690
               7.78682126                7.91426712               15.03954337                0.00010000               -1.78553686                0.37559990                0.13481826               -0.02231267               13.02584285                0.73292786
               8.76923996                7.87406357               15.08106694                0.26479007               -0.89194838               -0.08424226                0.27344456               -0.10759632                6.58878955                1.34836904
               9.76898229                7.83623372               14.99140139                0.78064049                0.05064756                0.05730829               -0.19614793               -0.00416508                0.02120881                0.43222845
              10.77025291                7.79887041               14.90147678                0.98544752                0.12706235                0.21184938               -0.66732774               -0.01924203                0.01448547               -0.55789450
               0.91082489                9.21099388               15.07493774                0.97921413               -0.01616846               -0.08592398                0.26402091               -0.02505832                0.00103697                0.67202308
               1.91066321                9.16243539               14.96914632                0.57077453                0.04386844                0.04904399               -0.15546314               -0.00333950                0.08206657               -0.42626342
               2.91170226                9.11344444               14.86496288                0.00010000               -0.53379899                0.18189110               -0.57657053                0.65346897                7.10872999               -1.26325566
               3.89998723                9.07708966               14.89977682                0.00010000               -1.38456028                0.68954545               -0.42588120                0.84553629               13.90010415               -0.54792033
               4.88401106                9.04094757               14.93490462                0.00010000               -1.66214741                0.75514921               -0.26473614                0.58753643               13.78279947               -0.21436391
               5.86674428                9.00252503               14.97141087                0.00010000               -1.81285455                0.76660502               -0.10609851                0.35114869               13.83528570                0.00413623
               6.84775397                8.96235626               15.01143426                0.00010000               -2.01447906                0.74254326                0.05834361                0.07037773               14.10196463                0.19404501
               7.82645470                8.91869456               15.05705157                0.00010000               -2.06858605                0.64049374                0.23530143               -0.33522604               14.59231059                0.42724016
               8.80638224                8.87295283               15.11068446                0.29603627               -1.03498041               -0.12362798                0.43377471               -0.45686891                7.49565556                0.90905396
               9.80575509                8.83656063               15.01751110                0.83099346                0.01339411                0.01058234               -0.05167965               -0.01213775                0.06391135                0.37087132
              10.80665013                8.80080204               14.92237311                0.95458170                0.08950355                0.17427252               -0.54832945               -0.01962691               -0.02629793               -0.47749668
               0.95846985               10.21034686               15.05212370                0.98896140                0.02823588               -0.06470159                0.12561666                0.04573421                0.36930181                0.54978963
               1.95875221               10.16315925               14.94361187                0.81914199                0.08879398                0.07238553               -0.30259687                0.06469279                0.68234681               -0.36430493
               2.96024573               10.11546271               14.84136507                0.49519178               -0.87894681                0.20182700               -0.71753242                0.98866422                8.32687626               -0.81078888
               3.94117328               10.08584559               14.88584483                0.33252829               -1.77661958                0.87559277               -0.48643962                0.79049069               15.25094460               -0.23678204
               4.92471334               10.04890043               14.92764569                0.32591480               -1.65259776                0.79528577               -0.29728892                0.30085500               14.96981823               -0.07227548
               5.90812132               10.01045812               14.97062206                0.34669779               -1.72623067                0.79330846               -0.10406286                0.19445460               15.02728527                0.04670132
               6.89018873                9.97003544               15.01721677                0.39224427               -1.93005787                0.76791809                0.09574182                0.07442040               15.33876438                0.15004724
               7.86952016                9.92707700               15.06997666                0.48637236               -2.39761062                0.83824398                0.31029778               -0.61567511               15.98332233                0.28547183
               8.84223652                9.87159101               15.13321961                0.66297309               -1.43149155               -0.13618242                0.55265737               -0.94615441                8.57208947                0.56417672
               9.84089033                9.83644537               15.04240472                0.95033379               -0.04294788               -0.01152607                0.08196405                0.05176652                0.54846924                0.31850382
              10.84137756                9.80235586               14.94507749                0.97701654                0.04872255                0.15538198               -0.42543818                0.06379210                0.23285923               -0.37678790
               0.47760695                0.26371996               16.25404403                1.00000000               -0.36622754               -0.40071857                1.39896316               -0.07288203               -0.65717619                0.69577376
               1.47394468                0.19892611               16.19432098                1.00000000               -0.30242999               -0.31883584                1.11981228               -0.05821779               -0.82413947                0.04135982
               2.47155835                0.13393185               16.13118055                1.00000000               -0.16185372               -0.23836106                0.82439033               -0.04132475               -0.76072578               -0.19450459
               3.47070760                0.07007013               16.07267549                0.62557792                0.31934113               -0.18491812                0.54349888                0.48112445                0.22159566               -0.52430721
               4.47794518                0.01835938               16.02917185                0.68562162                0.47440980               -0.07740655                0.24675193               -0.04509342                0.79749921                0.09909656
               5.48019580               -0.02466134               15.98218580                0.75432796                0.14994266                0.01818240               -0.06539701                0.00776803                0.41949990                0.05730730
               6.48094403               -0.06639038               15.93126864                0.74039227                0.04261841                0.10592217               -0.37899800                0.01000127                0.23757062               -0.03724352
               7.48104817               -0.10953598               15.88065371                0.85253249                0.04617674                0.20342460               -0.70222897                0.04894042                0.01245451                0.04241214
               8.48186756               -0.15664919               15.82512770                1.00000000                0.18437348                0.31375205               -1.01700583                0.03591384               -0.37607332                0.38891012
               9.48473564               -0.20636268               15.76668480                1.00000000                0.35551519                0.38377960               -1.32205579               -0.04898874               -0.50732630                0.01597723
              10.48897787               -0.25631137               15.70861951                1.00000000                0.42422309                0.46578681               -1.61251404               -0.07399053               -0.49482858               -0.51559620
               0.54167199                1.25971277               16.23174218                1.00000000               -0.34154300               -0.37943716                1.27091253               -0.03218804               -0.08330309                0.94819925
               1.53825656                1.19573775               16.17161458                1.00000000               -0.30494453               -0.29620490                0.99167428               -0.01438670               -0.04252858                0.06140308
               2.53557309                1.13154824               16.11224527                0.83379627               -0.24757363               -0.21575114                0.70713811                0.02471849                0.18103058               -0.54195723
               3.53330508                1.06822095               16.05655497                0.12283222               -0.53565605               -0.17567061                0.42545474                0.67982149                1.58246370               -0.90380140
               4.52485997                1.01758531               16.02523359                0.24720429               -0.53283639                0.07208435                0.19681549                0.00865081                2.25775148                0.84835946
               5.52264835                0.97552049               15.98364471                0.31859863               -0.06893061                0.08719970               -0.08373918                0.25429799                1.50917561                0.32933178
               6.52348136                0.93466885               15.93755428                0.22262243                0.20093121                0.02115719               -0.37172927                0.26774582                1.36795068               -0.37438648
               7.52666698                0.89249827               15.89334304                0.39761772                0.35793472                0.20330761               -0.65067269                0.36287645                1.32146619                0.57437608
               8.53064006                0.84648833               15.84666863                1.00000000                0.37049297                0.29174058               -0.92499330                0.15394134                0.67417941                0.54228546
               9.53407684                0.79747511               15.78977898                1.00000000                0.37732959                0.36945884               -1.21213658               -0.00072680                0.09858024                0.08162447
              10.53818665                0.74834650               15.73168752                1.00000000                0.41098092                0.44142872               -1.50185610               -0.02789325                0.03344281               -0.61104322
               0.60491324                2.25613122               16.21439207                1.00000000               -0.30917631               -0.34387947                1.16014229               -0.02563549                0.03155838                1.21718957
               1.60182148                2.19300201               16.14924557                1.00000000               -0.26718596               -0.25790924                0.86681321               -0.00083429                0.14493135                0.03977544
               2.59956952                2.12961682               16.08632777                0.44737603               -0.17772609               -0.18230638                0.58250650                0.05143313                0.72905365               -1.17036139
               3.59826696                2.06655672               16.03283829                0.00010000               -1.43754364               -0.16155561                0.28983882                0.97094662                4.04116676               -1.66451241
               4.57081865                2.01980106               16.03616866                0.00010000               -1.50343675                0.22182835                0.20218010                1.89475491                4.30862079               -1.13432125
               5.56819822                1.97708266               15.99050293                0.00010000               -0.07487439               -0.01020140               -0.08634722                1.64453333                1.48306363               -0.47325930
               6.56932116                1.93403277               15.93710371                0.00010000                0.41439949               -0.14319569               -0.36242435                1.47865190                2.73989595                0.13155243
               7.57648621                1.89453018               15.91671208                0.00010000                0.53241924               -0.09277889               -0.59803965                1.03815342                3.09201396                0.56009394
               8.57996955                1.84918562               15.87137014                0.44656176                0.31883593                0.28240755               -0.81384274                0.26463095                1.25691512                1.03571146
               9.58286293                1.80102649               15.81428387                1.00000000                0.33538407                0.35498515               -1.09610811                0.04484182                0.45662983                0.45319358
              10.58667723                1.75251720               15.75295991                1.00000000                0.38142978                0.39685977               -1.40288084               -0.01374906                0.24140825               -0.62215949
               0.66741769                3.25283518               16.19735239                1.00000000               -0.26634296               -0.31894639                1.04838939               -0.02031197                0.03648471                1.21378970
               1.66475426                3.19057956               16.12603934                1.00000000               -0.21853204               -0.22562946                0.73870733                0.00125358                0.04234108               -0.02935744
               2.66304705                3.12790211               16.05479773                0.22441069               -0.11072425               -0.13934968                0.43219132                0.01500185                0.94398051               -1.38760951
               3.66253978                3.06498984               16.00148416                0.00010000               -0.54089597               -0.08638983                0.13597978                1.04222550                4.07571873               -2.07423374
               4.65222913                3.02202188               15.99289443                0.00010000               -1.06162296                0.15274936                0.01000515                2.68208994                5.83789359               -2.64976759
               5.64130732                2.97531646               15.97597298                0.00010000               -0.83111245                0.01205858               -0.13139780                2.29413108                5.06111471               -1.20584305
               6.63560688                2.93180493               15.95319381                0.00010000               -0.45150605               -0.05863711               -0.30224739                2.03457849                4.66100172                0.49305507
               7.63227720                2.89064269               15.92927052                0.00010000               -0.30852616               -0.15233035               -0.47826044                1.50786834                4.43682783                0.49339399
               8.62943636                2.85213648               15.90283513                0.20242791               -0.03175524                0.27892752               -0.67100618                0.61828888                2.68433455                1.90580310
               9.63164209                2.80457481               15.84487128                1.00000000                0.27469420                0.32359302               -0.94641374                0.05796664                0.55496974                0.70632244
              10.63493024                2.75628369               15.77585304                1.00000000                0.32881515                0.36874925               -1.29162358               -0.02368037                0.00066565               -0.46611417
               0.72901825                4.24975229               16.17981491                1.00000000               -0.22386192               -0.29475709                0.93008936               -0.02259657                0.03407906                1.14481589
               1.72677963                4.18848942               16.10222767                1.00000000               -0.17794782               -0.18687332                0.60277003               -0.00090012                0.03205098               -0.07326391
               2.72545929                4.12682983               16.02454875                0.10309919               -0.08939635               -0.07912670                0.28084996                0.00316326                1.16604523               -1.22219067
               3.72499170                4.06482892               15.96963326                0.00010000               -0.56627321                0.21969736               -0.10423974                0.79217535                5.27275735               -1.10998617
               4.71413383                4.02285605               15.97376848                0.00010000               -1.03469547                0.14912145               -0.13578703                1.61397201                7.69213966               -1.03800563
               5.70429779                3.97732383               15.96881668                0.00010000               -0.97236619                0.22805552               -0.17328686                1.48162664                6.98943709               -0.58056136
               6.69468650                3.93286003               15.96060829                0.00010000               -0.89928789                0.18758813               -0.25496507                1.39282667                6.70169061                0.15939927
               7.68631203                3.89148357               15.95152141                0.00010000               -0.81416493                0.15649983               -0.35857924                1.35739577                6.71108364                1.02159742
               8.67840320                3.85476417               15.94499263                0.18778561               -0.32184905                0.20931129               -0.47081720                0.63734391                3.57475068                2.16281147
               9.67987505                3.80749835               15.87449518                1.00000000                0.21913309                0.26062047               -0.79512559                0.03471782                0.18883722                0.64268552
              10.68278586                3.75989219               15.80022800                1.00000000                0.29108131                0.34900322               -1.16943095               -0.02070691               -0.00079898               -0.38091963
               0.78949150                5.24694004               16.16129299                1.00000000               -0.18327812               -0.26188656                0.80270419               -0.02542398                0.10163472                1.04238493
               1.78765872                5.18684210               16.07811011                0.78883412               -0.13603411               -0.14092461                0.45872373               -0.00545542                0.17510332               -0.19989630
               2.78677082                5.12631958               15.99635776                0.04125390               -0.26508266               -0.02314821                0.12716005                0.19728919                2.42731086               -1.31645732
               3.78235706                5.06938378               15.95818926                0.00010000               -0.73785771                0.48538988               -0.48151382                0.61954135                6.79783714                0.10942358
               4.77201366                5.02500431               15.96311087                0.00010000               -1.07105943                0.28143352               -0.23390430                1.20665275                8.77552106               -0.40619076
               5.76093587                4.97987757               15.96688301                0.00010000               -1.13549927                0.30616930               -0.19378250                1.06835999                8.58824125               -0.17472234
               6.74930368                4.93555670               15.97030690                0.00010000               -1.17074537                0.30934451               -0.20170687                1.01882672                8.51701012                0.34945525
               7.73752097                4.89377269               15.97475445                0.00010000               -1.15676115                0.24556438               -0.23423134                1.06101410                8.60166443                1.04899960
               8.72616845                4.85632271               15.98179626                0.19652871               -0.51562690                0.11450907               -0.27579791                0.51699235                4.39957157                1.78821742
               9.72720843                4.80978722               15.90387198                0.90387822                0.17799893                0.20368680               -0.65619172                0.01925280                0.09427689                0.62394045
              10.72972843                4.76326376               15.82479640                1.00000000                0.25200022                0.32269479               -1.04540087               -0.02045233                0.03702092               -0.38803891
               0.84870566                6.24451456               16.14159191                1.00000000               -0.14146723               -0.21971363                0.66805723               -0.02696632                0.06862277                0.93134778
               1.84729099                6.18567093               16.05174138                0.64617159               -0.09211350               -0.09294129                0.30580404               -0.00804716                0.18924531               -0.37627914
               2.84686339                6.12636687               15.96426114                0.01401154               -0.42965953                0.03176292               -0.04402351                0.38991601                4.05446151               -1.64208802
               3.83869780                6.07453672               15.95168830                0.00010000               -0.95451478                0.45818001               -0.40582976                0.77648253                8.63949182               -0.13387887
               4.82777309                6.02848472               15.95653767                0.00010000               -1.17925967                0.40564812               -0.28000199                0.99193160                9.72080978               -0.20459222
               5.81511260                5.98344722               15.96772696                0.00010000               -1.33025874                0.42316070               -0.18751254                0.87621369               10.03826825                0.01951884
               6.80116792                5.93904692               15.98140856                0.00010000               -1.41731490                0.39667591               -0.13858311                0.75092550               10.15966352                0.44775263
               7.78676630                5.89639486               15.99751661                0.00010000               -1.42197017                0.27160711               -0.11046218                0.74235361               10.31537477                1.00838421
               8.77272851                5.85705435               16.01661588                0.21291148               -0.67236241                0.03948992               -0.09493636                0.34497838                5.23818460                1.64239008
               9.77331906                5.81157209               15.93318243                0.81164852                0.13476179                0.15621176               -0.50439824                0.00756862                0.07615045                0.57807993
              10.77542375                5.76634608               15.84900718                1.00000000                0.21046944                0.29150783               -0.92702498               -0.02009827                0.04216087               -0.45264145
               0.90663943                7.24254577               16.12071404                0.99249886               -0.09939674               -0.17310346                0.52988110               -0.02637572                0.03156660                0.84758546
               1.90564546                7.18498327               16.02408711                0.56823160               -0.04680428               -0.04532644                0.15200576               -0.00751489                0.14299104               -0.46490057
               2.90570335                7.12695483               15.92965261                0.00391297               -0.49383023                0.08381484               -0.21980950                0.49891215                5.23522512               -1.83884353
               3.89576886                7.07854738               15.93486526                0.00010000               -1.13807753                0.40783286               -0.36161213                0.97082364               10.61074983               -0.79655394
               4.88294180                7.03311727               15.94955041                0.00010000               -1.39354530                0.53071375               -0.26689368                0.95174869               11.21148621               -0.27476243
               5.86789795                6.98834078               15.96924017                0.00010000               -1.57836252                0.57516247               -0.16145188                0.73441722               11.51074337                0.06174400
               6.85137454                6.94349021               15.99270931                0.00010000               -1.67686747                0.51380526               -0.06946624                0.49350334               11.73494687                0.44941123
               7.83436060                6.89920483               16.01974122                0.00010000               -1.67418784                0.30900628                0.01050021                0.36639379               11.96948136                0.94364646
               8.81789079                6.85711250               16.05056071                0.23478381               -0.81462676               -0.02443990                0.08206017                0.12658779                6.05752480                1.55939102
               9.81806807                6.81291146               15.96163389                0.76537196                0.09438427                0.11086477               -0.36079503                0.00048467                0.04834042                0.50221379
              10.81977847                6.76909391               15.87219809                0.99278989                0.17104046                0.25730103               -0.80816788               -0.01884642                0.02771020               -0.53079031
               0.96330314                8.24105249               16.09921716                0.98464647               -0.05715174               -0.12652097                0.39156389               -0.02527211                0.01409755                0.81180010
               1.96273162                8.18476440               15.99595434                0.54628875               -0.00128108                0.00140181               -0.00053446               -0.00497093                0.06849461               -0.49959331
               2.96327752                8.12804316               15.89375284                0.00052569               -0.53898959                0.13203029               -0.39437406                0.58950608                6.26021819               -1.83767281
               3.95195183                8.08269337               15.91434830                0.00010000               -1.31314276                0.48114683               -0.38971907                1.07443015               12.58250353               -0.86209946
               4.93701467                8.03909900               15.94091523                0.00010000               -1.62619151                0.69087796               -0.25873075                0.88046718               12.86742773               -0.30987143
               5.91942800                7.99495046               15.97021279                0.00010000               -1.84203633                0.73542146               -0.13012663                0.57495214               13.02659551                0.04508928
               6.90017394                7.94932302               16.00322457                0.00010000               -1.94780567                0.68404640               -0.00269787                0.22989902               13.27922650                0.36860323
               7.88047189                7.90257498               16.04084627                0.00010000               -1.93101484                0.41217163                0.12442649               -0.09631750               13.62017745                0.78500678
               8.86155364                7.85656555               16.08370346                0.26238461               -0.95622750               -0.08029651                0.25250244               -0.15461149                6.89217868                1.42524793
               9.86134734                7.81378938               15.98933452                0.76610215                0.05641349                0.06376927               -0.21825860               -0.00564113                0.02238360                0.46253391
              10.86268191                7.77149211               15.89468590                0.98582569                0.13345722                0.22146474               -0.69139582               -0.01831575                0.01500931               -0.57777285
               1.01871017                9.24001535               16.07753103                0.97913383               -0.01547987               -0.08293827                0.25512917               -0.02415321               -0.00068408                0.68061301
               2.01855537                9.18501131               15.96761739                0.56602540                0.04271614                0.04768114               -0.15131293               -0.00208988                0.07997139               -0.44327211
               3.01956449                9.12959544               15.85930127                0.00010000               -0.61768704                0.17540379               -0.55831967                0.72206216                7.38409334               -1.29846144
               4.00620163                9.08817032               15.89552092                0.00010000               -1.56352215                0.75470169               -0.42767305                0.91230713               14.48169480               -0.51749219
               4.98829405                9.04693483               15.93225026                0.00010000               -1.85143293                0.82723172               -0.26786388                0.61526803               14.39182803               -0.18994435
               5.96917297                9.00304921               15.97033869                0.00010000               -1.99730203                0.83983760               -0.10973255                0.34546520               14.46076996                0.02619095
               6.94834801                8.95717114               16.01199287                0.00010000               -2.19906247                0.81449816                0.05201275                0.03350528               14.74746487                0.21610102
               7.92519172                8.90744826               16.05934623                0.00010000               -2.23819260                0.70609247                0.22218969               -0.41022123               15.26307568                0.45601375
               8.90358416                8.85550657               16.11490273                0.29371288               -1.10815134               -0.11616250                0.40831088               -0.52375584                7.84520903                0.95851625
               9.90302869                8.81418684               16.01686543                0.81398311                0.02112795                0.01854662               -0.07865063               -0.01413338                0.06887381                0.39495658
              10.90400672                8.77352321               15.91674402                0.95675567                0.09780205                0.18451908               -0.57812016               -0.01850744               -0.02678311               -0.49701448
               1.07282816               10.23939372               16.05334370                0.98896210                0.02815736               -0.06216278                0.11870818                0.04422941                0.37271798                0.55803206
               2.07310974               10.18571802               15.94062697                0.81715694                0.08657937                0.07067140               -0.29563752                0.06331262                0.69268023               -0.37735505
               3.07455975               10.13155124               15.83430776                0.49410527               -1.01255758                0.19557999               -0.69673835                1.10299536                8.66032639               -0.83111538
               4.05285859               10.09778741               15.88101953                0.33318437               -2.00593102                0.96170891               -0.48025720                0.87031526               15.91293877               -0.21914097
               5.03444113               10.05564363               15.92468216                0.32615313               -1.83787964                0.87088022               -0.29702946                0.31269870               15.63745066               -0.06253947
               6.01610099               10.01174722               15.96957481                0.34655212               -1.89980686                0.86980034               -0.10688543                0.19126997               15.71647163                0.05565762
               6.99644499                9.96561298               16.01814342                0.39182347               -2.10844807                0.84418433                0.08805464                0.05717932               16.04931487                0.15950744
               7.97393203                9.91669683               16.07300561                0.48704461               -2.60525254                0.92485681                0.29389127               -0.69450299               16.72124594                0.29899603
               8.94433994                9.85424230               16.13859678                0.66216125               -1.54419978               -0.12642701                0.52111569               -1.05124702                8.97525544                0.59354133
               9.94304804                9.81416032               16.04306633                0.94077080               -0.03504552               -0.00265282                0.04894594                0.04894333                0.58042302                0.33772061
              10.94363903                9.77518249               15.94064366                0.97724853                0.05909966                0.16592778               -0.46212663                0.06544886                0.24647932               -0.39421167
               0.53203590                0.29373630               17.26796090                1.00000000               -0.36228041               -0.39602153                1.38452359               -0.07245367               -0.68015717                0.71853805
               1.52841309                0.22270740               17.20546469                1.00000000               -0.29913148               -0.31580614                1.10903702               -0.05826966               -0.85460846                0.04499931
               2.52605327                0.15149090               17.13939969                1.00000000               -0.16046801               -0.23690045                0.81914536               -0.04077672               -0.79169562               -0.19853247
               3.52520373                0.08142256               17.07810702                0.62521786                0.31853905               -0.18487331                0.54252778                0.48713803                0.18881451               -0.54533528
               4.53242405                0.02361399               17.03164774                0.68849523                0.47005955               -0.07256507                0.24696151               -0.05223455                0.74404263                0.11323953
               5.53460493               -0.02541597               16.98154443                0.75914841                0.14660546                0.02016849               -0.06384280                0.00639071                0.35924276                0.06441630
               6.53535616               -0.07310676               16.92751600                0.74423649                0.04590160                0.10565929               -0.37206499                0.00971254                0.17456121               -0.04178134
               7.53552296               -0.12203947               16.87369769                0.85536603                0.05120583                0.20153478               -0.68942817                0.04535578               -0.04978207                0.04660549
               8.53638028               -0.17470433               16.81504317                1.00000000                0.18435720                0.30911633               -1.00020508                0.03229436               -0.42839106                0.40017479
               9.53921010               -0.22985343               16.75356417                1.00000000                0.35047682                0.37898254               -1.30220753               -0.04795499               -0.54677845                0.01456302
              10.54338981               -0.28524236               16.69261146                1.00000000                0.41797109                0.46028268               -1.58913841               -0.07192317               -0.52662631               -0.54657118
               0.60234026                1.28977609               17.24438736                1.00000000               -0.33871642               -0.37431612                1.25847140               -0.03225471               -0.08754425                0.97895763
               1.59895310                1.21954934               17.18148313                1.00000000               -0.30261701               -0.29308967                0.98241513               -0.01480876               -0.04935405                0.06634687
               2.59628792                1.14912189               17.11928893                0.83789180               -0.24697661               -0.21444859                0.70215749                0.02516379                0.17366564               -0.55060131
               3.59401357                1.07957382               17.06081222                0.13044764               -0.54834778               -0.17534734                0.42872675                0.68947045                1.60220684               -0.93608813
               4.58532097                1.02288834               17.02720370                0.25898770               -0.54921793                0.06688773                0.19752068               -0.02360729                2.28743845                0.88677391
               5.58302921                0.97478571               16.98281106                0.33299176               -0.07779664                0.08678847               -0.08325089                0.23375895                1.51346866                0.34380870
               6.58376504                0.92794983               16.93385832                0.23484247                0.18730443                0.02865237               -0.36793613                0.25524208                1.37464996               -0.37803759
               7.58677530                0.87997587               16.88688008                0.40835368                0.34225819                0.19914631               -0.64254246                0.34026551                1.33437973                0.57889486
               8.59061020                0.82838684               16.83747344                1.00000000                0.36121344                0.28809098               -0.91455959                0.14641468                0.68198012                0.56303519
               9.59399957                0.77393639               16.77772723                1.00000000                0.37246522                0.36561625               -1.19863434               -0.00025745                0.09906188                0.08331781
              10.59805950                0.71936047               16.71675559                1.00000000                0.40599371                0.43779415               -1.48486631               -0.02646132                0.03292932               -0.64776125
               0.67184430                2.28624998               17.22593258                1.00000000               -0.30731884               -0.33838326                1.14871329               -0.02455470                0.03233304                1.25492987
               1.66877111                2.21684561               17.15787076                1.00000000               -0.26561201               -0.25488182                0.85877134                0.00077072                0.14909546                0.04437152
               2.66653206                2.14720193               17.09211535                0.46246518               -0.17722084               -0.18197351                0.57458840                0.05537192                0.73304430               -1.19476158
               3.66522670                2.07791561               17.03571011                0.00010000               -1.48960235               -0.16374996                0.28481152                0.97813431                4.14254601               -1.71649548
               4.63674001                2.02495175               17.03813862                0.00010000               -1.55040407                0.20627130                0.19291212                1.90340198                4.45129645               -1.16209424
               5.63421861                1.97631980               16.98962601                0.00010000               -0.07345871               -0.02722713               -0.09036416                1.64595881                1.53148228               -0.46966929
               6.63527084                1.92746629               16.93348052                0.00010000                0.38363241               -0.15038405               -0.36248405                1.45587491                2.81280411                0.15479060
               7.64189126                1.88194345               16.91074435                0.00010000                0.50386061               -0.10082067               -0.59636413                1.01764460                3.18849575                0.60205031
               8.64534805                1.83105749               16.86325375                0.45490269                0.31700283                0.27956345               -0.81020796                0.25592989                1.32637346                1.08228753
               9.64823132                1.77745889               16.80336136                1.00000000                0.33321887                0.35229286               -1.08916807                0.04389450                0.48125082                0.47522693
              10.65201243                1.72351353               16.73898495                1.00000000                0.37811104                0.39711296               -1.39271035               -0.01274024                0.25393401               -0.65736163
               0.74065792                3.28300842               17.20777757                1.00000000               -0.26413491               -0.31396553                1.03737248               -0.01788917                0.03947000                1.24636883
               1.73801657                3.21445170               17.13339142                1.00000000               -0.21662784               -0.22354490                0.73213489                0.00437801                0.04678438               -0.03038124
               2.73632536                3.14548242               17.05910975                0.23990722               -0.10950668               -0.14063428                0.43079401                0.01899670                0.95432717               -1.42267109
               3.73582643                3.07629882               17.00284233                0.00010000               -0.56702702               -0.10493197                0.13634854                1.05442172                4.18455263               -2.18006637
               4.72498482                3.02701377               16.99300197                0.00010000               -1.11962938                0.13533918                0.01491372                2.71801848                6.02118828               -2.75128499
               5.71343385                2.97424117               16.97466602                0.00010000               -0.88629703               -0.00676278               -0.13049976                2.31048669                5.23321774               -1.21877687
               6.70725888                2.92494215               16.95018088                0.00010000               -0.49484316               -0.08069374               -0.30145238                2.02881684                4.82279566                0.54096245
               7.70353698                2.87795946               16.92449622                0.00010000               -0.35227602               -0.16028910               -0.47769703                1.50984306                4.59151722                0.57229397
               8.70021336                2.83397811               16.89611859                0.20284930               -0.05577798                0.27192793               -0.67344246                0.61038613                2.79546990                1.99706631
               9.70242142                2.78098225               16.83542137                1.00000000                0.27410356                0.32086568               -0.94526009                0.05576720                0.59242345                0.74709134
              10.70569543                2.72730273               16.76296835                1.00000000                0.32740061                0.37099220               -1.28707535               -0.02288108                0.00379322               -0.48639224
               0.80859996                4.27997067               17.18905446                1.00000000               -0.22152857               -0.28998152                0.91854694               -0.02107843                0.03862161                1.16843401
               1.80638467                4.21237471               17.10823452                0.99496305               -0.17675416               -0.18581469                0.59908614                0.00082288                0.03970003               -0.08377855
               2.80506487                4.14438924               17.02739128                0.11433780               -0.08004423               -0.08130979                0.28720800               -0.00726658                1.14609847               -1.26330329
               3.80478379                4.07581697               16.96869605                0.00010000               -0.59534184                0.18006526               -0.08808334                0.80880793                5.38555885               -1.32218652
               4.79315804                4.02765853               16.97242978                0.00010000               -1.11419106                0.14074284               -0.12850772                1.62973379                7.98271633               -1.09827577
               5.78249996                3.97618454               16.96709669                0.00010000               -1.05145752                0.22703912               -0.17144762                1.49099805                7.27050365               -0.58600123
               6.77212889                3.92585241               16.95806579                0.00010000               -0.97238983                0.18253549               -0.25464007                1.38614181                6.96085375                0.20254752
               7.76305217                3.87873767               16.94793201                0.00010000               -0.87979499                0.15371430               -0.36061330                1.34211600                6.96330489                1.10138571
               8.75453299                3.83649605               16.94025998                0.18578776               -0.35150645                0.19950991               -0.47816634                0.62644725                3.72762858                2.27904518
               9.75602204                3.78387621               16.86655380                1.00000000                0.21904304                0.25725299               -0.79349701                0.03339228                0.21461962                0.67778065
              10.75891385                3.73093337               16.78855796                1.00000000                0.28918078                0.35036601               -1.16218266               -0.02080926               -0.00083931               -0.39263086
               0.87542827                5.27720879               17.16926050                1.00000000               -0.18138162               -0.25629377                0.79122285               -0.02456955                0.10487106                1.05670058
               1.87361445                5.21073541               17.08266530                0.77950869               -0.13452513               -0.14028807                0.45303165               -0.00380539                0.18419620               -0.21970381
               2.87273777                5.14385623               16.99761697                0.05031736               -0.24405751               -0.02614530                0.12614074                0.16729664                2.29990033               -1.36859314
               3.86873330                5.07990013               16.95331710                0.00010000               -0.77629221                0.47222131               -0.47465779                0.60337231                6.95840928                0.03786766
               4.85721192                5.02982862               16.96075188                0.00010000               -1.18366885                0.29094917               -0.23632366                1.23096202                9.27299736               -0.42614891
               5.84505993                4.97878195               16.96494226                0.00010000               -1.23916682                0.31875239               -0.19487932                1.06447846                8.96937361               -0.16015559
               6.83242859                4.92859286               16.96828803                0.00010000               -1.26621317                0.32006457               -0.20313349                1.00029382                8.87142127                0.39766460
               7.81973566                4.88103375               16.97239590                0.00010000               -1.24124087                0.25027547               -0.23881445                1.03528640                8.94899396                1.12891227
               8.80760377                4.83796830               16.97900051                0.19397528               -0.55418562                0.10866487               -0.28589313                0.49764923                4.58566384                1.89358010
               9.80865195                4.78612731               16.89729276                0.88620694                0.17805724                0.20183660               -0.65721199                0.01606366                0.10881250                0.65775257
              10.81116491                4.73431005               16.81434229                1.00000000                0.25129635                0.32511358               -1.04267871               -0.02048417                0.04633004               -0.40335548
               0.94105533                6.27484479               17.14821325                1.00000000               -0.13942049               -0.21378737                0.65655615               -0.02563024                0.06922823                0.93919801
               1.93966113                6.20956895               17.05477518                0.63942779               -0.09046229               -0.09281431                0.30104827               -0.00508388                0.19623894               -0.39964963
               2.93924609                6.14386634               16.96383644                0.02149381               -0.43911454                0.02697627               -0.04160089                0.37540346                4.04195313               -1.70039801
               3.93087884                6.08526140               16.94729131                0.00010000               -1.01753165                0.48772091               -0.46797103                0.73991243                8.89612384                0.00227540
               4.91889545                6.03347751               16.95365680                0.00010000               -1.29267688                0.43039528               -0.29427206                0.99972300               10.22766631               -0.17118343
               5.90502530                5.98255959               16.96582713                0.00010000               -1.45062421                0.45113042               -0.19278939                0.86124275               10.50179289                0.05522909
               6.88988297                5.93225370               16.98000870                0.00010000               -1.53214226                0.42015564               -0.14240840                0.71811573               10.59800760                0.50153192
               7.87438245                5.88374318               16.99638282                0.00010000               -1.52452798                0.28460426               -0.11764337                0.69990779               10.74610657                1.08451990
               8.85939241                5.83866935               17.01560249                0.21037034               -0.71904429                0.03848121               -0.10865335                0.31622898                5.46168329                1.73819958
               9.86000157                5.78791294               16.92807950                0.79594430                0.13731370                0.15896704               -0.51773917                0.00444994                0.08287041                0.61518843
              10.86213868                5.73743564               16.83968235                1.00000000                0.21371158                0.29802351               -0.93962429               -0.01926808                0.04276994               -0.47095268
               1.00546736                7.27293304               17.12595766                0.99199968               -0.09761234               -0.16802173                0.51908545               -0.02507713                0.03127286                0.85325241
               2.00449123                7.20887912               17.02559553                0.56313865               -0.04569853               -0.04563616                0.14941828               -0.00473170                0.14586359               -0.48733998
               3.00455339                7.14439575               16.92748911                0.00935991               -0.52854307                0.07782203               -0.21381404                0.50851864                5.34113253               -1.89746853
               3.99392037                7.08965455               16.93102420                0.00010000               -1.23225992                0.44478195               -0.40903501                0.97076491               10.97519923               -0.69550908
               4.97990819                7.03843653               16.94678178                0.00010000               -1.52058903                0.57113269               -0.28694671                0.95683016               11.72480591               -0.21070217
               5.96350859                6.98780456               16.96758966                0.00010000               -1.71504389                0.61848477               -0.16921742                0.71318736               12.02639135                0.10953616
               6.94560731                6.93699597               16.99198970                0.00010000               -1.80952099                0.55096873               -0.07552296                0.44700291               12.24496544                0.50282223
               7.92731817                6.88672583               17.01980212                0.00010000               -1.79243595                0.33095333                0.00040550                0.30527143               12.47853532                1.01297366
               8.90975859                6.83873793               17.05129296                0.23240093               -0.86717581               -0.02214193                0.06314753                0.08918490                6.31700946                1.65052758
               9.90997466                6.78930665               16.95793276                0.75118112                0.09877753                0.11699609               -0.38035406               -0.00107280                0.05119141                0.53694219
              10.91173414                6.74027052               16.86402160                0.99279375                0.17594863                0.26666902               -0.82786277               -0.01803029                0.02884155               -0.54761268
               1.06866163                8.27148436               17.10308362                0.98439303               -0.05578488               -0.12267206                0.38190546               -0.02425686                0.01352140                0.81822868
               2.06810378                8.20865622               16.99595057                0.54220595               -0.00102993                0.00090964               -0.00075297               -0.00302114                0.06735633               -0.52003627
               3.06864103                8.14542278               16.88986566                0.00358836               -0.59252131                0.12622680               -0.38449574                0.62140109                6.44705754               -1.88890439
               4.05625336                8.09415704               16.91034060                0.00010000               -1.43794961                0.52070182               -0.41462154                1.11145765               13.05158857               -0.80244721
               5.03988204                8.04490017               16.93826667                0.00010000               -1.77618777                0.74726125               -0.27230284                0.89469529               13.42211564               -0.25612445
               6.02072960                7.99492929               16.96887812                0.00010000               -1.99901427                0.79411356               -0.13782794                0.55406914               13.59091960                0.08805423
               6.99990176                7.94327308               17.00316506                0.00010000               -2.09918374                0.73817308               -0.01041303                0.17606848               13.85366662                0.41188821
               7.97874593                7.89036225               17.04203190                0.00010000               -2.06532334                0.44648298                0.11130861               -0.17791914               14.20538560                0.84062146
               8.95859529                7.83822651               17.08611699                0.26009759               -1.01492036               -0.07540448                0.22881787               -0.20503771                7.19122359                1.50645926
               9.95844752                7.79025286               16.98703622                0.75149646                0.06275242                0.07106500               -0.24236314               -0.00704344                0.02391271                0.49617593
              10.95985034                7.74276902               16.88764886                0.98620441                0.14028181                0.23167349               -0.71656889               -0.01722630                0.01567949               -0.59636149
               1.13063849                9.27047960               17.08004033                0.97905873               -0.01460959               -0.08011011                0.24682229               -0.02342719               -0.00210728                0.68805336
               2.13049239                9.20889732               16.96612006                0.56182109                0.04210535                0.04683713               -0.14897402               -0.00106696                0.07871379               -0.45919800
               3.13148060                9.14692029               16.85379649                0.00010000               -0.69101306                0.17023218               -0.54452560                0.77949716                7.64429362               -1.33089506
               4.11667213                9.10006858               16.89122336                0.00010000               -1.72253769                0.81542556               -0.43381477                0.96328797               15.04254601               -0.47481690
               5.09702984                9.05338176               16.92954735                0.00010000               -2.02275342                0.89428337               -0.27420448                0.63216393               14.99163048               -0.16055616
               6.07621706                9.00368683               16.96921622                0.00010000               -2.16670624                0.90848695               -0.11606599                0.33187868               15.07825115                0.05027679
               7.05369572                8.95175944               17.01247452                0.00010000               -2.37053543                0.88257093                0.04294657               -0.00944350               15.38437922                0.23965811
               8.02880636                8.89565549               17.06149536                0.00010000               -2.39642466                0.76879589                0.20617048               -0.48918983               15.92366043                0.48746169
               9.00576723                8.83722984               17.11885067                0.29126358               -1.17575405               -0.10763838                0.37968193               -0.59209612                8.19046142                1.01143903
              10.00529128                8.79072795               17.01593809                0.79650608                0.02950318                0.02725665               -0.10792275               -0.01607285                0.07469631                0.42119465
              11.00635729                8.74490399               16.91081070                0.95879388                0.10660139                0.19516643               -0.60904099               -0.01728869               -0.02700505               -0.51605414
               1.19135766               10.26988216               17.05449786                0.98897070                0.02840943               -0.05974457                0.11204274                0.04299823                0.37614122                0.56556232
               2.19164176               10.20959297               16.93769912                0.81545524                0.08510225                0.06956515               -0.29100792                0.06219939                0.70307935               -0.38956092
               3.19305971               10.14882742               16.82743030                0.49328846               -1.12920535                0.19071301               -0.68083607                1.20154003                8.98072054               -0.85005326
               4.16905765               10.11046555               16.87623969                0.33379631               -2.20763188                1.03969627               -0.47729122                0.93647249               16.55426222               -0.19460549
               5.14890707               10.06278584               16.92170510                0.32638047               -2.00340777                0.94040804               -0.29993977                0.31939658               16.29118820               -0.05066563
               6.12898949               10.01309902               16.96848435                0.34639597               -2.05814218                0.94121916               -0.11266986                0.18417603               16.39414913                0.06512892
               7.10774423                9.96092450               17.01897787                0.39135621               -2.27488844                0.91650611                0.07734551                0.03680781               16.74790576                0.16911061
               8.08349173                9.90573816               17.07585448                0.48779920               -2.80316591                1.00826729                0.27441109               -0.77400068               17.44546442                0.31325562
               9.05168091                9.83607374               17.14364192                0.66122293               -1.65199073               -0.11560957                0.48628462               -1.15564036                9.37387364                0.62562346
              10.05045191                9.79079799               17.04338364                0.93081721               -0.02642119                0.00700419                0.01329081                0.04599402                0.61375479                0.35834586
              11.05115248                9.74667235               16.93583496                0.97750077                0.07005732                0.17683614               -0.50010069                0.06695544                0.26040508               -0.41193827
               0.58899622                0.32523780               18.28173450                1.00000000               -0.35825084               -0.39175498                1.37040045               -0.07152472               -0.70264940                0.74115285
               1.58541371                0.24778921               18.21650172                1.00000000               -0.29570560               -0.31305964                1.09863140               -0.05733450               -0.88410586                0.04794579
               2.58308211                0.17018272               18.14756346                1.00000000               -0.15889346               -0.23621687                0.81274102               -0.03828976               -0.82168513               -0.20406579
               3.58223584                0.09375301               18.08352605                0.62488489                0.31532555               -0.18569185                0.53762655                0.48633661                0.15458450               -0.56226063
               4.58938862                0.02951225               18.03411108                0.69124334                0.46382740               -0.06823417                0.24374964               -0.06083625                0.68793383                0.12587694
               5.59151239               -0.02590628               17.98090894                0.76327851                0.14466838                0.02213563               -0.06371018                0.00392772                0.30057512                0.07083406
               6.59228199               -0.07991063               17.92382734                0.74733278                0.05064841                0.10542130               -0.36580186                0.00921756                0.11486931               -0.04619764
               7.59252536               -0.13496864               17.86686514                0.85771300                0.05756398                0.19981466               -0.67729689                0.04162813               -0.11014821                0.05138125
               8.59343327               -0.19350625               17.80512360                1.00000000                0.18532066                0.30446985               -0.98384184                0.02847783               -0.48077174                0.41119975
               9.59623177               -0.25439756               17.74064065                1.00000000                0.34587427                0.37418311               -1.28250109               -0.04682530               -0.58678212                0.01288994
              10.60035075               -0.31553106               17.67683674                1.00000000                0.41189801                0.45488445               -1.56578004               -0.06957401               -0.55882593               -0.57803410
               0.66572956                1.32132025               18.25691161                1.00000000               -0.33616530               -0.36990983                1.24645151               -0.03179710               -0.09139504                1.00901081
               1.66236790                1.24465862               18.19126288                1.00000000               -0.30061228               -0.29040326                0.97419576               -0.01463930               -0.05487862                0.07022260
               2.65971731                1.16782056               18.12628842                0.83829961               -0.24667282               -0.21409783                0.69917329                0.02732134                0.17037604               -0.56243935
               3.65743445                1.09189610               18.06512950                0.13735849               -0.55537035               -0.17781580                0.43762125                0.69340548                1.61872278               -0.96844013
               4.64860991                1.02882991               18.02918400                0.27040492               -0.55856689                0.06243279                0.19780732               -0.05204812                2.30912239                0.91762847
               5.64626311                0.97431508               17.98197970                0.34684286               -0.08522803                0.08702976               -0.08367531                0.21436280                1.51343221                0.35501416
               6.64690534                0.92114358               17.93019555                0.24660153                0.17381691                0.03583241               -0.36522581                0.24456737                1.37976978               -0.38198121
               7.64973945                0.86702951               17.88049219                0.41874515                0.32635801                0.19618421               -0.63570301                0.31762039                1.34600448                0.58299177
               8.65343250                0.80953845               17.82837744                1.00000000                0.35182387                0.28462348               -0.90511264                0.13807552                0.68847649                0.58326977
               9.65677593                0.74934427               17.76580629                1.00000000                0.36780052                0.36172228               -1.18593228                0.00021556                0.09894235                0.08447768
              10.66078852                0.68901779               17.70199019                1.00000000                0.40125888                0.43441371               -1.46853938               -0.02474968                0.03212407               -0.68531802
               0.74168354                2.31783960               18.23736634                1.00000000               -0.30629202               -0.33397863                1.13803421               -0.02335334                0.03361620                1.29054503
               1.73862062                2.24198115               18.16642099                1.00000000               -0.26462402               -0.25252226                0.85272127                0.00255151                0.15233590                0.04740957
               2.73639106                2.16590077               18.09781954                0.48132785               -0.17630082               -0.18239011                0.56656901                0.05904587                0.73470317               -1.21906513
               3.73509460                2.09019670               18.03853452                0.00010000               -1.52311908               -0.17467663                0.28394346                0.98821483                4.22835731               -1.75768199
               4.70592868                2.03076090               18.04002691                0.00010000               -1.58043136                0.19375571                0.18182924                1.89284616                4.58408195               -1.18872950
               5.70348598                1.97583432               17.98869564                0.00010000               -0.07348854               -0.04224164               -0.09756627                1.62873816                1.57534180               -0.46602009
               6.70445891                1.92080602               17.92985403                0.00010000                0.34984606               -0.15523371               -0.36325413                1.42239904                2.88004089                0.17963869
               7.71048290                1.86895504               17.90478479                0.00010000                0.47105520               -0.10642964               -0.59642963                0.99052957                3.28134851                0.64485113
               8.71388001                1.81218622               17.85516598                0.46339763                0.31369266                0.27665592               -0.80819022                0.24349696                1.39461071                1.12852023
               9.71675675                1.75283689               17.79250050                1.00000000                0.33143629                0.34899606               -1.08372234                0.04179355                0.50529872                0.49627286
              10.72050874                1.69315722               17.72510571                1.00000000                0.37519864                0.39825215               -1.38366291               -0.01178498                0.26627651               -0.69405632
               0.81697939                3.31464067               18.21809984                1.00000000               -0.26216268               -0.31007824                1.02732778               -0.01589947                0.04285518                1.27551190
               1.81435777                3.23960817               18.14068204                1.00000000               -0.21483570               -0.22205880                0.72655878                0.00741349                0.05213580               -0.03212445
               2.81268268                3.16417275               18.06341361                0.25561453               -0.10095795               -0.14221082                0.42980154                0.01615308                0.96360216               -1.45275047
               3.81233861                3.08840256               18.00421113                0.00010000               -0.59267347               -0.11431380                0.13663304                1.05510215                4.25345779               -2.23176129
               4.80082921                3.03270502               17.99319270                0.00010000               -1.17729226                0.11898619                0.01820117                2.72632595                6.18552130               -2.84427018
               5.78879276                2.97347024               17.97336298                0.00010000               -0.92983069               -0.02533784               -0.13283129                2.29598801                5.39388971               -1.22590099
               6.78223260                2.91803891               17.94716476                0.00010000               -0.53114653               -0.10010918               -0.30310903                2.00200109                4.97882854                0.59261606
               7.77816983                2.86490091               17.91971658                0.00010000               -0.39059991               -0.16717221               -0.47933786                1.49668532                4.73958744                0.65418286
               8.77442060                2.81507157               17.88936628                0.20337553               -0.07645146                0.26384674               -0.67827977                0.59386257                2.90271530                2.08862133
               9.77664080                2.75632420               17.82596608                1.00000000                0.27457809                0.31728458               -0.94695720                0.05119866                0.62898358                0.78977186
              10.77991216                2.69698283               17.75011154                1.00000000                0.32713574                0.37542051               -1.28548993               -0.02153550                0.00669611               -0.50279862
               0.89143055                4.31163804               18.19818585                1.00000000               -0.21937444               -0.28627050                0.90802238               -0.01980916                0.04541045                1.18857244
               1.88923681                4.23753997               18.11420939                0.98217083               -0.17554122               -0.18504057                0.59563493                0.00234637                0.05055574               -0.09600106
               2.88791973                4.16305655               18.03029291                0.12404339               -0.07862159               -0.08350988                0.29212084               -0.00976066                1.12858933               -1.30474403
               3.88766438                4.08791042               17.96787159                0.00010000               -0.62661073                0.15716576               -0.06527027                0.80679015                5.47562601               -1.48247268
               4.87538752                4.03314063               17.97119833                0.00010000               -1.17962635                0.12746412               -0.12072927                1.62181853                8.25584325               -1.16213300
               5.86407185                3.97532756               17.96538773                0.00010000               -1.11596284                0.22368891               -0.17216826                1.48288202                7.53962599               -0.58918466
               6.85306826                3.91880383               17.95551549                0.00010000               -1.03439562                0.17640860               -0.25664933                1.36649551                7.21296193                0.24963114
               7.84338394                3.86561160               17.94430914                0.00010000               -0.93671395                0.14996055               -0.36518356                1.31389301                7.20642158                1.18451695
               8.83433398                3.81746316               17.93542930                0.18388705               -0.37572377                0.18901166               -0.48890072                0.60676260                3.87664950                2.39767288
               9.83586946                3.75918258               17.85862524                1.00000000                0.22133894                0.25461931               -0.79974610                0.03022802                0.24447760                0.71869958
              10.83876076                3.70066563               17.77698434                1.00000000                0.28912952                0.35447181               -1.16037635               -0.01950516                0.00533692               -0.39887385
               0.96477934                5.30891527               18.17711745                1.00000000               -0.17931580               -0.25183355                0.78028179               -0.02400018                0.10810773                1.06821844
               1.96298618                5.23590736               18.08717074                0.77034528               -0.13311596               -0.13961362                0.44824001               -0.00284693                0.19306684               -0.24192866
               2.96211702                5.16250256               17.99888058                0.05864692               -0.22979221               -0.02848957                0.12725662                0.14525561                2.18172571               -1.42301515
               3.95839033                5.09154588               17.94869611                0.00010000               -0.81342865                0.44823521               -0.43108664                0.59436371                7.10032789               -0.04843032
               4.94584844                5.03525430               17.95838440                0.00010000               -1.28015672                0.29452621               -0.23779596                1.24006161                9.75082288               -0.45385244
               5.93278720                4.97794402               17.96298543                0.00010000               -1.32849893                0.32884184               -0.19695966                1.05187431                9.34385315               -0.14484046
               6.91927847                4.92156708               17.96624423                0.00010000               -1.34994167                0.32860266               -0.20664831                0.97301113                9.21876452                0.44940718
               7.90578837                4.86790012               17.96997816                0.00010000               -1.31467981                0.25337165               -0.24597416                0.99977179                9.28699782                1.21308195
               8.89298487                4.81885180               17.97607839                0.19157246               -0.58727363                0.10313665               -0.29990776                0.47239897                4.77004278                2.00517352
               9.89404289                4.76141658               17.89072774                0.86852553                0.17855477                0.20266369               -0.66123481                0.01238028                0.12762950                0.69199853
              10.89655597                4.70407227               17.80394282                1.00000000                0.25130712                0.32910461               -1.04630913               -0.01879700                0.05874594               -0.42260207
               1.03696636                6.30660136               18.15472303                1.00000000               -0.13737782               -0.20874053                0.64538992               -0.02487608                0.06972691                0.94491613
               2.03559258                6.23474770               18.05776235                0.63299816               -0.08900168               -0.09231389                0.29652942               -0.00347511                0.20319361               -0.42344013
               3.03518632                6.16248676               17.96342912                0.02865377               -0.43963376                0.02368400               -0.03964482                0.35538682                3.99693019               -1.75729117
               4.02679990                6.09687513               17.94232888                0.00010000               -1.06978606                0.50210144               -0.51466826                0.70671165                9.13702217                0.10867457
               5.01379060                6.03903115               17.95065223                0.00010000               -1.40016708                0.45195280               -0.30406819                1.00266360               10.75205548               -0.14330152
               5.99879656                5.98190440               17.96387117                0.00010000               -1.56091123                0.47682442               -0.19849066                0.83876979               10.96272105                0.09196842
               6.98257238                5.92537588               17.97856039                0.00010000               -1.63509570                0.44116100               -0.14810145                0.67787848               11.02998647                0.55852306
               7.96609465                5.87067903               17.99516374                0.00010000               -1.61534387                0.29575463               -0.12740773                0.64948436               11.16845264                1.16507588
               8.95026550                5.81952589               18.01444282                0.20801883               -0.75990215                0.03783767               -0.12481655                0.28361442                5.68015215                1.83951738
               9.95089661                5.76323585               17.92282765                0.78031546                0.14039748                0.16384998               -0.53403090                0.00210936                0.08851521                0.65177814
              10.95307345                5.70724772               17.83021469                1.00000000                0.21768448                0.30514375               -0.95505670               -0.01773094                0.04310645               -0.49273003
               1.10798914                7.30474045               18.13109575                0.99149164               -0.09578628               -0.16334851                0.50846979               -0.02427217                0.03115349                0.85742045
               2.10703128                7.23406108               18.02707548                0.55837284               -0.04459079               -0.04542794                0.14638194               -0.00300474                0.14908654               -0.50919426
               3.10709733                7.16297624               17.92537633                0.01473818               -0.55255527                0.07354714               -0.20931306                0.50845694                5.41579004               -1.95346298
               4.09598018                7.10158791               17.92668456                0.00010000               -1.31124403                0.47850695               -0.45808020                0.95499082               11.31853502               -0.57767705
               5.08087245                7.04429336               17.94381147                0.00010000               -1.63811559                0.60898947               -0.30598410                0.95107301               12.25066823               -0.14504935
               6.06321786                6.98748051               17.96585583                0.00010000               -1.84055244                0.65902970               -0.17764234                0.68241894               12.54184578                0.15931336
               7.04406140                6.93039030               17.99119885                0.00010000               -1.92949079                0.58500409               -0.08354128                0.39279089               12.74878458                0.55920329
               8.02462805                6.87381522               18.01974933                0.00010000               -1.89805310                0.35075686               -0.01223332                0.23756429               12.97850237                1.08614598
               9.00610034                6.81960856               18.05182366                0.23020391               -0.91323976               -0.01944332                0.04177752                0.04933315                6.57147807                1.74548885
              10.00636325                6.76469358               17.95402681                0.73701715                0.10386407                0.12358601               -0.40152904               -0.00181533                0.05372704                0.57555297
              11.00817762                6.71017514               17.85564084                0.99282363                0.18143651                0.27640281               -0.84897903               -0.01700634                0.03030447               -0.56204353
               1.17783966                8.30333439               18.10685527                0.98412939               -0.05429535               -0.11891397                0.37230495               -0.02355495                0.01310337                0.82357596
               2.17729670                8.23383914               17.99593928                0.53852155               -0.00055088                0.00088563               -0.00194069               -0.00172432                0.06665835               -0.53956152
               3.17782864                8.16395770               17.88606292                0.00678623               -0.63570529                0.12183332               -0.37703228                0.64279293                6.61164251               -1.93714182
               4.16458260                8.10644527               17.90605586                0.00010000               -1.54545899                0.55934937               -0.44336227                1.12873758               13.50033794               -0.72167799
               5.14691946                8.05121094               17.93546917                0.00010000               -1.91172968                0.79959599               -0.28745530                0.89505371               13.97805102               -0.19509225
               6.12634800                7.99508499               17.96745624                0.00010000               -2.14129849                0.84840064               -0.14712827                0.52289924               14.15162383                0.13372231
               7.10409349                7.93707597               18.00301631                0.00010000               -2.23601641                0.78806005               -0.02039432                0.11521191               14.42086485                0.45765007
               8.08162768                7.87769417               18.04307244                0.00010000               -2.18598451                0.47798504                0.09542750               -0.26391090               14.78060716                0.89952319
               9.06037380                7.81913702               18.08827981                0.25791744               -1.06669804               -0.06990689                0.20237167               -0.25681374                7.48549044                1.59123202
              10.06029372                7.76570757               17.98448726                0.73681321                0.06982029                0.07848684               -0.26826301               -0.00809550                0.02582164                0.53295154
              11.06177021                7.71277578               17.88035452                0.98656992                0.14764907                0.24204460               -0.74265869               -0.01599173                0.01646971               -0.61295687
               1.24650855                9.30236217               18.08246747                0.97898162               -0.01350646               -0.07722466                0.23840731               -0.02289776               -0.00330875                0.69475749
               2.24637349                9.23407880               17.96463791                0.55809286                0.04192561                0.04647684               -0.14814082               -0.00035455                0.07804794               -0.47424060
               3.24734706                9.16541290               17.84841076                0.00010000               -0.75358986                0.16624210               -0.53395821                0.82505279                7.88997844               -1.36113810
               4.23130169                9.11277489               17.88684462                0.00010000               -1.86066327                0.87086890               -0.44302113                0.99794070               15.58415388               -0.41840821
               5.21013380                9.06028528               17.92676617                0.00010000               -2.17454324                0.95519382               -0.28292280                0.63872038               15.58325607               -0.12613897
               6.18781082                9.00444852               17.96801737                0.00010000               -2.31886705                0.97142789               -0.12469858                0.31147111               15.68767604                0.07624781
               7.16375646                8.94615150               18.01285180                0.00010000               -2.52610258                0.94562656                0.03126582               -0.05670599               16.01195162                0.26461547
               8.13728877                8.88337492               18.06346964                0.00010000               -2.54028997                0.82747648                0.18727527               -0.56957456               16.57283420                0.52134924
               9.11295066                8.81821042               18.12249637                0.28877342               -1.23630903               -0.09823736                0.34782398               -0.65985684                8.53052984                1.06702220
              10.11256259                8.76626332               18.01470698                0.77873496                0.03853627                0.03642810               -0.13931889               -0.01790022                0.08124837                0.44926773
              11.11372138                8.71501603               17.90456320                0.96070290                0.11587908                0.20597184               -0.64075929               -0.01601435               -0.02697112               -0.53427648
               1.31394846               10.30178990               18.05558455                0.98898469                0.02904252               -0.05722734                0.10492795                0.04186860                0.37963202                0.57263191
               2.31423888               10.23476868               17.93480682                0.81401416                0.08425685                0.06898826               -0.28837625                0.06117206                0.71356655               -0.40107672
               3.31563360               10.16728255               17.82069104                0.49267445               -1.22849251                0.18696427               -0.66858228                1.28335162                9.28962970               -0.86786491
               4.28966903               10.12386264               17.87147370                0.33436834               -2.38066791                1.10877489               -0.47704049                0.98834823               17.17678583               -0.16213820
               5.26802024               10.07031482               17.91868337                0.32660139               -2.14789139                1.00295387               -0.30554742                0.32118928               16.93166276               -0.03653159
               6.24671121               10.01451355               17.96732142                0.34623161               -2.19936314                1.00650238               -0.12111852                0.17372226               17.06028502                0.07510627
               7.22403298                9.95598850               18.01969033                0.39085013               -2.42669711                0.98369990                0.06382274                0.01415950               17.43398886                0.17884351
               8.19817726                9.89424370               18.07849383                0.48867221               -2.98723565                1.08687816                0.25214583               -0.85196183               18.15482879                0.32819923
               9.16428826                9.81717228               18.14832247                0.66023542               -1.75235840               -0.10381419                0.44822737               -1.25661763                9.76650897                0.65975316
              10.16313010                9.76643614               18.04333214                0.92062700               -0.01718862                0.01728179               -0.02460824                0.04289723                0.64804615                0.38006899
              11.16394449                9.71689521               17.93064164                0.97778003                0.08143936                0.18791790               -0.53870555                0.06821829                0.27455928               -0.42971628
               0.64844847                0.35820515               19.29536891                1.00000000               -0.35464463               -0.38806824                1.35707887               -0.06998006               -0.72570557                0.76399536
               1.64490202                0.27414400               19.22743732                1.00000000               -0.29266153               -0.31094800                1.08938394               -0.05460631               -0.91562988                0.05085140
               2.64259524                0.18995965               19.15565451                1.00000000               -0.15771109               -0.23426237                0.80535823               -0.03531981               -0.85818766               -0.21125651
               3.64174780                0.10697044               19.08885955                0.62453310                0.31022964               -0.17738860                0.52994263                0.47576539                0.11377128               -0.57588111
               4.64879983                0.03598568               19.03652273                0.69371646                0.45761826               -0.06605942                0.23914201               -0.07022333                0.63575762                0.13542817
               5.65090017               -0.02614080               18.98027022                0.76671132                0.14487545                0.02400956               -0.06354263                0.00097213                0.24630202                0.07695478
               6.65169734               -0.08676715               18.92019996                0.74977468                0.05617818                0.10506603               -0.35945467                0.00880234                0.05890517               -0.05038442
               7.65202373               -0.14826594               18.86015175                0.85960348                0.06459977                0.19820045               -0.66543984                0.03793416               -0.16861993                0.05670509
               8.65298934               -0.21298801               18.79536633                1.00000000                0.18687908                0.29978564               -0.96770386                0.02457988               -0.53291600                0.42215939
               9.65576131               -0.27992693               18.72791414                1.00000000                0.34158824                0.36930135               -1.26284687               -0.04566143               -0.62701993                0.01121853
              10.65982110               -0.34710993               18.66129586                1.00000000                0.40597893                0.44950789               -1.54250444               -0.06699222               -0.59113601               -0.60942244
               0.73180982                1.35432447               19.26931639                1.00000000               -0.33311063               -0.36662499                1.23464961               -0.03105220               -0.09452367                1.03873204
               1.72847871                1.27103452               19.20096704                1.00000000               -0.29904975               -0.28846801                0.96667747               -0.01224180               -0.05856873                0.07470719
               2.72582882                1.18761702               19.13327239                0.82416585               -0.24931351               -0.21321056                0.69969922                0.03396955                0.17443296               -0.58174865
               3.72349244                1.10519655               19.06956465                0.14462547               -0.55878019               -0.16450489                0.44535555                0.67733653                1.63668698               -1.01589212
               4.71465322                1.03532508               19.03115985                0.28180872               -0.56030696                0.05913913                0.19422360               -0.08182830                2.31900658                0.93724510
               5.71228630                0.97409929               18.98113756                0.36026464               -0.09026417                0.08784569               -0.08586869                0.19782905                1.50899575                0.36220315
               6.71284794                0.91428351               18.92655380                0.25795754                0.16136005                0.04285032               -0.36385338                0.23509669                1.38349837               -0.38536424
               7.71551350                0.85371606               18.87416602                0.42876760                0.31088457                0.19410129               -0.63016585                0.29544422                1.35659079                0.58687903
               8.71906563                0.79000984               18.81937119                1.00000000                0.34260782                0.28135343               -0.89656025                0.12926211                0.69398839                0.60318706
               9.72236566                0.72376609               18.75400859                1.00000000                0.36342808                0.35757444               -1.17401547                0.00057782                0.09833652                0.08555679
              10.72633419                0.65738514               18.68738480                1.00000000                0.39685291                0.43104942               -1.45298219               -0.02277181                0.03105460               -0.72279429
               0.81440732                2.35087265               19.24869326                1.00000000               -0.30426871               -0.33126601                1.12693882               -0.02276062                0.03748933                1.32491686
               1.81136463                2.26837464               19.17492518                1.00000000               -0.26473593               -0.25068536                0.84718002                0.00447933                0.15592896                0.04944428
               2.80911260                2.18569544               19.10344673                0.48443147               -0.18890783               -0.18314919                0.56715002                0.07725931                0.74264898               -1.24972589
               3.80758647                2.10368034               19.04138898                0.00010000               -1.54260373               -0.14350149                0.30831846                0.95485397                4.32916799               -1.83973975
               4.77826053                2.03716846               19.04177521                0.00010000               -1.58440766                0.18159297                0.16084395                1.84129730                4.70579124               -1.21900812
               5.77589832                1.97561611               18.98767469                0.00010000               -0.07390085               -0.05341124               -0.10688533                1.59873384                1.61622493               -0.46420970
               6.77678251                1.91408986               18.92621543                0.00010000                0.31539798               -0.15752457               -0.36556388                1.38169403                2.94179572                0.20634016
               7.78220628                1.85561608               18.89881576                0.00010000                0.43710226               -0.10986452               -0.59825474                0.95814544                3.36989985                0.68892040
               8.78552455                1.79263906               18.84708994                0.47194939                0.30956443                0.27386854               -0.80778338                0.22805116                1.46155313                1.17440317
               9.78839757                1.72722456               18.78168691                1.00000000                0.33014999                0.34434336               -1.07966352                0.03810867                0.52883384                0.51716612
              10.79212755                1.66151105               18.71131169                1.00000000                0.37299835                0.39914887               -1.37580472               -0.01113862                0.27825133               -0.73105786
               0.89635062                3.34769915               19.22832413                1.00000000               -0.26051114               -0.30740688                1.01686094               -0.01514490                0.04722733                1.30234924
               1.89374551                3.26602081               19.14792260                1.00000000               -0.21411565               -0.22043295                0.72185619                0.00894939                0.05887621               -0.03594159
               2.89206831                3.18395404               19.06770578                0.26552190               -0.13145065               -0.14340211                0.42810278                0.05837842                0.97179439               -1.48044790
               3.89111650                3.10232652               19.00557499                0.00010000               -0.62624580               -0.09989004                0.14158101                1.04036592                4.32579677               -2.29693543
               4.87954339                3.03895694               18.99336600                0.00010000               -1.18884579                0.10278577                0.00948394                2.66013947                6.35222533               -2.93211283
               5.86733958                2.97303107               18.97200939                0.00010000               -0.95307740               -0.04188539               -0.13923282                2.26265399                5.55344715               -1.22738788
               6.86048185                2.91113302               18.94411870                0.00010000               -0.56061857               -0.11621461               -0.30683867                1.95859519                5.13225260                0.64746205
               7.85612721                2.85151877               18.91490946                0.00010000               -0.42318379               -0.17248229               -0.48313171                1.47073505                4.88184100                0.73951734
               8.85201817                2.79548722               18.88255299                0.20393865               -0.09356876                0.25491679               -0.68529853                0.56797553                3.00596120                2.18103114
               9.85425584                2.73065296               18.81648223                1.00000000                0.27601324                0.31319847               -0.95118561                0.04199433                0.66463453                0.83124273
              10.85753844                2.66536812               18.73725855                1.00000000                0.32825987                0.38067752               -1.28632457               -0.01974243                0.00859800               -0.51931652
               0.97746109                4.34472451               19.20721491                1.00000000               -0.21723608               -0.28315820                0.89741869               -0.01919269                0.05367708                1.20578042
               1.97528873                4.26396598               19.12014722                0.96903397               -0.17433134               -0.18384666                0.59152952                0.00350147                0.06362696               -0.10981987
               2.97397446                4.18282739               19.03323370                0.13128915               -0.09489171               -0.08471615                0.29526889                0.02475824                1.12509278               -1.34607231
               3.97339089                4.10168254               18.96739065                0.00010000               -0.66078459                0.10738588               -0.02789357                0.82581611                5.57159522               -1.63935693
               4.96075877                4.03922417               18.97001519                0.00010000               -1.22077833                0.11703657               -0.11952067                1.57457658                8.51610084               -1.23164253
               5.94897532                3.97477840               18.96365333                0.00010000               -1.16460288                0.21853159               -0.17492881                1.46394818                7.80424761               -0.58692006
               6.93746671                3.91176556               18.95293280                0.00010000               -1.08542699                0.17015414               -0.26076909                1.33586661                7.46056510                0.30125677
               7.92726679                3.85216644               18.94062834                0.00010000               -0.98584152                0.14610049               -0.37199334                1.27430354                7.44212549                1.27120901
               8.91774988                3.79773739               18.93048197                0.18201441               -0.39551177                0.17855215               -0.50207373                0.57794824                4.01965624                2.51940911
               9.91935655                3.73348853               18.85055888                0.98591059                0.22762457                0.25559569               -0.81909628                0.02357423                0.27427224                0.76584986
              10.92230237                3.66912460               18.76535044                1.00000000                0.29458216                0.36297693               -1.17417883               -0.01783125                0.01600069               -0.40575768
               1.05748383                5.34203598               19.18486614                1.00000000               -0.17711703               -0.24798481                0.76912228               -0.02370272                0.11128451                1.07732089
               2.05571266                5.26234388               19.09163010                0.76159352               -0.13184559               -0.13852846                0.44367887               -0.00230412                0.20204718               -0.26570587
               3.05484692                5.18225972               19.00016210                0.06636436               -0.22383091               -0.03013167                0.12944888                0.13870306                2.09082202               -1.47896609
               4.05123604                5.10447424               18.94469537                0.00010000               -0.84539280                0.38819462               -0.37560826                0.60216171                7.25655850               -0.18917659
               5.03793906                5.04129767               18.95599596                0.00010000               -1.35794415                0.29801157               -0.23710973                1.22814806               10.19875502               -0.48664301
               6.02407716                4.97740170               18.96100307                0.00010000               -1.40639578                0.33750773               -0.19947095                1.03173309                9.71380418               -0.12646744
               7.00981115                4.91453610               18.96415506                0.00010000               -1.42178520                0.33519891               -0.21186181                0.93812456                9.55965072                0.50539677
               7.99564145                4.85444078               18.96747641                0.00010000               -1.37780530                0.25535430               -0.25557931                0.95622249                9.61659377                1.30138973
               8.98225504                4.79905826               18.97300235                0.18924681               -0.61506720                0.09885178               -0.31668649                0.44528790                4.95181027                2.12157448
               9.98334011                4.73576487               18.88406806                0.85137019                0.18273134                0.20804482               -0.67849085                0.01064254                0.14733652                0.73397628
              10.98590967                4.67262766               18.79341611                1.00000000                0.25695570                0.33792114               -1.06747872               -0.01750320                0.06809053               -0.44117889
               1.13637124                6.33976482               19.16112105                1.00000000               -0.13523275               -0.20433847                0.63404977               -0.02458319                0.07008253                0.94909946
               2.13501891                6.26119541               19.06070577                0.62686061               -0.08765375               -0.09127890                0.29208548               -0.00301646                0.20993391               -0.44743189
               3.13461816                6.18222476               18.96304354                0.03541945               -0.43113696                0.02164883               -0.03748957                0.33321014                3.92874999               -1.81307717
               4.12639617                6.10944643               18.93699795                0.00010000               -1.11119466                0.49498885               -0.54334683                0.67897659                9.36167236                0.16113103
               5.11239427                6.04518441               18.94757544                0.00010000               -1.50123055                0.47104630               -0.30972535                0.99466778               11.28465798               -0.12003589
               6.09637156                5.98152856               18.96185731                0.00010000               -1.66020733                0.50020306               -0.20381146                0.80830547               11.41831190                0.13041617
               7.07919012                5.91846954               18.97704667                0.00010000               -1.72512404                0.45940071               -0.15530761                0.63116575               11.45487239                0.61898861
               8.06186908                5.85727352               18.99383466                0.00010000               -1.69292858                0.30496370               -0.13963120                0.59334207               11.58226482                1.24959361
               9.04533155                5.79971443               19.01310616                0.20578430               -0.79345397                0.03762256               -0.14462389                0.25157694                5.89433216                1.94511650
              10.04600000                5.73764943               18.91739888                0.76491507                0.14475872                0.16966158               -0.55313858                0.00302549                0.09479790                0.69009863
              11.04822672                5.67588303               18.82058121                1.00000000                0.22267259                0.31310784               -0.97286022               -0.01651454                0.04485923               -0.51181341
               1.21413097                7.33794921               19.13612705                0.99096848               -0.09385866               -0.15903300                0.49759377               -0.02386903                0.03102002                0.86081125
               2.21319238                7.26051830               19.02852317                0.55385114               -0.04354351               -0.04464240                0.14297785               -0.00230638                0.15219370               -0.53051764
               3.21326010                7.18269269               18.92330285                0.01994581               -0.56682286                0.07103763               -0.20569130                0.49974270                5.46045444               -2.00731608
               4.20185593                7.11437402               18.92186259                0.00010000               -1.37549053                0.50584925               -0.50284701                0.92417993               11.64191610               -0.45387937
               5.18575029                7.05071860               18.94066210                0.00010000               -1.74488978                0.64296116               -0.32183351                0.93400839               12.78715771               -0.08104947
               6.16695813                6.98740576               18.96403682                0.00010000               -1.95303968                0.69568143               -0.18595895                0.64244478               13.05465122                0.21071747
               7.14668950                6.92372412               18.99031887                0.00010000               -2.03473616                0.61517920               -0.09319997                0.33235089               13.24496382                0.61830697
               8.12626341                6.86054005               19.01955745                0.00010000               -1.98894120                0.36794379               -0.02747324                0.16560433               13.46882866                1.16251535
               9.10691067                6.79981071               19.05212851                0.22813911               -0.95156938               -0.01679914                0.01777326                0.00883901                6.82146982                1.84289122
              10.10723202                6.73915810               18.94990218                0.72282125                0.11007534                0.12911473               -0.42428471               -0.00158236                0.05653957                0.61692795
              11.10911218                6.67888982               18.84704202                0.99286107                0.18801588                0.28522475               -0.87120511               -0.01590464                0.03177157               -0.57406914
               1.29075568                8.33658416               19.11052972                0.98385444               -0.05263762               -0.11518717                0.36232385               -0.02313524                0.01275029                0.82846219
               2.29022930                8.26030256               18.99591176                0.53515904                0.00008121                0.00133335               -0.00394329               -0.00104782                0.06606954               -0.55826162
               3.29075730                8.18364551               18.88232502                0.00999589               -0.66877189                0.11883582               -0.37124222                0.65371008                6.75403211               -1.98285956
               4.27685386                8.11956342               18.90147336                0.00010000               -1.63573052                0.59542820               -0.47186442                1.12709934               13.92897265               -0.62117180
               5.25804269                8.05804363               18.93251756                0.00010000               -2.03194623                0.84630925               -0.30210579                0.88253484               14.53515965               -0.12863889
               6.23621494                7.99544219               18.96593556                0.00010000               -2.26699220                0.89704239               -0.15715804                0.48281576               14.70728628                0.18123487
               7.21270285                7.93077313               19.00275717                0.00010000               -2.35601839                0.83268065               -0.03235912                0.04915964               14.97936365                0.50541896
               8.18909457                7.86463240               19.04394045                0.00010000               -2.29062810                0.50605153                0.07678313               -0.35198058               15.34477492                0.96100346
               9.16689028                7.79937845               19.09016442                0.25583482               -1.11026634               -0.06415409                0.17301206               -0.30854299                7.77467021                1.67787779
              10.16688924                7.74023172               18.98167096                0.72204338                0.07774568                0.08551577               -0.29586085               -0.00867673                0.02822815                0.57163203
              11.16844520                7.68158752               18.87279569                0.98690838                0.15559548                0.25207603               -0.76930644               -0.01475805                0.01735162               -0.62753118
               1.36623145                9.33564547               19.08480847                0.97890150               -0.01213774               -0.07417630                0.22943414               -0.02254490               -0.00435553                0.70112162
               2.36611007                9.26054497               18.96315725                0.55480703                0.04210014                0.04655228               -0.14857663                0.00006222                0.07771891               -0.48850697
               3.36707345                9.18506941               18.84311732                0.00010000               -0.80551361                0.16320211               -0.52569440                0.85828626                8.12170558               -1.38954391
               4.34999980                9.12628258               18.88236294                0.00010000               -1.97756169                0.92006009               -0.45321789                1.01612756               16.10732661               -0.34800746
               5.32752222                9.06764478               18.92388889                0.00010000               -2.30574238                1.00885904               -0.29265841                0.63569761               16.16667048               -0.08736487
               6.30388495                9.00534661               18.96672225                0.00010000               -2.45198692                1.02754366               -0.13494227                0.28531185               16.28822077                0.10359929
               7.27848248                8.94037773               19.01309983                0.00010000               -2.66332366                1.00255948                0.01724864               -0.10683924               16.62896783                0.29060872
               8.25061848                8.87066109               19.06524087                0.00010000               -2.66709951                0.88106861                0.16561268               -0.64942537               17.20905324                0.55717853
               9.22514049                8.79852763               19.12580715                0.28631723               -1.28845338               -0.08809201                0.31259769               -0.72550883                8.86436344                1.12399126
              10.22484941                8.74086842               19.01315171                0.76077328                0.04824667                0.04586589               -0.17272742               -0.01959369                0.08843253                0.47836921
              11.22610542                8.68393134               18.89799552                0.96246495                0.12560119                0.21668094               -0.67288259               -0.01473419               -0.02669424               -0.55166302
               1.44050578               10.33510063               19.05659642                0.98900320                0.03008255               -0.05448404                0.09692810                0.04073131                0.38321122                0.57945459
               2.44080660               10.26123361               18.93193160                0.81281788                0.08398178                0.06886408               -0.28745587                0.06009980                0.72403960               -0.41198741
               3.44218541               10.18690956               18.81405865                0.49220671               -1.31027825                0.18401453               -0.65900853                1.34774692                9.58796759               -0.88470599
               4.41460104               10.13796462               18.86669888                0.33490453               -2.52464005                1.16820379               -0.47848112                1.02568695               17.78163460               -0.12144420
               5.39169261               10.07822081               18.91559415                0.32681467               -2.27064044                1.05760260               -0.31286684                0.31846186               17.55893847               -0.02035615
               6.36918823               10.01599306               18.96606198                0.34606187               -2.32205139                1.06464508               -0.13164826                0.16050334               17.71437175                0.08537991
               7.34525159                9.95082432               19.02025432                0.39031095               -2.56160337                1.04465870                0.04780687               -0.01005367               18.10677833                0.18856950
               8.31795616                9.88225377               19.08089740                0.48970028               -3.15394043                1.15926855                0.22737785               -0.92661683               18.84793031                0.34368220
               9.28217278                9.79761661               19.15260647                0.65926248               -1.84312521               -0.09110223                0.40691880               -1.35200750               10.15152223                0.69501950
              10.28109366                9.74114904               19.04289147                0.91031414               -0.00740535                0.02806255               -0.06444435                0.03965179                0.68288506                0.40236478
              11.28202467                9.68592114               18.92506085                0.97807085                0.09310112                0.19898030               -0.57735896                0.06913488                0.28887657               -0.44737446
               0.71034529                0.39262274               20.30887608                1.00000000               -0.35297753               -0.38522047                1.34568336               -0.06834630               -0.74826416                0.78582322
               1.70681551                0.30174679               20.23828940                1.00000000               -0.29245811               -0.30818926                1.08172848               -0.05254390               -0.94871308                0.05296892
               2.70449612                0.21072183               20.16367062                1.00000000               -0.15862306               -0.23284620                0.80055257               -0.03485530               -0.89863839               -0.21204117
               3.70364305                0.12082520               20.09412490                0.62522355                0.30984888               -0.17763693                0.53059694                0.47500654                0.06973006               -0.58604058
               4.71069310                0.04294659               20.03889392                0.69603834                0.45590762               -0.06242515                0.23584295               -0.07394916                0.58673675                0.14210887
               5.71276120               -0.02610185               19.97963809                0.76959943                0.14427307                0.02565245               -0.06180232                0.00015794                0.19522334                0.08323643
               6.71357856               -0.09362599               19.91663824                0.75168221                0.06126977                0.10468202               -0.35255884                0.00876779                0.00565143               -0.05444073
               7.71398660               -0.16186307               19.85355635                0.86108539                0.07169979                0.19661488               -0.65366166                0.03438872               -0.22559238                0.06248915
               8.71501256               -0.23307278               19.78576952                1.00000000                0.18876244                0.29513575               -0.95187041                0.02076446               -0.58464711                0.43326575
               9.71776185               -0.30636207               19.71538371                1.00000000                0.33760230                0.36447130               -1.24352248               -0.04451132               -0.66720350                0.00980751
              10.72176460               -0.37989740               19.64598665                1.00000000                0.40027588                0.44434694               -1.51976781               -0.06427589               -0.62328037               -0.64020365
               0.80053777                1.38877053               20.28160460                1.00000000               -0.32972468               -0.36462695                1.22349062               -0.02935407               -0.09833278                1.06697581
               1.79724053                1.29866490               20.21059643                1.00000000               -0.29647027               -0.28661523                0.95971908               -0.01034717               -0.06075921                0.07888012
               2.79460837                1.20839337               20.14028241                0.82770089               -0.24798945               -0.21244849                0.69731538                0.03340254                0.17938367               -0.59625481
               3.79228074                1.11904883               20.07403661                0.15498498               -0.55956179               -0.17168182                0.43471198                0.68176998                1.65133581               -1.05043356
               4.78341713                1.04232233               20.03306848                0.29281855               -0.56158328                0.06140024                0.18502705               -0.09142281                2.32216327                0.94594984
               5.78104907                0.97415468               19.98026232                0.37318292               -0.09351404                0.08900664               -0.09029164                0.18537692                1.50395555                0.36830820
               6.78154685                0.90742083               19.92291849                0.26880430                0.15024026                0.04969557               -0.36359415                0.22617956                1.38699273               -0.38768541
               7.78405388                0.84010308               19.86788887                0.43834432                0.29614273                0.19265393               -0.62575141                0.27387702                1.36672888                0.59076777
               8.78746970                0.76987858               19.81044623                1.00000000                0.33375828                0.27826295               -0.88881732                0.12034615                0.69894938                0.62304683
               9.79072904                0.69728264               19.74232598                1.00000000                0.35937338                0.35343194               -1.16300246                0.00086651                0.09738297                0.08706023
              10.79465717                0.62454607               19.67293055                1.00000000                0.39281304                0.42798562               -1.43852298               -0.02067662                0.02976750               -0.75937638
               0.88996948                2.38533020               20.25990512                1.00000000               -0.29837467               -0.33022619                1.11537142               -0.02210990                0.04049684                1.35803636
               1.88698573                2.29601448               20.18336459                1.00000000               -0.25946178               -0.24987974                0.83968438                0.00278855                0.16295001                0.05249239
               2.88478024                2.20647286               20.10916254                0.48118722               -0.18181253               -0.18082715                0.57738913                0.06174393                0.77148290               -1.28388271
               3.88334948                2.11739156               20.04470089                0.00010000               -1.55107249               -0.12933208                0.33660899                0.93076628                4.42546111               -1.94319839
               4.85375879                2.04417459               20.04324378                0.00010000               -1.59896169                0.17502216                0.13288031                1.81544573                4.79725190               -1.25094037
               5.85137025                1.97567829               19.98655794                0.00010000               -0.08025226               -0.06054145               -0.11725606                1.56266288                1.66235376               -0.46094807
               6.85215375                1.90736792               19.92254276                0.00010000                0.28180680               -0.15750255               -0.36823325                1.33712297                3.00110236                0.23632411
               7.85700638                1.84199001               19.89281970                0.00010000                0.40430858               -0.11122000               -0.60250194                0.92215235                3.45578860                0.73506173
               8.86023992                1.77249248               19.83901032                0.48043849                0.30526491                0.27107938               -0.80865571                0.21069524                1.52746092                1.22026313
               9.86311168                1.70070657               19.77090723                1.00000000                0.32921460                0.33972189               -1.07697127                0.03343668                0.55203177                0.53849617
              10.86682421                1.62866232               19.69758961                1.00000000                0.37125300                0.40058387               -1.36945079               -0.01070972                0.28968879               -0.76739425
               0.97872700                3.38216601               20.23843706                1.00000000               -0.25733694               -0.30592842                1.00523581               -0.01637131                0.05227181                1.32842057
               1.97615364                3.29366730               20.15511916                1.00000000               -0.21304175               -0.21892045                0.71688061                0.00578225                0.06459514               -0.03900386
               2.97446617                3.20477683               20.07197567                0.27016319               -0.14796521               -0.13970349                0.42727704                0.05964001                0.98379804               -1.51175324
               3.97319433                3.11646218               20.00704275                0.00010000               -0.65134254               -0.06943246                0.15623167                1.00056285                4.47366677               -2.46703716
               4.96143932                3.04582278               19.99338238                0.00010000               -1.20426647                0.08516111                0.00451796                2.60848625                6.53578032               -3.00182433
               5.94910900                2.97294385               19.97057832                0.00010000               -0.97308681               -0.05414029               -0.14546295                2.21584709                5.71921033               -1.22231091
               6.94197758                2.90427078               19.94102798                0.00010000               -0.58683211               -0.12876550               -0.31162691                1.90428168                5.28363337                0.70672032
               7.93737236                2.83787868               19.91005395                0.00010000               -0.45052652               -0.17605942               -0.48854479                1.43501462                5.01866774                0.82919092
               8.93296705                2.77530017               19.87566031                0.20446281               -0.10722096                0.24547510               -0.69382018                0.53775192                3.10529022                2.27427691
               9.93522794                2.70407708               19.80694237                1.00000000                0.27822157                0.31035884               -0.95827021                0.03161705                0.69983089                0.86935601
              10.93853148                2.63255775               19.72438504                1.00000000                0.33035435                0.38652984               -1.28994677               -0.01826057                0.01013745               -0.54016324
               1.06663947                4.37921163               20.21613423                1.00000000               -0.21489078               -0.28052337                0.88609962               -0.02004996                0.06233363                1.22178795
               2.06449056                4.29163608               20.12603998                0.95743466               -0.17306549               -0.18163036                0.58638776                0.00223445                0.07753185               -0.12416109
               3.06317816                4.20367879               20.03619829                0.13897939               -0.10878881               -0.08317170                0.29650263                0.03844263                1.13813810               -1.38508607
               4.06231479                4.11600291               19.96731372                0.00010000               -0.68656524                0.08464324               -0.01484086                0.83461672                5.70621488               -1.87141551
               5.04944686                4.04587781               19.96880791                0.00010000               -1.25377968                0.10692093               -0.11586495                1.53345464                8.76467500               -1.28488618
               6.03723919                3.97459548               19.96188915                0.00010000               -1.20711534                0.21334187               -0.17699767                1.43549886                8.06814357               -0.57674445
               7.02530455                3.90479261               19.95030011                0.00010000               -1.12809540                0.16451854               -0.26595742                1.29469484                7.70319394                0.35795855
               8.01467728                3.83846882               19.93686927                0.00010000               -1.02539942                0.14214559               -0.38086350                1.22549839                7.67070817                1.36165745
               9.00479656                3.77740198               19.92538783                0.18009439               -0.40954222                0.16794691               -0.51946192                0.54536494                4.15492481                2.64457791
              10.00648644                3.70691375               19.84224331                0.96821968                0.23505511                0.25895153               -0.84244786                0.01694284                0.30057854                0.81340107
              11.00949766                3.63639291               19.75350077                1.00000000                0.30112221                0.37300819               -1.19391752               -0.01757338                0.02646642               -0.41746795
               1.15347712                5.37655554               20.19249989                1.00000000               -0.17459523               -0.24445950                0.75743790               -0.02413011                0.11461970                1.08509724
               2.15173116                5.29003469               20.09604432                0.75320788               -0.13044649               -0.13650427                0.43869077               -0.00319724                0.21122001               -0.28982715
               3.15086819                5.20311339               20.00146955                0.07361592               -0.20217609               -0.02971630                0.13154244                0.12056736                2.01993589               -1.53440307
               4.14768764                5.11815505               19.94118394                0.00010000               -0.86761725                0.34638047               -0.34558334                0.60172358                7.41015192               -0.39019563
               5.13351584                5.04796120               19.95364220                0.00010000               -1.43917290                0.30432420               -0.23184789                1.21165880               10.61511563               -0.51886843
               6.11890418                4.97721069               19.95899601                0.00010000               -1.47588532                0.34417458               -0.20138865                1.00261635               10.07556041               -0.10317281
               7.10399814                4.90756115               19.96200699                0.00010000               -1.48156163                0.33996194               -0.21821206                0.89494184                9.89299558                0.56592908
               8.08927295                4.84072159               19.96486657                0.00010000               -1.42843534                0.25605218               -0.26763264                0.90505679                9.93782685                1.39335713
               9.07542943                4.77865911               19.96974466                0.18692415               -0.63485422                0.09500397               -0.33785572                0.41629432                5.12792870                2.24131844
              10.07657587                4.70925611               19.87715792                0.83438295                0.18961267                0.21449821               -0.70406713                0.00949389                0.16294320                0.78431439
              11.07922168                4.64001791               19.78259325                1.00000000                0.26458151                0.34963121               -1.09416419               -0.01840438                0.07093138               -0.45338071
               1.23919856                6.37432244               20.16740403                1.00000000               -0.13297957               -0.20037640                0.62237263               -0.02463529                0.07010910                0.95257098
               2.23786877                6.28890599               20.06360406                0.62091123               -0.08647062               -0.08949751                0.28744198               -0.00348917                0.21619293               -0.47127765
               3.23746915                6.20308446               19.96267933                0.04175978               -0.41836583                0.02175228               -0.03551123                0.30616671                3.84536853               -1.86770957
               4.22950145                6.12293052               19.93146194                0.00010000               -1.14223783                0.49399284               -0.55992888                0.63257205                9.57269253                0.16611321
               5.21462440                6.05196430               19.94445772                0.00010000               -1.59049410                0.48845247               -0.31276929                0.97369942               11.81537971               -0.10382941
               6.19769157                5.98147897               19.95979494                0.00010000               -1.74659590                0.52029653               -0.20824817                0.76887401               11.86506132                0.17065902
               7.17969248                5.91159185               19.97545424                0.00010000               -1.80055545                0.47423941               -0.16380503                0.57763999               11.87075590                0.68277901
               8.16168046                5.84358987               19.99237112                0.00010000               -1.75522740                0.31190700               -0.15450562                0.53161236               11.98631351                1.33725514
               9.14458793                5.77930206               20.01155034                0.20359044               -0.81814758                0.03745062               -0.16853593                0.21847103                6.10447898                2.05298999
              10.14531751                5.71120371               19.91176487                0.74967626                0.15090204                0.17519755               -0.57579723                0.00440692                0.10228775                0.73348851
              11.14760597                5.64338554               19.81075749                1.00000000                0.22884604                0.32306824               -0.99357576               -0.01623329                0.04764719               -0.52337789
               1.32381731                7.37254801               20.14104762                0.99043489               -0.09179562               -0.15501101                0.48634265               -0.02372647                0.03078171                0.86396261
               2.32289936                7.28824474               20.02993503                0.54950788               -0.04251612               -0.04330783                0.13916244               -0.00227774                0.15493010               -0.55121316
               3.32296699                7.20354844               19.92126250                0.02485627               -0.57200534                0.07007890               -0.20267911                0.48343463                5.47875280               -2.05918811
               4.31145925                7.12803491               19.91662762                0.00010000               -1.42628064                0.52954821               -0.53809540                0.88249310               11.94592539               -0.33111682
               5.29444138                7.05773025               19.93737480                0.00010000               -1.84025674                0.67235375               -0.33327769                0.90588847               13.33004215               -0.01973464
               6.27465412                6.98761662               19.96213665                0.00010000               -2.05006694                0.72726406               -0.19374574                0.59391189               13.56117339                0.26293312
               7.25344004                6.91704593               19.98933485                0.00010000               -2.12295664                0.64057691               -0.10434619                0.26632538               13.73135383                0.67959549
               8.23219498                6.84695973               20.01919987                0.00010000               -2.06275164                0.38204800               -0.04547842                0.08988259               13.94831951                1.24115239
               9.21218501                6.77940812               20.05217913                0.22615035               -0.98072259               -0.01430631               -0.00951492               -0.03254500                7.06685158                1.94153945
              10.21258053                6.71276006               19.94554112                0.70857883                0.11741779                0.13434877               -0.44919794               -0.00096707                0.05996215                0.65971379
              11.21453336                6.64647928               19.83821674                0.99290470                0.19528315                0.29430600               -0.89412647               -0.01498835                0.03304866               -0.58420421
               1.40733058                8.37122222               20.11410175                0.98357254               -0.05077841               -0.11150552                0.35180096               -0.02290981                0.01238988                0.83330442
               2.40682279                8.28803983               19.99586042                0.53206062                0.00085533                0.00220362               -0.00668587               -0.00082604                0.06530655               -0.57618852
               3.40734768                8.20448604               19.87863808                0.01308172               -0.69266435                0.11699758               -0.36665371                0.65450694                6.87613205               -2.02637613
               4.39296950                8.13352148               19.89661858                0.00010000               -1.70936138                0.62771586               -0.49544315                1.10713655               14.33810065               -0.50378491
               5.37316045                8.06541137               19.92942706                0.00010000               -2.13576925                0.88655763               -0.31431252                0.85846429               15.09116679               -0.05882128
               6.35025412                7.99602425               19.96431308                0.00010000               -2.37422938                0.93887365               -0.16719844                0.43510969               15.25548252                0.22978037
               7.32567587                7.92440338               20.00236913                0.00010000               -2.45690950                0.87102965               -0.04609875               -0.02081326               15.52708871                0.55458397
               8.30111593                7.85123083               20.04460810                0.00010000               -2.37695832                0.53009049                0.05527869               -0.44099576               15.89628093                1.02431248
               9.27813670                7.77901594               20.09174005                0.25383826               -1.14444613               -0.05799617                0.14032332               -0.35990335                8.05806920                1.76469027
              10.27822701                7.71389069               19.97857004                0.70716091                0.08655347                0.09250633               -0.32537179               -0.00909660                0.03116928                0.61097987
              11.27986777                7.64927166               19.86496839                0.98721437                0.16407631                0.26191690               -0.79626674               -0.01357689                0.01825401               -0.64050133
               1.48972389                9.37031790               20.08705615                0.97882054               -0.01048777               -0.07095606                0.21969335               -0.02232138               -0.00530420                0.70739865
               2.48961901                9.28828882               19.96166637                0.55189596                0.04257934                0.04701949               -0.15012339                0.00025670                0.07749993               -0.50206085
               3.49057548                9.20588839               19.83789687                0.00010000               -0.84711816                0.16098582               -0.51914127                0.87891960                8.34061057               -1.41625799
               4.47267665                9.14058922               19.87778026                0.00010000               -2.07337920                0.96201977               -0.46188773                1.01848696               16.61280212               -0.26494295
               5.44910790                9.07546140               19.92091300                0.00010000               -2.41561772                1.05429039               -0.30187825                0.62401613               16.74076589               -0.04527423
               6.42436430                9.00639409               19.96531853                0.00010000               -2.56453475                1.07587216               -0.14607211                0.25447392               16.87828669                0.13172908
               7.39781720                8.93446653               20.01319678                0.00010000               -2.78008904                1.05237636                0.00118581               -0.15876457               17.23376223                0.31724979
               8.36876252                8.85756154               20.06678190                0.00010000               -2.77450591                0.92867253                0.14129907               -0.72752702               17.83031068                0.59450588
               9.34232708                8.77824819               20.12874832                0.28396185               -1.33098189               -0.07709504                0.27374995               -0.78817102                9.19058443                1.18103369
              10.34214288                8.71461019               20.01125243                0.74266852                0.05863999                0.05566123               -0.20817035               -0.02120822                0.09613344                0.50763291
              11.34349988                8.65171762               19.89110555                0.96406685                0.13570032                0.22727035               -0.70511505               -0.01348227               -0.02615530               -0.56837432
               1.57094232               10.36980310               20.05752312                0.98902638                0.03151181               -0.05148047                0.08786276                0.03955538                0.38686580                0.58615212
               2.57125744               10.28898022               19.92905770                0.81185523                0.08416720                0.06914064               -0.28800881                0.05897559                0.73440500               -0.42233678
               3.57262567               10.20770576               19.80751087                0.49182711               -1.37456040                0.18173706               -0.65142505                1.39410156                9.87650268               -0.90053312
               4.54376623               10.15276188               19.86190408                0.33540882               -2.63948778                1.21726556               -0.48041511                1.04852920               18.36957307               -0.07326786
               5.51983591               10.08649718               19.91242603                0.32702552               -2.37138819                1.10357814               -0.32075417                0.31179242               18.17256080               -0.00260622
               6.49633847               10.01754170               19.96468845                0.34588674               -2.42513951                1.11476066               -0.14365397                0.14510377               18.35537009                0.09569957
               7.47133312                9.94545091               20.02064647                0.38974383               -2.67773736                1.09843844                0.02956260               -0.03527883               18.76519654                0.19815934
               8.44278372                9.86980428               20.08304139                0.49091421               -3.30042431                1.22427340                0.20033988               -0.99672327               19.52297703                0.35965121
               9.40532463                9.77747404               20.15646084                0.65835735               -1.92251509               -0.07741592                0.36211096               -1.44026312               10.52697983                0.73047184
              10.40433342                9.71500391               20.04204326                0.89993013                0.00293172                0.03937207               -0.10617142                0.03620558                0.71788391                0.42469155
              11.40538327                9.65381706               19.91909446                0.97837089                0.10498491                0.20994471               -0.61574714                0.06965414                0.30332401               -0.46486257
               0.77465655                0.42846457               21.32228257                1.00000000               -0.35233221               -0.38296267                1.33680726               -0.06722926               -0.76891087                0.80454283
               1.77113322                0.33058932               21.24907189                1.00000000               -0.29347864               -0.30523912                1.07499741               -0.05321645               -0.97776323                0.05593254
               2.76878697                0.23249525               21.17166556                1.00000000               -0.16070582               -0.22952407                0.79822102               -0.03922175               -0.92857553               -0.21005217
               3.76791911                0.13542620               21.09947149                0.62683123                0.31172037               -0.18143083                0.53557786                0.48057260                0.02893906               -0.60708636
               4.77502138                0.05047874               21.04123959                0.69854667                0.45706010               -0.05845243                0.23314183               -0.07259795                0.52844286                0.15287741
               5.77706031               -0.02572454               20.97903418                0.77217449                0.14353660                0.02701511               -0.05881901                0.00074993                0.14429111                0.08911991
               6.77789211               -0.10041645               20.91314879                0.75317266                0.06601486                0.10417411               -0.34523406                0.00907909               -0.04685315               -0.05819559
               7.77838061               -0.17568121               20.84707852                0.86220061                0.07884604                0.19492811               -0.64211635                0.03098949               -0.28166310                0.06853386
               8.77946903               -0.25367612               20.77632892                1.00000000                0.19097514                0.29061056               -0.93669534                0.01714198               -0.63592036                0.44462661
               9.78220011               -0.33361532               20.70304369                1.00000000                0.33402870                0.35990901               -1.22506421               -0.04339401               -0.70711058                0.00873007
              10.78614961               -0.41380179               20.63090050                1.00000000                0.39494979                0.43964504               -1.49825374               -0.06156661               -0.65505431               -0.67017819
               0.87185950                1.42463495               21.29378620                1.00000000               -0.32737829               -0.36318277                1.21390471               -0.02771377               -0.10232733                1.09222024
               1.86858572                1.32753693               21.22016143                1.00000000               -0.29415947               -0.28437831                0.95343313               -0.01009765               -0.06613541                0.08197149
               2.86597631                1.23020001               21.14721870                0.84923730               -0.24263157               -0.20853632                0.68714595                0.02469783                0.16904695               -0.59497719
               3.86373309                1.13361190               21.07825889                0.16595820               -0.55527704               -0.18079852                0.41050904                0.68947737                1.65299754               -1.05311688
               4.85487077                1.04989421               21.03486039                0.30367070               -0.56088434                0.06785057                0.17295650               -0.08695776                2.33128536                0.95315979
               5.85251540                0.97454561               20.97933172                0.38516734               -0.09547672                0.09028454               -0.09587993                0.17585960                1.50087656                0.37518797
               6.85296124                0.90062529               20.91928192                0.28001132                0.14024662                0.05616464               -0.36369064                0.21865702                1.39103997               -0.38710601
               7.85532034                0.82626807               20.86165099                0.44738637                0.28231336                0.19167281               -0.62207245                0.25392910                1.37671384                0.59382661
               8.85860751                0.74922998               20.80159484                1.00000000                0.32543348                0.27531829               -0.88182683                0.11164517                0.70367027                0.64299371
               9.86182901                0.66998377               20.73074854                1.00000000                0.35564528                0.34967130               -1.15305752                0.00117361                0.09617116                0.08906883
              10.86572041                0.59059466               20.65861434                1.00000000                0.38914072                0.42552321               -1.42549696               -0.01856290                0.02830446               -0.79487704
               0.96829830                2.42120092               21.27100069                1.00000000               -0.29320922               -0.32982500                1.10448896               -0.02129875                0.03982873                1.38930818
               1.96536621                2.32490176               21.19171887                1.00000000               -0.25461680               -0.24857924                0.83251245                0.00183449                0.17120947                0.05650477
               2.96320597                2.22832452               21.11499451                0.49334222               -0.16758787               -0.17583925                0.58118221                0.03764223                0.79309107               -1.30431084
               3.96201445                2.13181023               21.04812116                0.00010000               -1.54287268               -0.16194761                0.32329678                0.94806275                4.45388003               -1.96031758
               4.93234851                2.05183575               21.04443281                0.00010000               -1.60840133                0.17310569                0.10903292                1.80617837                4.86375043               -1.27077875
               5.92984643                1.97608115               20.98532957                0.00010000               -0.09028582               -0.06459852               -0.12866382                1.52169370                1.71463687               -0.45069475
               6.93054280                1.90070684               20.91885077                0.00010000                0.25040336               -0.15576062               -0.36964396                1.28943708                3.05676999                0.27157832
               7.93485449                1.82815224               20.88676572                0.00010000                0.37217199               -0.11075262               -0.60824214                0.88356565                3.53692106                0.78325467
               8.93798624                1.75183024               20.83091683                0.48871061                0.30022082                0.26826297               -0.81033017                0.19269573                1.59347087                1.26636184
               9.94085891                1.67337810               20.76014749                1.00000000                0.32851679                0.33601157               -1.07558238                0.02885692                0.57486575                0.55958317
              10.94455657                1.59470867               20.68392267                1.00000000                0.36976624                0.40295236               -1.36474840               -0.01017259                0.30074866               -0.80367670
               1.06403185                3.41803845               21.24842884                1.00000000               -0.25330461               -0.30517407                0.99372631               -0.01741274                0.05630309                1.35429378
               2.06149881                3.32256535               21.16226021                1.00000000               -0.21055853               -0.21720781                0.71107708                0.00269333                0.06775843               -0.03891297
               3.05982068                3.22668322               21.07625132                0.27919373               -0.11578431               -0.13463693                0.42839965                0.00325576                0.99938920               -1.54321570
               4.05918312                3.13037294               21.00869963                0.00010000               -0.65486278               -0.08485980                0.16464949                0.97821079                4.56809081               -2.55675837
               5.04672343                3.05335633               20.99345636                0.00010000               -1.25524678                0.07154405                0.01139238                2.60045114                6.69247545               -3.05369516
               6.03407819                2.97325364               20.96910013                0.00010000               -1.00222690               -0.06276582               -0.14892251                2.15766650                5.87269291               -1.20691236
               7.02667889                2.89751008               20.93788616                0.00010000               -0.61049705               -0.13805564               -0.31698000                1.84035229                5.42966660                0.77075807
               8.02186824                2.82405301               20.90513856                0.00010000               -0.47216646               -0.17826384               -0.49517476                1.39119512                5.14981634                0.92367611
               9.01723556                2.75459524               20.86867659                0.20486014               -0.11702635                0.23571747               -0.70344506                0.50695444                3.20022429                2.36677572
              10.01952772                2.67670400               20.79731682                1.00000000                0.28101337                0.30814455               -0.96712949                0.02273668                0.73387512                0.90507560
              11.02285583                2.59865370               20.71145961                1.00000000                0.33281097                0.39291842               -1.29535235               -0.01701865                0.01143742               -0.56349917
               1.15889625                4.41509744               21.22493690                1.00000000               -0.21209480               -0.27851595                0.87455451               -0.02120804                0.06983677                1.23792813
               2.15677530                4.32055760               21.13187498                0.94632819               -0.17163819               -0.17910417                0.58063612                0.00014683                0.09018523               -0.13743092
               3.15546348                4.22563178               21.03916375                0.14686272               -0.09348668               -0.07963033                0.29655369               -0.00796155                1.13994908               -1.42123562
               4.15490557                4.13011304               20.96709383                0.00010000               -0.69933220                0.10745830               -0.02518173                0.78590774                5.82523891               -2.05193558
               5.14147684                4.05326663               20.96769789                0.00010000               -1.30297803                0.09570851               -0.10667411                1.52093385                9.01028226               -1.33291865
               6.12884601                3.97482583               20.96011337                0.00010000               -1.24631868                0.20894079               -0.17761763                1.39122446                8.31845248               -0.56011494
               7.11655047                3.89794573               20.94761366                0.00010000               -1.16263892                0.15952373               -0.27172922                1.24413687                7.93702773                0.41972792
               8.10559323                3.82458697               20.93301107                0.00010000               -1.05380635                0.13765307               -0.39185434                1.16954706                7.88888593                1.45524376
               9.09547434                3.75654459               20.92009273                0.17805470               -0.41690227                0.15634354               -0.54043885                0.51203653                4.28220747                2.77043049
              10.09725518                3.67954100               20.83370992                0.95013374                0.24212246                0.26127963               -0.86328981                0.01225581                0.32567654                0.86026736
              11.10031679                3.60256704               20.74147209                1.00000000                0.30616068                0.38248110               -1.21026740               -0.01730474                0.03786933               -0.42991838
               1.25268736                5.41246813               21.20001490                1.00000000               -0.17199689               -0.24144666                0.74566083               -0.02463102                0.11731331                1.09245978
               2.25096740                5.31898326               21.10040391                0.74501962               -0.12906756               -0.13392266                0.43305979               -0.00426729                0.21995335               -0.31311656
               3.25010601                5.22509062               21.00279295                0.08050921               -0.18504824               -0.02770814                0.13262066                0.08715068                1.95015256               -1.58730570
               4.24726643                5.13252211               20.93778370                0.00010000               -0.88383525                0.36059887               -0.33317130                0.56729699                7.53966776               -0.57118186
               5.23242931                5.05527050               20.95135900                0.00010000               -1.50214276                0.30542938               -0.22666235                1.19011833               11.01385643               -0.55159208
               6.21722358                4.97743245               20.95697530                0.00010000               -1.53144076                0.34876332               -0.20260380                0.96301596               10.42387025               -0.07621572
               7.20180049                4.90070055               20.95979082                0.00010000               -1.52816288                0.34257679               -0.22566666                0.84261069               10.21556275                0.63022585
               8.18666032                4.82680608               20.96212376                0.00010000               -1.46391168                0.25491823               -0.28228373                0.84637917               10.24724943                1.48837553
               9.17252226                4.75772211               20.96624524                0.18452574               -0.64549655                0.08975856               -0.36361787                0.38382765                5.29640343                2.36472371
              10.17375039                4.68192959               20.86998672                0.81713932                0.19676914                0.21975053               -0.72944539                0.00823190                0.17636351                0.83913227
              11.17645764                4.60630333               20.77153282                1.00000000                0.27072552                0.36124718               -1.11618644               -0.01874366                0.07264138               -0.46080502
               1.34537336                6.41026850               21.17356850                1.00000000               -0.13058920               -0.19686922                0.61052921               -0.02471463                0.06987468                0.95580222
               2.34406746                6.31787915               21.06645461                0.61499515               -0.08528531               -0.08727917                0.28246199               -0.00410859                0.22195715               -0.49444313
               3.34366765                6.22507762               20.96233332                0.04757403               -0.39979189                0.02297837               -0.03392957                0.27412103                3.75088554               -1.92084351
               4.33607163                6.13732502               20.92579937                0.00010000               -1.16493945                0.50364664               -0.56516638                0.58466481                9.77104486                0.15531866
               5.32036886                6.05937522               20.94132005                0.00010000               -1.66976784                0.50420378               -0.31313403                0.94444420               12.33987181               -0.09193726
               6.30267627                5.98180110               20.95769235                0.00010000               -1.81699014                0.53569173               -0.21217527                0.72100113               12.30036818                0.21250195
               7.28402906                5.90479726               20.97377057                0.00010000               -1.85885119                0.48502907               -0.17368885                0.51685450               12.27489645                0.74921544
               8.26549925                5.82968533               20.99074455                0.00010000               -1.80008415                0.31600216               -0.17223796                0.46338531               12.37822539                1.42744372
               9.24802738                5.75833976               21.00973544                0.20137729               -0.83303194                0.03648348               -0.19624681                0.18174345                6.30832749                2.16363682
              10.24883861                5.68393601               20.90588293                0.73442344                0.15835353                0.18088105               -0.60163173                0.00477427                0.10913885                0.78206496
              11.25119445                5.60979198               20.80070970                1.00000000                0.23558389                0.33457498               -1.01584822               -0.01618857                0.04988217               -0.52920677
               1.43697178                7.40853074               21.14585391                0.98989956               -0.08956785               -0.15133955                0.47480278               -0.02366735                0.03039813                0.86711425
               2.43607611                7.31723768               21.03130642                0.54521668               -0.04146093               -0.04158465                0.13485763               -0.00244602                0.15722822               -0.57126607
               3.43614257                7.22555018               20.91924927                0.02934463               -0.57069869                0.07030024               -0.20032514                0.46057474                5.47705585               -2.10939039
               4.42466213                7.14259504               20.91110069                0.00010000               -1.46502288                0.55050314               -0.55908422                0.82798273               12.23184789               -0.20870192
               5.40684211                7.06535457               20.93399654                0.00010000               -1.92202905                0.69768961               -0.33957069                0.86769566               13.87318872                0.04039846
               6.38622155                6.98814629               20.96016190                0.00010000               -2.12943780                0.75274089               -0.20077513                0.53764026               14.05782322                0.31587517
               7.36425335                6.91040113               20.98823195                0.00010000               -2.19180147                0.66028086               -0.11702342                0.19501812               14.20543324                0.74261156
               8.34238552                6.83312612               21.01864788                0.00010000               -2.11734501                0.39256443               -0.06640753                0.01003361               14.41476458                1.32148865
               9.32190645                6.75845178               21.05193821                0.22419065               -0.99959339               -0.01183539               -0.04055954               -0.07582733                7.30607657                2.04094371
              10.32239365                6.68554721               20.94091822                0.69425029                0.12577316                0.14020018               -0.47669336               -0.00056375                0.06359562                0.70480564
              11.32442192                6.61299483               20.82915949                0.99293582                0.20282615                0.30483497               -0.91759748               -0.01428261                0.03433101               -0.59116114
               1.52748614                8.40724171               21.11756573                0.98328774               -0.04870339               -0.10793344                0.34074451               -0.02276882                0.01199474                0.83820571
               2.52699910                8.31704745               20.99577804                0.52912057                0.00178224                0.00343953               -0.01015521               -0.00074190                0.06425958               -0.59338247
               3.52752178                8.22648363               20.87499194                0.01591037               -0.70861046                0.11606374               -0.36307230                0.64584136                6.98210927               -2.06801303
               4.51282689                8.14833508               20.89156450                0.00010000               -1.76751271                0.65515874               -0.50938906                1.07114779               14.72908773               -0.37336093
               5.49217153                8.07332901               20.92623131                0.00010000               -2.22221896                0.91928788               -0.32240234                0.82390014               15.64194178                0.01312243
               6.46838251                7.99685592               20.96259159                0.00010000               -2.46109684                0.97297636               -0.17674600                0.38096134               15.79309522                0.27900306
               7.44294959                7.91800288               21.00183520                0.00010000               -2.53666245                0.90221283               -0.06147253               -0.09391508               16.06155246                0.60481487
               8.41764927                7.83753662               21.04504603                0.00010000               -2.44299281                0.54958992                0.03081262               -0.53060996               16.43286966                1.08910934
               9.39408973                7.75810306               21.09297089                0.25191229               -1.16824878               -0.05121363                0.10393463               -0.41107090                8.33428229                1.85084968
              10.39428429                7.68674001               20.97516352                0.69213252                0.09619168                0.10003212               -0.35706825               -0.00965895                0.03446962                0.65070031
              11.39601357                7.61588868               20.85687036                0.98748355                0.17292782                0.27214771               -0.82339197               -0.01242467                0.01915505               -0.65195699
               1.61690493                9.40637207               21.08920234                0.97874110               -0.00855701               -0.06759829                0.20914238               -0.02217084               -0.00619582                0.71364186
               2.61681935                9.31730647               20.96015478                0.54930617                0.04334225                0.04783839               -0.15268741                0.00036173                0.07723528               -0.51495823
               3.61777177                9.22787146               20.83273450                0.00010000               -0.87898242                0.15936329               -0.51397365                0.88695258                8.54887159               -1.44145081
               4.59923971                9.15569822               20.87312519                0.00010000               -2.14862488                0.99582746               -0.46636599                1.00596578               17.10162681               -0.17209184
               5.57479927                9.08374033               20.91785133                0.00010000               -2.50363999                1.09068106               -0.30917410                0.60477660               17.30344039               -0.00099806
               6.54916691                9.00760582               20.96380081                0.00010000               -2.65524614                1.11556428               -0.15745617                0.21988690               17.45568390                0.16024091
               7.52169435                8.92844539               21.01312355                0.00010000               -2.87468805                1.09426211               -0.01665028               -0.21174568               17.82434127                0.34436641
               8.49167315                8.84411792               21.06806685                0.00010000               -2.86063531                0.96955958                0.11453632               -0.80329078               18.43411479                0.63329945
               9.46448164                8.75742751               21.13128215                0.28175924               -1.36291480               -0.06510300                0.23101624               -0.84746446                9.50736464                1.23722829
              10.46441485                8.68754786               21.00898830                0.72446426                0.06972162                0.06606052               -0.24576111               -0.02281521                0.10414391                0.53657379
              11.46587608                8.61843778               20.88389322                0.96549343                0.14612261                0.23786888               -0.73729597               -0.01224922               -0.02535099               -0.58444138
               1.70517393               10.40588975               21.05835367                0.98905466                0.03330239               -0.04823277                0.07772666                0.03834795                0.39054276                0.59273282
               2.70550695               10.31800422               20.92617142                0.81111042                0.08475785                0.06977521               -0.28985637                0.05781708                0.74454626               -0.43215733
               3.70686909               10.22967089               20.80103015                0.49147463               -1.42148067                0.17994329               -0.64541864                1.42210186               10.15624614               -0.91534122
               4.67707734               10.16825163               20.85709058                0.33588359               -2.72548128                1.25534098               -0.48169387                1.05735019               18.94145848               -0.01954726
               5.65235946               10.09514263               20.90917906                0.32723129               -2.45010731                1.14023004               -0.32813574                0.30179757               18.77165366                0.01612534
               6.62807519               10.01916720               20.96318890                0.34570989               -2.50784421                1.15613860               -0.15663813                0.12810333               18.98178487                0.10591801
               7.60220258                9.93988812               21.02084557                0.38914780               -2.77369334                1.14427338                0.00929710               -0.06114697               19.40796262                0.20763246
               8.57260133                9.85692781               21.08490420                0.49234160               -3.42460346                1.28098923                0.17133658               -1.06153814               20.17773084                0.37635469
               9.53371051                9.75680100               21.15984869                0.65756753               -1.98918049               -0.06265145                0.31339762               -1.52044312               10.89056033                0.76531147
              10.53281772                9.68806122               21.04076804                0.88953635                0.01391138                0.05133639               -0.14997930                0.03253990                0.75268145                0.44665017
              11.53398873                9.62064606               20.91274590                0.97864097                0.11710178                0.22082799               -0.65380199                0.06974996                0.31786498               -0.48208784
               0.84138844                0.46570634               22.33561223                1.00000000               -0.35111828               -0.38095159                1.32951119               -0.06676404               -0.78714031                0.82067836
               1.83787726                0.36068636               22.25978935                1.00000000               -0.29317143               -0.30290196                1.06848475               -0.05378533               -1.00228500                0.06074624
               2.83552501                0.25541451               22.17963504                1.00000000               -0.16147271               -0.22496314                0.79360206               -0.04220126               -0.95123238               -0.20993744
               3.83464780                0.15110867               22.10483646                0.62850961                0.30871304               -0.17718499                0.53169587                0.47252178               -0.00833304               -0.63499002
               4.84169927                0.05876254               22.04355675                0.70076927                0.45450131               -0.05702354                0.22977219               -0.07408717                0.46620652                0.16697898
               5.84373783               -0.02491454               21.97846171                0.77433774                0.14489430                0.02775885               -0.05621946               -0.00021117                0.09392278                0.09509019
               6.84459716               -0.10705617               21.90973356                0.75427254                0.07176866                0.10328910               -0.33823587                0.00898317               -0.09880242               -0.06151675
               7.84517320               -0.18963733               21.84071402                0.86295928                0.08659103                0.19297429               -0.63131024                0.02740651               -0.33697062                0.07468823
               8.84632898               -0.27471209               21.76703561                1.00000000                0.19374256                0.28626350               -0.92267211                0.01366727               -0.68653455                0.45621037
               9.84904805               -0.36159715               21.69088243                1.00000000                0.33104624                0.35573815               -1.20800960               -0.04233665               -0.74646687                0.00792075
              10.85294990               -0.44872864               21.61602158                1.00000000                0.39018498                0.43550069               -1.47856619               -0.05897447               -0.68627055               -0.69929545
               0.94574077                1.46189682               22.30588269                1.00000000               -0.32554579               -0.36163091                1.20618476               -0.02688554               -0.10573680                1.11472807
               1.94248532                1.35765734               22.22966509                1.00000000               -0.29244660               -0.28202819                0.94690406               -0.00965492               -0.07490147                0.08669303
               2.93989184                1.25316488               22.15402533                0.86323297               -0.23931574               -0.20302448                0.67711848                0.01971233                0.14886298               -0.58786633
               3.93769900                1.14933682               22.08224679                0.17609074               -0.54609194               -0.16821004                0.39684543                0.66842036                1.64884488               -1.05622439
               4.92897000                1.05819231               22.03652761                0.31370104               -0.55269654                0.07002512                0.16213657               -0.09238236                2.34569064                0.96432163
               5.92664507                0.97536305               21.97834472                0.39594775               -0.09608108                0.09052600               -0.10065089                0.16458095                1.50042032                0.38326415
               6.92704838                0.89397673               21.91564467                0.29075267                0.13150781                0.06257021               -0.36358596                0.20926018                1.39594698               -0.38285501
               7.92927523                0.81229242               21.85544743                0.45580056                0.26985901                0.19024303               -0.61877834                0.23396825                1.38673082                0.59631928
               8.93244556                0.72815055               21.79280970                1.00000000                0.31788678                0.27250292               -0.87556532                0.10332035                0.70831532                0.66296931
               9.93563296                0.64196023               21.71926483                1.00000000                0.35230422                0.34635491               -1.14427873                0.00154596                0.09479643                0.09137193
              10.93949165                0.55562636               21.64442061                1.00000000                0.38586841                0.42360787               -1.41405664               -0.01644076                0.02678164               -0.82941910
               1.04932969                2.45847372               22.28199490                1.00000000               -0.29135867               -0.32905755                1.09548539               -0.02031404                0.03906616                1.41829147
               2.04641610                2.35504580               22.20001484                1.00000000               -0.25449553               -0.24622037                0.82695836                0.00406531                0.17832247                0.06152283
               3.04423978                2.25135402               22.12078618                0.50443275               -0.17136617               -0.17108040                0.57463455                0.04106818                0.79570305               -1.31462728
               4.04298878                2.14774447               22.05116682                0.00010000               -1.52071912               -0.14912381                0.29606445                0.92305703                4.46627043               -1.95452179
               5.01382540                2.06016305               22.04542444                0.00010000               -1.58718738                0.16457422                0.09300453                1.75349142                4.93128525               -1.27563532
               6.01124503                1.97689598               21.98398466                0.00010000               -0.09862005               -0.06706270               -0.13856704                1.47600867                1.77064424               -0.43129117
               7.01185299                1.89419524               21.91514988                0.00010000                0.22168571               -0.15268383               -0.37196126                1.23778275                3.10954168                0.31189706
               8.01567874                1.81416753               21.88065485                0.00010000                0.34372886               -0.10927789               -0.61294486                0.84228813                3.61316381                0.83352120
               9.01872757                1.73073797               21.82280371                0.49659283                0.29622047                0.26546168               -0.81246193                0.17550625                1.65938077                1.31240202
              10.02160315                1.64532994               21.74939559                1.00000000                0.32806221                0.33279635               -1.07511033                0.02475012                0.59723185                0.58012625
              11.02528882                1.55974351               21.67029465                1.00000000                0.36856614                0.40559942               -1.36128212               -0.00949253                0.31150657               -0.83981073
               1.15219034                3.45531567               22.25831158                1.00000000               -0.25040152               -0.30447910                0.98374869               -0.01675540                0.05945573                1.37901414
               2.14968632                3.35273293               22.16934070                1.00000000               -0.20879019               -0.21510225                0.70521228                0.00394583                0.07083011               -0.03811917
               3.14801453                3.24974327               22.08054366                0.28850423               -0.11676034               -0.13207825                0.42886535                0.00699604                1.00979784               -1.57023690
               4.14735112                3.14635434               22.01033574                0.00010000               -0.65631063               -0.09321723                0.16345384                0.95185819                4.61540857               -2.57631130
               5.13488832                3.06148379               21.99361023                0.00010000               -1.26090316                0.05768731                0.01049937                2.52375076                6.82258269               -3.08415178
               6.12213305                2.97402180               21.96759987                0.00010000               -1.01779182               -0.06889818               -0.15207809                2.09433526                6.00910495               -1.18038595
               7.11453249                2.89092305               21.93468838                0.00010000               -0.62773970               -0.14563644               -0.32282985                1.76897378                5.56783443                0.83916820
               8.10957826                2.81010686               21.90015045                0.00010000               -0.48696048               -0.17895167               -0.50315680                1.34169578                5.27473281                1.02184634
               9.10479328                2.73345978               21.86159141                0.20503126               -0.12279188                0.22519886               -0.71371713                0.47617895                3.29092003                2.45765344
              10.10712242                2.64861615               21.78759978                1.00000000                0.28406911                0.30596273               -0.97610664                0.01480163                0.76664223                0.93848171
              11.11047466                2.56373835               21.69847800                1.00000000                0.33522368                0.39889095               -1.30069540               -0.01568482                0.01252462               -0.58788743
               1.25416005                4.45238414               22.23362532                1.00000000               -0.20926343               -0.27712671                0.86366956               -0.02128754                0.07678658                1.25341349
               2.25206742                4.35074375               22.13765271                0.93546752               -0.17008825               -0.17701030                0.57504573               -0.00029116                0.10201932               -0.15000204
               3.25075829                4.24871246               22.04212936                0.15399690               -0.08910002               -0.07727796                0.29641938               -0.01933563                1.13512039               -1.45643941
               4.25028542                4.14588013               21.96681009                0.00010000               -0.70626643                0.08357657               -0.01835729                0.75840817                5.91532621               -2.16447605
               5.23663296                4.06131679               21.96667443                0.00010000               -1.32964693                0.09117009               -0.10187642                1.46754720                9.24290547               -1.37784679
               6.22369248                3.97551802               21.95833680                0.00010000               -1.27427762                0.20427993               -0.17872264                1.33912188                8.55222763               -0.53812658
               7.21114741                3.89128251               21.94486552                0.00010000               -1.18582758                0.15428498               -0.27872425                1.18494612                8.15899010                0.48598278
               8.19997593                3.81058850               21.92903219                0.00010000               -1.07027775                0.13243823               -0.40471071                1.10723511                8.09483745                1.55107404
               9.18974185                3.73524195               21.91457905                0.17582310               -0.41776571                0.14255461               -0.56237259                0.47809826                4.40117233                2.89512474
              10.19162061                3.65144920               21.82497751                0.93171295                0.24944363                0.26247963               -0.88262362                0.00862572                0.34991715                0.90712678
              11.19473073                3.56772133               21.72929542                1.00000000                0.31101104                0.39129260               -1.22415783               -0.01740458                0.05067133               -0.44186054
               1.35504536                5.44977314               22.20741311                1.00000000               -0.16931751               -0.23923305                0.73423352               -0.02485156                0.11938546                1.09932743
               2.35335218                5.34919273               22.10470552                0.73678594               -0.12769543               -0.13145662                0.42730724               -0.00498735                0.22831822               -0.33597668
               3.35249145                5.24819771               22.00412197                0.08683577               -0.17186204               -0.02505913                0.13304763                0.06084828                1.88377024               -1.63916814
               4.34991494                5.14802588               21.93452052                0.00010000               -0.89450377                0.34198904               -0.31164533                0.53798375                7.66791621               -0.72742265
               5.33460137                5.06330720               21.94910896                0.00010000               -1.54825841                0.30856089               -0.22237285                1.14887034               11.39771569               -0.57967099
               6.31894977                4.97810739               21.95494393                0.00010000               -1.57202241                0.35121938               -0.20428121                0.91287449               10.75863033               -0.04652241
               7.30316093                4.89400875               21.95749366                0.00010000               -1.55931251                0.34262588               -0.23462921                0.78195131               10.52468165                0.69758517
               8.28776352                4.81275562               21.95922090                0.00010000               -1.48331923                0.25130599               -0.29935805                0.78031486               10.54230204                1.58582992
               9.27349454                4.73631087               21.96247231                0.18198330               -0.64739869                0.08199386               -0.39153078                0.34921843                5.45593471                2.49078138
              10.27481555                4.65386575               21.86256902                0.79962578                0.20438789                0.22321543               -0.75350495                0.00793726                0.18828901                0.89825827
              11.27758230                4.57156420               21.76026952                1.00000000                0.27667492                0.37267001               -1.13539231               -0.01918619                0.07434805               -0.46376550
               1.45482384                6.44759948               22.17961461                1.00000000               -0.12807406               -0.19400347                0.59879010               -0.02474085                0.06943138                0.95864830
               2.45354310                6.34811462               22.06925330                0.60900699               -0.08408660               -0.08483679                0.27707274               -0.00459140                0.22744838               -0.51701910
               3.45314211                6.24821127               21.96200074                0.05276969               -0.38037443                0.02521447               -0.03304393                0.24138379                3.65328596               -1.97288296
               4.44593561                6.15271991               21.92015861                0.00010000               -1.18066290                0.50349320               -0.55348904                0.53553646                9.95566286                0.13897951
               5.42952885                6.06748801               21.93819504                0.00010000               -1.73435965                0.51598804               -0.30964256                0.90325308               12.85238223               -0.07689516
               6.41124842                5.98254240               21.95555143                0.00010000               -1.86953219                0.54637438               -0.21583094                0.66362103               12.72217672                0.25639632
               7.39213821                5.89813503               21.97198046                0.00010000               -1.89841574                0.49123944               -0.18515936                0.44870058               12.66498046                0.81783535
               8.37328010                5.81561462               21.98892636                0.00010000               -1.82610550                0.31662042               -0.19266771                0.38836424               12.75549511                1.51979577
               9.35561610                5.73688182               22.00762540                0.19906981               -0.83770371                0.03403358               -0.22701727                0.14202752                6.50388855                2.27715034
              10.35652603                5.65591351               21.89973224                0.71902349                0.16669967                0.18549202               -0.62864190                0.00542606                0.11491156                0.83557872
              11.35895009                5.57517473               21.79044052                1.00000000                0.24240607                0.34655959               -1.03733983               -0.01612054                0.05183256               -0.52923983
               1.55352025                7.44589307               22.15054368                0.98936536               -0.08716947               -0.14807872                0.46307789               -0.02360666                0.02990684                0.87010230
               2.55264856                7.34749599               22.03263219                0.54091104               -0.04032073               -0.03953983                0.13001603               -0.00261965                0.15915282               -0.59070551
               3.55271384                7.24870200               21.91725600                0.03328978               -0.56498132                0.07146414               -0.19875139                0.43305264                5.46410480               -2.15832019
               4.54134893                7.15809574               21.90544594                0.00010000               -1.49349513                0.56549299               -0.56208493                0.76506170               12.50337745               -0.08679363
               5.52284394                7.07362696               21.93058339                0.00010000               -1.98868777                0.71655150               -0.33965621                0.81912446               14.40905480                0.10103425
               6.50157518                6.98903488               21.95812114                0.00010000               -2.18906069                0.77115009               -0.20684369                0.47351512               14.54107594                0.37023047
               7.47906272                6.90383354               21.98699438                0.00010000               -2.23955833                0.67365269               -0.13124546                0.11837106               14.66465118                0.80723901
               8.45678401                6.81908803               22.01787172                0.00010000               -2.15132600                0.39897163               -0.09022164               -0.07422297               14.86568640                1.40325177
               9.43603620                6.73699154               22.05136794                0.22220249               -1.00764246               -0.00964179               -0.07506047               -0.12118427                7.53716663                2.14111004
              10.43663116                6.65757559               21.93600725                0.67977064                0.13506173                0.14605507               -0.50629711               -0.00026233                0.06672473                0.75294631
              11.43873744                6.57849540               21.81986479                0.99291020                0.21062756                0.31620304               -0.94116368               -0.01366360                0.03552027               -0.59417546
               1.65114586                8.44463790               22.12091664                0.98300074               -0.04640825               -0.10451331                0.32920921               -0.02266566                0.01155890                0.84301524
               2.65068177                8.34732382               21.99565731                0.52627530                0.00287787                0.00501386               -0.01436096               -0.00071716                0.06289236               -0.60989866
               3.65120341                8.24964056               21.87137663                0.01833043               -0.71849423                0.11595811               -0.36046293                0.62873027                7.07851669               -2.10797537
               4.63631189                8.16402977               21.88643080                0.00010000               -1.81156079                0.67627819               -0.50962013                1.02109552               15.10436154               -0.23446939
               5.61497220                8.08181904               21.92297901                0.00010000               -2.28998751                0.94333657               -0.32514688                0.77963914               16.18187073                0.08641206
               6.59051214                7.99796541               21.96077816                0.00010000               -2.52598600                0.99833584               -0.18541162                0.32098074               16.31663251                0.32890315
               7.56445248                7.91160808               22.00113968                0.00010000               -2.59372511                0.92549729               -0.07832023               -0.16980443               16.58011772                0.65617335
               8.53863764                7.82359405               22.04522436                0.00010000               -2.48738126                0.56406669                0.00346444               -0.62084475               16.95194842                1.15556133
               9.51470485                7.73668899               22.09381875                0.25004511               -1.18103535               -0.04382929                0.06384595               -0.46213632                8.60146595                1.93602424
              10.51501693                7.65883461               21.97142867                0.67695428                0.10661744                0.10807780               -0.39089956               -0.01033318                0.03773607                0.69111970
              11.51683720                7.58149879               21.84850055                0.98770176                0.18202718                0.28289227               -0.85047480               -0.01130172                0.02004384               -0.66135151
               1.74769510                9.44380280               22.09123900                0.97866429               -0.00635350               -0.06414087                0.19781378               -0.02206192               -0.00705457                0.71974097
               2.74763156                9.34759627               21.95861262                0.54696002                0.04437022                0.04899808               -0.15621616                0.00042372                0.07683711               -0.52724217
               3.74858250                9.25102116               21.82761739                0.00010000               -0.90196026                0.15835319               -0.51000379                0.88265271                8.74990536               -1.46512576
               4.72959236                9.17162130               21.86845294                0.00010000               -2.20407119                1.02051915               -0.46430896                0.98035637               17.57560404               -0.07397914
               5.70450108                9.09249369               21.91472952                0.00010000               -2.56933031                1.11725842               -0.31345066                0.57893809               17.85177615                0.04434005
               6.67820575                9.00900160               21.96216940                0.00010000               -2.72315449                1.14592369               -0.16862193                0.18226578               18.01792237                0.18899200
               7.65003799                8.92234348               22.01286377                0.00010000               -2.94597718                1.12757161               -0.03595714               -0.26538179               18.39863516                0.37205938
               8.61928621                8.83036936               22.06907262                0.00010000               -2.92425351                1.00313107                0.08575561               -0.87654690               19.01762038                0.67405900
               9.59155292                8.73611496               22.13336865                0.27975019               -1.38357578               -0.05208977                0.18428010               -0.90325386                9.81242230                1.29199618
              10.59161469                8.65973714               22.00633721                0.70617614                0.08150575                0.07714123               -0.28555776               -0.02444063                0.11216886                0.56505258
              11.59318303                8.58415324               21.87635963                0.96671061                0.15683412                0.24855689               -0.76930751               -0.01100808               -0.02428553               -0.59961259
               1.84311768               10.44335509               22.05907765                0.98908838                0.03542066               -0.04477164                0.06658802                0.03712818                0.39416279                0.59911109
               2.84347189               10.34830379               21.92326057                0.81054710                0.08568770                0.07075152               -0.29288355                0.05665901                0.75438615               -0.44146707
               3.84483143               10.25280762               21.79460249                0.49109988               -1.45126975                0.17864565               -0.64075457                1.43171129               10.42853583               -0.92900981
               4.81444649               10.18444015               21.85227020                0.33632843               -2.78303845                1.28188451               -0.48140489                1.05324281               19.49840466                0.03638268
               5.78917067               10.10416421               21.90586331                0.32743192               -2.50694165                1.16705216               -0.33416407                0.28914517               19.35513079                0.03525918
               6.76430766               10.02088388               21.96155569                0.34552815               -2.56967946                1.18822825               -0.17023101                0.10995587               19.59185443                0.11602640
               7.73777708                9.93415951               22.02083241                0.38852788               -2.84862178                1.18160305               -0.01274437               -0.08745172               20.03383812                0.21720167
               8.70733522                9.84365667               22.08646812                0.49400340               -3.52525402                1.32873093                0.14096243               -1.12071457               20.80954833                0.39443915
               9.66727200                9.73564719               22.16272880                0.65692439               -2.04226948               -0.04677650                0.26044957               -1.59205438               11.23947867                0.79890868
              10.66648983                9.66037743               22.03904367                0.87913179                0.02564249                0.06402898               -0.19612502                0.02865098                0.78691907                0.46800777
              11.66778485                9.58646993               21.90601842                0.97890240                0.12950116                0.23166904               -0.69161509                0.06943087                0.33248006               -0.49880505
               0.91055949                0.50433720               23.34887280                1.00000000               -0.34947827               -0.37903647                1.32260506               -0.06639606               -0.80376433                0.83598216
               1.90706471                0.39205276               23.27044158                1.00000000               -0.29221375               -0.30074625                1.06197512               -0.05302865               -1.02576308                0.06588686
               2.90471522                0.27951593               23.18753760                1.00000000               -0.16169878               -0.22243894                0.78715995               -0.04168566               -0.97568799               -0.20985961
               3.90383073                0.16790573               23.11010541                0.62973938                0.30025217               -0.17486899                0.52332327                0.45573157               -0.04548051               -0.66004067
               4.91072026                0.06787661               23.04583503                0.70210294                0.44656118               -0.05636560                0.22620345               -0.07808582                0.41052887                0.17979671
               5.91276196               -0.02358877               22.97790979                0.77573274                0.14717459                0.02767102               -0.05453518               -0.00280277                0.04730284                0.10158788
               6.91366375               -0.11346901               22.90638407                0.75488915                0.07885924                0.10208853               -0.33240033                0.00809813               -0.14865235               -0.06440703
               7.91433914               -0.20365426               22.83445232                0.86334132                0.09530924                0.19078781               -0.62183487                0.02352551               -0.39086310                0.08077906
               8.91556994               -0.29610008               22.75787548                1.00000000                0.19728320                0.28213490               -0.91026213                0.01027385               -0.73597453                0.46795630
               9.91828481               -0.39022172               22.67888350                1.00000000                0.32879761                0.35197667               -1.19274968               -0.04136239               -0.78484794                0.00730637
              10.92214589               -0.48458576               22.60132918                1.00000000                0.38610833                0.43189677               -1.46107405               -0.05654310               -0.71666317               -0.72743459
               1.02217997                1.50054684               23.31790990                1.00000000               -0.32349124               -0.35996729                1.19931617               -0.02614196               -0.10903397                1.13605202
               2.01894506                1.38904530               23.23909951                1.00000000               -0.29040493               -0.27980800                0.94014894               -0.00893189               -0.08334553                0.09294241
               3.01637187                1.27729154               23.16076107                0.87311260               -0.23686760               -0.20011422                0.67126815                0.01822877                0.13098992               -0.58255847
               4.01420771                1.16615704               23.08619580                0.18515544               -0.53426096               -0.16374421                0.39506210                0.64461414                1.64641053               -1.07040955
               5.00568666                1.06731295               23.03810312                0.32237333               -0.54004833                0.06819041                0.15492985               -0.10164941                2.35835845                0.97630138
               6.00340674                0.97668794               22.97731871                0.40537748               -0.09545882                0.08944731               -0.10379991                0.15054178                1.50244814                0.39286485
               7.00377748                0.88755187               22.91201020                0.30063614                0.12415942                0.06850416               -0.36316056                0.19826806                1.40206616               -0.37687429
               8.00588993                0.79825362               22.84927542                0.46354279                0.25894639                0.18869484               -0.61581252                0.21470939                1.39716193                0.59899986
               9.00895641                0.70672127               22.78408354                1.00000000                0.31120461                0.26983266               -0.87005802                0.09538045                0.71303870                0.68277616
              10.01211402                0.61329805               22.70786296                1.00000000                0.34940448                0.34337036               -1.13667907                0.00198732                0.09338681                0.09389688
              11.01594450                0.51973321               22.63033321                1.00000000                0.38304737                0.42204126               -1.40417670               -0.01434886                0.02533412               -0.86279239
               1.13303973                2.49713786               23.29291040                1.00000000               -0.28983600               -0.32792653                1.08795094               -0.01898769                0.03966480                1.44524207
               2.13014137                2.38645660               23.20825804                1.00000000               -0.25358419               -0.24400997                0.82127862                0.00570302                0.18558097                0.06741584
               3.12796805                2.27551364               23.12648720                0.51666756               -0.17198851               -0.16781174                0.56629672                0.04119880                0.79675750               -1.32390351
               4.12670160                2.16463085               23.05404245                0.00010000               -1.49058350               -0.14767960                0.28418842                0.89718951                4.49736288               -1.97354425
               5.09815638                2.06924042               23.04629290                0.00010000               -1.55838624                0.15551729                0.08293532                1.68968083                5.00323860               -1.27348613
               6.09553388                1.97820018               22.98255822                0.00010000               -0.10464709               -0.06970780               -0.14546166                1.42180180                1.82959378               -0.40506359
               7.09606344                1.88790107               22.91141154                0.00010000                0.19650280               -0.14870383               -0.37600810                1.18134897                3.16355784                0.35518243
               8.09946393                1.80011964               22.87450682                0.00010000                0.31848417               -0.10705040               -0.61620434                0.79827267                3.68839101                0.88560121
               9.10243312                1.70929657               22.81466759                0.50392113                0.29243410                0.26258528               -0.81482676                0.15871407                1.72428709                1.35794209
              10.10531261                1.61664569               22.73864528                1.00000000                0.32777333                0.32968306               -1.07508295                0.02092198                0.61922118                0.60024765
              11.10898859                1.52385507               22.65669703                1.00000000                0.36759716                0.40809873               -1.35842717               -0.00879298                0.32203795               -0.87508113
               1.24316273                3.49398831               23.26810382                1.00000000               -0.24793957               -0.30368373                0.97511405               -0.01544721                0.06313331                1.40135182
               2.24068333                3.38416510               23.17636445                1.00000000               -0.20705640               -0.21319279                0.69947043                0.00586320                0.07581578               -0.03793233
               3.23902160                3.27393530               23.08482863                0.29933917               -0.11293053               -0.12944784                0.42720429                0.00394078                1.02079822               -1.59377013
               4.23842472                3.16320345               23.01196870                0.00010000               -0.65553278               -0.09960546                0.15958740                0.92267091                4.68694704               -2.62884563
               5.22591095                3.07042330               22.99366634                0.00010000               -1.26212983                0.04852728                0.00361638                2.43710960                6.95086878               -3.09806037
               6.21318213                2.97529378               22.96605857                0.00010000               -1.02129746               -0.07404656               -0.15728591                2.01600437                6.14174377               -1.14514862
               7.20548500                2.88457780               22.93142957                0.00010000               -0.63611240               -0.15204809               -0.32936043                1.68951348                5.69920334                0.91167292
               8.20045988                2.79611261               22.89507543                0.00010000               -0.49401791               -0.17908162               -0.51218127                1.28538475                5.39358423                1.12209213
               9.19560464                2.71197298               22.85440225                0.20488401               -0.12429546                0.21348068               -0.72393911                0.44492178                3.37792588                2.54617480
              10.19797397                2.61989171               22.77779469                1.00000000                0.28726184                0.30343019               -0.98452576                0.00733750                0.79820405                0.97008018
              11.20134988                2.52789518               22.68544570                1.00000000                0.33759057                0.40416192               -1.30535497               -0.01436125                0.01344719               -0.61188211
               1.35237720                4.49106418               23.24221029                1.00000000               -0.20655639               -0.27614623                0.85373479               -0.02076729                0.08409178                1.26682316
               2.35031164                4.38219275               23.14337589                0.92534222               -0.16843462               -0.17509810                0.56944614                0.00010355                0.11430850               -0.16277882
               3.34900851                4.27292469               23.04509214                0.16092975               -0.08223081               -0.07497118                0.29543880               -0.03045937                1.13844654               -1.49046184
               4.34866702                4.16263874               22.96672669                0.00010000               -0.71001359                0.07108397               -0.00432185                0.72496608                6.00986887               -2.29042399
               5.33480824                4.07021096               22.96566037                0.00010000               -1.34837769                0.08665824               -0.09977513                1.40648823                9.45863326               -1.40804061
               6.32169947                3.97671924               22.95653892                0.00010000               -1.28866797                0.19967927               -0.18194834                1.27392475                8.77523897               -0.50997917
               7.30903488                3.88486011               22.94203917                0.00010000               -1.19615111                0.14797591               -0.28728263                1.11754621                8.36966329                0.55589696
               8.29777645                3.79653800               22.92491685                0.00010000               -1.07412106                0.12579443               -0.41892629                1.03869562                8.28876254                1.64838141
               9.28755246                3.71356619               22.90884528                0.17332635               -0.41196451                0.12592064               -0.58416518                0.44322399                4.51277657                3.01766862
              10.28953716                3.62271429               22.81605745                0.91299440                0.25709747                0.26241624               -0.90077576                0.00585500                0.37388474                0.95414164
              11.29269441                3.53193830               22.71698893                1.00000000                0.31572507                0.39938650               -1.23635789               -0.01791257                0.06449958               -0.45203839
               1.46049026                5.48846538               23.21469957                1.00000000               -0.16653567               -0.23766416                0.72329241               -0.02485411                0.12131065                1.10484718
               2.45882490                5.38066314               23.10895006                0.72858201               -0.12619191               -0.12903248                0.42144611               -0.00554183                0.23677930               -0.35883761
               3.45796642                5.27243588               23.00545390                0.09253040               -0.15935664               -0.02193785                0.13289476                0.03907697                1.82940523               -1.68986738
               4.45563777                5.16462513               22.93155079                0.00010000               -0.90031059                0.32702208               -0.28366330                0.50220710                7.79674461               -0.88518837
               5.43996021                5.07215647               22.94691155                0.00010000               -1.58131445                0.30759565               -0.21528401                1.09388405               11.76002605               -0.60036721
               6.42401148                4.97928737               22.95288967                0.00010000               -1.59715231                0.35162838               -0.20688458                0.85078823               11.07934461               -0.01267241
               7.40801716                4.88753731               22.95509824                0.00010000               -1.57418836                0.33965687               -0.24526713                0.71299954               10.81978643                0.76772410
               8.39252771                4.79862850               22.95613660                0.00010000               -1.48621640                0.24462102               -0.31828663                0.70709169               10.82232282                1.68486886
               9.37829283                4.71449139               22.95841462                0.17922290               -0.64043794                0.07104771               -0.42031442                0.31291717                5.60713253                2.61822470
              10.37971895                4.62514003               22.85491662                0.78184252                0.21253803                0.22475281               -0.77637611                0.00880446                0.19972620                0.96055431
              11.38254359                4.53588291               22.74882498                1.00000000                0.28246410                0.38368082               -1.15252585               -0.01970540                0.07579462               -0.46244355
               1.56748461                6.48631090               23.18554430                0.99962004               -0.12543063               -0.19173108                0.58720706               -0.02474778                0.06878472                0.96068721
               2.56623030                6.37961210               23.07199607                0.60289600               -0.08282779               -0.08217921                0.27129775               -0.00515141                0.23272035               -0.53922594
               3.56582806                6.27248593               22.96167244                0.05727638               -0.36198626                0.02860037               -0.03296626                0.21057882                3.56291899               -2.02398580
               4.55899058                6.16917918               22.91472959                0.00010000               -1.19021864                0.49809267               -0.52600228                0.48207352               10.13467903                0.11599834
               5.54202368                6.07636288               22.93512720                0.00010000               -1.78280970                0.52174110               -0.30143919                0.84802103               13.34535334               -0.05789504
               6.52333439                5.98375181               22.95337573                0.00010000               -1.90349711                0.55184045               -0.21901725                0.59554833               13.12789535                0.30318007
               7.50395374                5.89165325               22.97006738                0.00010000               -1.91850900                0.49246892               -0.19818870                0.37286279               13.03926719                0.88853127
               8.48496421                5.80143042               22.98689120                0.00010000               -1.83272361                0.31323304               -0.21540728                0.30659409               13.11657820                1.61373347
               9.46729927                5.71498714               23.00519509                0.19659559               -0.83212424                0.02946265               -0.25978424                0.10001691                6.69052093                2.39264606
              10.46832172                5.62720935               22.89331010                0.70340712                0.17576337                0.18848376               -0.65555648                0.00685625                0.11983554                0.89272406
              11.47081454                5.53961192               22.77996290                1.00000000                0.24928147                0.35841857               -1.05735388               -0.01605967                0.05361922               -0.52404885
               1.67339291                7.48463076               23.15511546                0.98882856               -0.08460661               -0.14521023                0.45120084               -0.02355302                0.02932790                0.87261713
               2.67254684                7.37901955               23.03390674                0.53651227               -0.03909991               -0.03715272                0.12460690               -0.00281100                0.16078289               -0.60956955
               3.67261091                7.27300789               22.91527424                0.03657341               -0.55722754                0.07383973               -0.19805542                0.40290048                5.45034194               -2.20585151
               4.66140229                7.17458699               22.89985899                0.00010000               -1.51314553                0.57297509               -0.54552246                0.69522821               12.76500615                0.03289732
               5.64234800                7.08259129               22.92720342                0.00010000               -2.03851065                0.72741220               -0.33297922                0.75875463               14.92956446                0.16307861
               6.62063208                6.99032418               22.95602503                0.00010000               -2.22760972                0.78169553               -0.21179244                0.40077570               15.00712585                0.42630472
               7.59779580                6.89738669               22.98560704                0.00010000               -2.26531905                0.68018566               -0.14689358                0.03604921               15.10661875                0.87351946
               8.57532570                6.80489316               23.01684345                0.00010000               -2.16407769                0.40082564               -0.11662413               -0.16305440               15.29901749                1.48619761
               9.55451425                6.71508064               23.05043700                0.22014470               -1.00471991               -0.00821549               -0.11229145               -0.16839916                7.75874110                2.24152918
              10.55523130                6.62890971               22.93079228                0.66508483                0.14514996                0.15115504               -0.53700469                0.00030639                0.06909162                0.80368577
              11.55741725                6.54305128               22.81033622                0.99279137                0.21859510                0.32774441               -0.96402318               -0.01303474                0.03655689               -0.59304754
               1.77823597                8.48340669               23.12414992                0.98270980               -0.04390081               -0.10124394                0.31722814               -0.02258129                0.01108853                0.84748579
               2.77779696                8.37886904               22.99549082                0.52342460                0.00413333                0.00694070               -0.01930768               -0.00065535                0.06124745               -0.62577524
               3.77831863                8.27396272               22.86778269                0.02020804               -0.72426071                0.11675958               -0.35880401                0.60441455                7.17372876               -2.14619487
               4.76331174                8.18063868               22.88137209                0.00010000               -1.84285252                0.68961204               -0.49369005                0.95928846               15.46780542               -0.09259735
               5.74146158                8.09091112               22.91972838                0.00010000               -2.33786245                0.95757699               -0.32192200                0.72586886               16.70426704                0.15994443
               6.71655450                7.99938572               22.95888336                0.00010000               -2.56779197                1.01419730               -0.19298712                0.25524298               16.82259190                0.37953133
               7.69010574                7.90525696               23.00026879                0.00010000               -2.62726636                0.94035778               -0.09641984               -0.24853794               17.08024110                0.70889826
               8.66400917                7.80944694               23.04511532                0.00010000               -2.50955029                0.57310867               -0.02645375               -0.71195724               17.45100262                1.22418076
               9.63991474                7.71482283               23.09424780                0.24821748               -1.18259814               -0.03616280                0.02045880               -0.51316181                8.85781529                2.01964166
              10.64035721                7.63023245               22.96734553                0.66157590                0.11779735                0.11621017               -0.42647232               -0.01100392                0.04057760                0.73217797
              11.64227068                7.54616681               22.83986086                0.98785004                0.19134794                0.29381864               -0.87720753               -0.01015019                0.02088462               -0.66828820
               1.88201659                9.48260588               23.09315861                0.97859044               -0.00388825               -0.06060111                0.18575576               -0.02198279               -0.00789116                0.72551885
               2.88197770                9.37915837               22.95703045                0.54478279                0.04564854                0.05049724               -0.16068230                0.00050349                0.07630675               -0.53894789
               3.88292956                9.27534308               22.82253442                0.00010000               -0.91690207                0.15788849               -0.50707472                0.86661982                8.94813779               -1.48720129
               4.86363966                9.18837923               22.86383901                0.00010000               -2.24056101                1.03530384               -0.45421495                0.94363086               18.03717611                0.02347657
               5.83811834                9.10174283               22.91158231                0.00010000               -2.61242813                1.13345500               -0.31413348                0.54719539               18.38239199                0.08957675
               6.81139110                9.01060812               22.96042837                0.00010000               -2.76772536                1.16647182               -0.17931798                0.14198558               18.56248606                0.21792037
               7.78276383                8.91619385               23.01240441                0.00010000               -2.99352111                1.15189607               -0.05637484               -0.31958153               18.95483198                0.40061941
               8.75152068                8.81635533               23.06978196                0.00010000               -2.96491627                1.02893297                0.05572315               -0.94748621               19.57784650                0.71775897
               9.72346551                8.71435739               23.13496775                0.27796907               -1.39267177               -0.03819812                0.13366472               -0.95558142               10.10312326                1.34474031
              10.72366724                8.63123391               23.00327715                0.68781702                0.09400076                0.08880016               -0.32749890               -0.02602312                0.11987465                0.59292211
              11.72534552                8.54892766               22.86850707                0.96768188                0.16782774                0.25927807               -0.80111036               -0.00971807               -0.02295009               -0.61359511
               1.98469134               10.48219467               23.05968543                0.98912784                0.03784904               -0.04112102                0.05452872                0.03590681                0.39763236                0.60516131
               2.98506983               10.37987899               22.92031375                0.81011394                0.08694150                0.07206192               -0.29703998                0.05550377                0.76385041               -0.45027938
               3.98643017               10.27712049               22.78821506                0.49063191               -1.46426087                0.17774150               -0.63726201                1.42335001               10.69496835               -0.94139032
               4.95578461               10.20134476               22.84746248                0.33674475               -2.81267890                1.29655351               -0.47906623                1.03748141               20.04185783                0.08998827
               5.93017659               10.11358022               22.90249578                0.32763103               -2.54207136                1.18373945               -0.33838256                0.27434537               19.92185613                0.05417087
               6.90494319               10.02271516               22.95978428                0.34534116               -2.61048442                1.21070350               -0.18421629                0.09094151               20.18383311                0.12612591
               7.87796690                9.92829488               23.02059069                0.38788407               -2.90236404                1.21010326               -0.03620531               -0.11417074               20.64196165                0.22722101
               8.84689591                9.83002560               23.08772344                0.49592372               -3.60211863                1.36702643                0.11029482               -1.17427778               21.41554595                0.41496498
               9.80592453                9.71405887               23.16505768                0.65645595               -2.08147176               -0.02985155                0.20316630               -1.65495471               11.57035600                0.83063778
              10.80526647                9.63200845               23.03684554                0.86873342                0.03821481                0.07745399               -0.24478001                0.02459781                0.82017489                0.48852629
              11.80668883                9.55135237               22.89891360                0.97910733                0.14223574                0.24247132               -0.72935076                0.06872284                0.34711324               -0.51478200
               0.98217558                0.54435178               24.36206433                1.00000000               -0.34783932               -0.37715192                1.31577888               -0.06582410               -0.81988554                0.85088902
               1.97869719                0.42468825               24.28102885                1.00000000               -0.29140775               -0.29885144                1.05581050               -0.05206548               -1.04916872                0.07073665
               2.97634742                0.30477038               24.19537824                1.00000000               -0.16282133               -0.22062705                0.78187156               -0.04126598               -1.00158592               -0.21010882
               3.97544076                0.18572708               24.11530292                0.63056688                0.28790212               -0.17354869                0.51807719                0.43703702               -0.08302289               -0.68295227
               4.98210547                0.07782231               24.04808082                0.70254093                0.43470450               -0.05618451                0.22383791               -0.08050481                0.36056207                0.19077352
               5.98413485               -0.02170062               23.97737100                0.77618082                0.14880575                0.02725254               -0.05322830               -0.00573343                0.00522004                0.10811765
               6.98508158               -0.11959656               23.90308555                0.75495008                0.08648398                0.10083295               -0.32795756                0.00677333               -0.19543704               -0.06684142
               7.98586453               -0.21766796               23.82827732                0.86329986                0.10483588                0.18858660               -0.61411783                0.01943411               -0.44255676                0.08665546
               8.98717830               -0.31776908               23.74883037                1.00000000                0.20164317                0.27830358               -0.89982649                0.00695046               -0.78362085                0.47985215
               9.98989739               -0.41940995               23.66702743                1.00000000                0.32734929                0.34863343               -1.17956196               -0.04045305               -0.82178353                0.00690315
              10.99372529               -0.52128540               23.58680010                1.00000000                0.38278926                0.42880659               -1.44597216               -0.05429079               -0.74592220               -0.75431103
               1.10118087                1.54058026               24.32986902                1.00000000               -0.32136411               -0.35835711                1.19247579               -0.02544685               -0.11221794                1.15671405
               2.09796723                1.42169973               24.24846807                1.00000000               -0.28827608               -0.27795398                0.93388323               -0.00812097               -0.09095144                0.09921841
               3.09541535                1.30256411               24.16745069                0.88170984               -0.23410329               -0.19809972                0.66676114                0.01674748                0.11601715               -0.57887841
               4.09328517                1.18399159               24.09014803                0.19329545               -0.52005427               -0.16131992                0.39430644                0.61929633                1.64438761               -1.08862800
               5.08501427                1.07726047               24.03962620                0.32972971               -0.52491059                0.06538928                0.15042681               -0.10753790                2.36881758                0.98635000
               6.08278695                0.97857191               23.97626873                0.41348506               -0.09406387                0.08777292               -0.10586126                0.13673577                1.50631527                0.40310290
               7.08313299                0.88141177               23.90838146                0.30970170                0.11790870                0.07380411               -0.36260712                0.18699830                1.40951261               -0.37040885
               8.08514513                0.78421791               23.84313118                0.47060097                0.24929046                0.18737570               -0.61336906                0.19640902                1.40818300                0.60185156
               9.08811880                0.68501396               23.77540853                1.00000000                0.30529480                0.26735884               -0.86540537                0.08775196                0.71798483                0.70224650
              10.09125102                0.58407639               23.69653125                1.00000000                0.34695172                0.34065571               -1.13025731                0.00247265                0.09208487                0.09674205
              11.09505783                0.48300267               23.61633707                1.00000000                0.38068079                0.42073994               -1.39575772               -0.01233270                0.02408868               -0.89452253
               1.21942770                2.53718464               24.30375391                1.00000000               -0.28767826               -0.32687262                1.08061445               -0.01800409                0.04094700                1.47066733
               2.21655092                2.41912917               24.21644041                1.00000000               -0.25185907               -0.24216504                0.81520963                0.00671709                0.19251861                0.07343686
               3.21439052                2.30080839               24.13211212                0.52917543               -0.17102929               -0.16505914                0.55971438                0.03912035                0.79647971               -1.33151088
               4.21313033                2.18250068               24.05685059                0.00010000               -1.45080645               -0.14491982                0.27834762                0.86444445                4.52537331               -1.99343713
               5.18537439                2.07913010               24.04708315                0.00010000               -1.52060324                0.14473278                0.07552264                1.61778642                5.07716625               -1.26630850
               6.18271827                1.98005484               23.98107543                0.00010000               -0.10994183               -0.07168907               -0.15058234                1.35835861                1.89022418               -0.37586567
               7.18317555                1.88187952               23.90762971                0.00010000                0.17361254               -0.14414438               -0.37984496                1.11957096                3.21857868                0.39968946
               8.18619052                1.78607955               23.86833077                0.00010000                0.29496517               -0.10396178               -0.61912031                0.75153569                3.76239272                0.93789456
               9.18907486                1.68757810               23.80650718                0.51056171                0.28838104                0.25958145               -0.81730453                0.14186726                1.78780806                1.40257213
              10.19195814                1.58740317               23.72789393                1.00000000                0.32756101                0.32645991               -1.07521937                0.01716607                0.64093649                0.62028641
              11.19562608                1.48712940               23.64312610                1.00000000                0.36679378                0.41030716               -1.35580667               -0.00818965                0.33243945               -0.90861347
               1.33693173                3.53404281               24.27781387                1.00000000               -0.24539083               -0.30298953                0.96684793               -0.01448819                0.06748321                1.42137104
               2.33447782                3.41685643               24.18333011                1.00000000               -0.20527422               -0.21132977                0.69359887                0.00704737                0.08217843               -0.03779801
               3.33282625                3.29926293               24.08908775                0.31062906               -0.11127395               -0.12652196                0.42448700                0.00113345                1.02932311               -1.61360107
               4.33225235                3.18109319               24.01352749                0.00010000               -0.65052092               -0.10055615                0.15379634                0.88382145                4.75140297               -2.66639629
               5.31981583                3.08015512               23.99368256                0.00010000               -1.25238198                0.03903395               -0.00023552                2.33319682                7.07912635               -3.10539479
               6.30720471                2.97713813               23.96445416                0.00010000               -1.01580664               -0.07837554               -0.16314582                1.92369716                6.27104070               -1.10402574
               7.29949970                2.87852888               23.92810118                0.00010000               -0.63637222               -0.15738699               -0.33666210                1.59938637                5.82577617                0.98677371
               8.29447726                2.78213867               23.88990683                0.00010000               -0.49335845               -0.17923002               -0.52164451                1.22156317                5.50742051                1.22254090
               9.28963253                2.69020559               23.84711262                0.20432884               -0.12171075                0.20024234               -0.73361522                0.41244229                3.46184658                2.63171253
              10.29204305                2.59060559               23.76790926                1.00000000                0.29045249                0.30034681               -0.99200338               -0.00001294                0.82870897                1.00021312
              11.29544158                2.49120881               23.67237090                1.00000000                0.33985316                0.40859462               -1.30903991               -0.01309349                0.01410373               -0.63455776
               1.45351069                4.53112485               24.25070001                1.00000000               -0.20389449               -0.27533707                0.84425450               -0.02028438                0.09180790                1.27788231
               2.45147175                4.41490257               24.14904163                0.91566657               -0.16671317               -0.17303156                0.56354694                0.00043568                0.12724770               -0.17570478
               3.45017643                4.29827795               24.04803814                0.16772388               -0.07785890               -0.07214332                0.29343993               -0.03802248                1.14520885               -1.52249485
               4.44991457                4.18048956               23.96672365                0.00010000               -0.70915178                0.06130065                0.00245223                0.68863351                6.09904075               -2.39510074
               5.43599339                4.07991078               23.96467893                0.00010000               -1.35480563                0.08389451               -0.09719670                1.33224811                9.66499718               -1.43190766
               6.42281845                3.97848733               23.95469783                0.00010000               -1.29153261                0.19395026               -0.18631338                1.19831366                8.98771046               -0.47571858
               7.41016274                3.87873178               23.93911987                0.00010000               -1.19366912                0.14030694               -0.29713471                1.04088250                8.57039422                0.62848586
               8.39894507                3.78249495               23.92065366                0.00010000               -1.06529770                0.11699933               -0.43405121                0.96337501                8.47163627                1.74604584
               9.38885679                3.69158295               23.90289575                0.17051652               -0.39952071                0.10599825               -0.60533199                0.40698982                4.61795958                3.13685956
              10.39095466                3.59341010               23.80696200                0.89397152                0.26504882                0.26093019               -0.91751589                0.00375074                0.39778317                1.00119603
              11.39415776                3.49530129               23.70456826                1.00000000                0.32031032                0.40662772               -1.24686880               -0.01888650                0.07922565               -0.45989739
               1.56897060                5.52853607               24.22187896                1.00000000               -0.16371592               -0.23637619                0.71264294               -0.02476073                0.12317256                1.10854330
               2.56733344                5.41339580               24.11313444                0.72051704               -0.12458902               -0.12645772                0.41519310               -0.00591887                0.24551643               -0.38162069
               3.56647882                5.29782006               24.00677986                0.09764759               -0.14706248               -0.01833675                0.13174370                0.02069724                1.78653227               -1.73852480
               4.56439219                5.18231921               23.92884725                0.00010000               -0.90079004                0.31210613               -0.25747968                0.46364034                7.92407528               -1.02898216
               5.54846302                5.08183301               23.94480328                0.00010000               -1.60211055                0.30637289               -0.20613772                1.02471535               12.10235487               -0.61573992
               6.53234998                4.98101713               23.95080624                0.00010000               -1.60766448                0.34916590               -0.20985949                0.77748464               11.38433537                0.02567151
               7.51630973                4.88133502               23.95258832                0.00010000               -1.57281914                0.33325351               -0.25733731                0.63534336               11.10066309                0.84013946
               8.50089359                4.78447866               23.95285516                0.00010000               -1.47262765                0.23437425               -0.33858494                0.62647102               11.08746957                1.78449340
               9.48685717                4.69232555               23.95406602                0.17618044               -0.62469388                0.05647091               -0.44947630                0.27481816                5.75072640                2.74540559
              10.48839972                4.59582419               23.84704149                0.76376522                0.22121508                0.22411134               -0.79790178                0.01080421                0.21124502                1.02518384
              11.49128147                4.49934136               23.73721900                1.00000000                0.28817581                0.39406120               -1.16757631               -0.02032746                0.07698283               -0.45691128
               1.68329601                6.52639733               24.19135875                0.99883901               -0.12266359               -0.18981363                0.57567021               -0.02470728                0.06801563                0.96156336
               2.68206937                6.41237342               24.07467925                0.59666258               -0.08145212               -0.07929778                0.26510961               -0.00570542                0.23791670               -0.56101263
               3.68166697                6.29791122               23.96134141                0.06104858               -0.34474746                0.03273290               -0.03362582                0.18239356                3.48676193               -2.07346878
               4.67517442                6.18673168               23.90963857                0.00010000               -1.19385976                0.48959865               -0.48862007                0.42273546               10.31268843                0.09514810
               5.65778977                6.08603824               23.93216626                0.00010000               -1.81541404                0.52271706               -0.28884919                0.77725707               13.81366749               -0.03525555
               6.63886614                5.98547065               23.95117109                0.00010000               -1.91908440                0.55181083               -0.22169387                0.51613572               13.51478330                0.35290739
               7.61940808                5.88539685               23.96801669                0.00010000               -1.91910928                0.48837487               -0.21257410                0.28893686               13.39633611                0.96101019
               8.60048396                5.78718244               23.98461822                0.00010000               -1.82002348                0.30546032               -0.24001444                0.21781592               13.46072794                1.70847091
               9.58300761                5.69271236               24.00242972                0.19389534               -0.81645132                0.02219309               -0.29372131                0.05574593                6.86823467                2.50876010
              10.58415493                5.59789233               23.88662111                0.68751234                0.18546258                0.18948396               -0.68178981                0.00921054                0.12431184                0.95213148
              11.58671687                5.50318251               23.76929344                1.00000000                0.25619345                0.36975605               -1.07555374               -0.01602070                0.05525401               -0.51413056
               1.79652426                7.52473980               24.15956770                0.98828378               -0.08188242               -0.14264286                0.43913799               -0.02350454                0.02865900                0.87441124
               2.79570544                7.41180985               24.03512432                0.53197182               -0.03779179               -0.03444081                0.11863104               -0.00302467                0.16215930               -0.62787866
               3.79576843                7.29847472               23.91329489                0.03911304               -0.54927816                0.07726323               -0.19814537                0.37155419                5.44627457               -2.25173639
               4.78471988                7.19211118               23.89453549                0.00010000               -1.52496216                0.57330610               -0.51083745                0.61802573               13.02203661                0.15136976
               5.76526919                7.09228735               23.92392381                0.00010000               -2.07028999                0.73004011               -0.32017008                0.68493367               15.42675482                0.22643083
               6.74331408                6.99205335               23.95388530                0.00010000               -2.24462549                0.78410203               -0.21570603                0.31862873               15.45241698                0.48398205
               7.72037668                6.89110252               23.98405651                0.00010000               -2.26898398                0.67959145               -0.16381347               -0.05241161               15.52928725                0.94139373
               8.69793440                6.79058786               24.01553923                0.00010000               -2.15572383                0.39783609               -0.14518957               -0.25691901               15.71326594                1.56997795
               9.67726220                6.69276941               24.04912211                0.21794396               -0.99103104               -0.00806478               -0.15149603               -0.21753318                7.97001089                2.34114667
              10.67811378                6.59961387               23.92526716                0.65012123                0.15592469                0.15504842               -0.56805255                0.00137824                0.07069633                0.85591252
              11.68038069                6.50673648               23.80058432                0.99256200                0.22669158                0.33898339               -0.98568252               -0.01237014                0.03743692               -0.58813199
               1.90868582                8.52354447               24.12726120                0.98241298               -0.04118632               -0.09810670                0.30481020               -0.02252000                0.01059219                0.85139476
               2.90827396                8.41168460               23.99527116                0.52049829                0.00554495                0.00922681               -0.02499076               -0.00057682                0.05937964               -0.64104403
               3.90879672                8.29945648               23.86420055                0.02141072               -0.72758248                0.11850193               -0.35801548                0.57407375                7.27685291               -2.18243032
               4.89372231                8.19819780               23.87655699                0.00010000               -1.86252213                0.69446337               -0.46133983                0.88753345               15.82381457                0.04670423
               5.87154628                8.10063904               23.91654057                0.00010000               -2.36493739                0.96152305               -0.31303317                0.66226294               17.20217723                0.23239403
               6.84642356                8.00115269               23.95691841                0.00010000               -2.58604678                1.02028666               -0.19959670                0.18344719               17.30770500                0.43073879
               7.81982534                7.89898868               23.99921128                0.00010000               -2.63724397                0.94657328               -0.11553479               -0.33045824               17.55975295                0.76327381
               8.79367868                7.79513916               24.04469528                0.00010000               -2.50971976                0.57642760               -0.05846594               -0.80461085               17.92787014                1.29573979
               9.76963094                7.69255107               24.09422792                0.24639525               -1.17316262               -0.02847624               -0.02563023               -0.56439314                9.10178430                2.10083612
              10.77021543                7.60099330               23.96289923                0.64596591                0.12966445                0.12408525               -0.46331612               -0.01148943                0.04270338                0.77323830
              11.77222423                7.50996218               23.83095640                0.98791632                0.20088068                0.30460562               -0.90336646               -0.00893657                0.02162774               -0.67281488
               2.01979360                9.52277766               24.09495412                0.97852013               -0.00117025               -0.05698987                0.17300810               -0.02193432               -0.00870713                0.73081534
               3.01978189                9.41199438               23.95539898                0.54258839                0.04715554                0.05234998               -0.16607465                0.00062046                0.07573901               -0.55012583
               4.02073671                9.30084476               23.81747590                0.00010000               -0.92469523                0.15810246               -0.50507328                0.83957094                9.14853771               -1.50754252
               5.00128799                9.20600045               23.85936865                0.00010000               -2.25885762                1.03975829               -0.43583766                0.89768383               18.48913013                0.11353519
               5.97555955                9.11151782               23.90844685                0.00010000               -2.63273042                1.13908237               -0.31143357                0.50991757               18.89181452                0.13337956
               6.94863338                9.01245908               23.95858304                0.00010000               -2.78892561                1.17709479               -0.18959566                0.09910126               19.08719642                0.24694637
               7.91978104                8.91003398               24.01173627                0.00010000               -3.01767949                1.16713480               -0.07751024               -0.37454332               19.49171296                0.43042499
               8.88827979                8.80211641               24.07018709                0.00010000               -2.98304227                1.04669210                0.02555751               -1.01668111               20.11186397                0.76588162
               9.86012020                8.69219989               24.13604194                0.27643585               -1.39034579               -0.02354855                0.07951045               -1.00473834               10.37655315                1.39468152
              10.86047287                8.60209557               23.99978723                0.66937962                0.10719990                0.10089356               -0.37145314               -0.02746552                0.12690868                0.61979900
              11.86226419                8.51282860               23.86033742                0.96838130                0.17913201                0.26995183               -0.83280044               -0.00835996               -0.02137379               -0.62624580
               2.12981369               10.52240467               24.06016822                0.98917363                0.04055753               -0.03729916                0.04161310                0.03470281                0.40085311                0.61077757
               3.13021927               10.41273160               23.91731977                0.80971661                0.08841901                0.07372197               -0.30232444                0.05443033                0.77300820               -0.45864517
               4.13158207               10.30261853               23.78185725                0.49000087               -1.46081701                0.17737685               -0.63492885                1.39760477               10.95741658               -0.95244242
               5.10100293               10.21899297               23.84268888                0.33713350               -2.81480408                1.29925187               -0.47485114                1.01160169               20.57347174                0.13590590
               6.07528599               10.12342068               23.89909566                0.32782198               -2.55567543                1.19028690               -0.34092436                0.25772470               20.47089193                0.07220782
               7.04988942               10.02469459               23.95787136                0.34515154               -2.63044243                1.22355031               -0.19861135                0.07113837               20.75628823                0.13635235
               8.02267714                9.92233137               24.02010830                0.38721990               -2.93551355                1.22973940               -0.06062802               -0.14146921               21.23224280                0.23814411
               8.99117915                9.81607300               24.08867402                0.49811457               -3.65600619                1.39565871                0.08094588               -1.22262807               21.99271307                0.43946510
               9.94955702                9.69208010               24.16679212                0.65618989               -2.10708695               -0.01197915                0.14170458               -1.70940938               11.87920014                0.85976837
              10.94903741                9.60301117               24.03414807                0.85836463                0.05169853                0.09155964               -0.29601431                0.02050953                0.85202482                0.50787406
              11.95059099                9.51536122               23.89143141                0.97925014                0.15535801                0.25326227               -0.76727054                0.06768434                0.36174313               -0.52978423
               1.05623273                0.58574560               25.37518837                1.00000000               -0.34653084               -0.37540696                1.30930071               -0.06517687               -0.83561297                0.86528689
               2.05276742                0.45858906               25.29155779                1.00000000               -0.29116520               -0.29709520                1.05041274               -0.05114377               -1.07211162                0.07537172
               3.05040943                0.33116885               25.20317504                1.00000000               -0.16498648               -0.21887593                0.77810632               -0.04134691               -1.02717513               -0.21038118
               4.04946769                0.20455647               25.12046695                0.63113448                0.27269967               -0.17196481                0.51550200                0.41684881               -0.11976971               -0.70415397
               5.05586342                0.08860132               25.05031179                0.70231942                0.41969665               -0.05636922                0.22316395               -0.08102693                0.31324377                0.20070672
               6.05786163               -0.01922186               24.97684522                0.77580453                0.14926365                0.02674357               -0.05171291               -0.00833275               -0.03413154                0.11446525
               7.05884869               -0.12539766               24.89982492                0.75448115                0.09407825                0.09971924               -0.32465334                0.00530911               -0.23981277               -0.06889240
               8.05974319               -0.23162886               24.82216996                0.86278946                0.11493588                0.18660595               -0.60837396                0.01524724               -0.49196866                0.09219290
               9.06114741               -0.33965937               24.73987895                1.00000000                0.20681085                0.27487576               -0.89165305                0.00373948               -0.82909211                0.49192252
              10.06387941               -0.44909130               24.65529226                1.00000000                0.32673509                0.34576876               -1.16870872               -0.03955089               -0.85692725                0.00675388
              11.06768211               -0.55874593               24.57240974                1.00000000                0.38027050                0.42626846               -1.43341306               -0.05221209               -0.77382056               -0.77965008
               1.18273751                1.58199153               25.34175941                1.00000000               -0.31931473               -0.35696228                1.18568896               -0.02469579               -0.11536756                1.17655056
               2.17954436                1.45561810               25.25777717                1.00000000               -0.28626270               -0.27628793                0.92819015               -0.00726612               -0.09830778                0.10536576
               3.17701225                1.32898009               25.17409629                0.88987746               -0.23122065               -0.19612405                0.66244105                0.01483762                0.10197587               -0.57543765
               4.17491995                1.20283682               25.09408193                0.20077324               -0.50349693               -0.15869062                0.39187356                0.59139388                1.64140868               -1.10685552
               5.16694232                1.08803763               25.04111165                0.33604366               -0.50710797                0.06282882                0.14692500               -0.10898997                2.37823877                0.99493802
               6.16477779                0.98104558               24.97520148                0.42045133               -0.09185163                0.08596466               -0.10744822                0.12460371                1.51153987                0.41333261
               7.16510528                0.87559953               24.90475806                0.31806864                0.11243649                0.07864016               -0.36225855                0.17613020                1.41799116               -0.36373887
               8.16702652                0.77023720               24.83700804                0.47701593                0.24053723                0.18653647               -0.61177334                0.17904946                1.41972425                0.60430115
               9.16991603                0.66308939               24.76677543                1.00000000                0.30003321                0.26516468               -0.86178485                0.08039477                0.72324631                0.72122772
              10.17302718                0.55436639               24.68525782                1.00000000                0.34492992                0.33823509               -1.12507286                0.00301871                0.09099606                0.10006721
              11.17681463                0.44551675               24.60241806                1.00000000                0.37874438                0.41974511               -1.38873624               -0.01041795                0.02314671               -0.92411754
               1.30848567                2.57860636               25.31452269                1.00000000               -0.28521300               -0.32609511                1.07303257               -0.01718611                0.04236619                1.49479835
               2.30563354                2.45306330               25.22456223                1.00000000               -0.24991019               -0.24050893                0.80928153                0.00743388                0.19889927                0.07962959
               3.30348747                2.32724637               25.13768149                0.54214402               -0.16977523               -0.16214163                0.55470530                0.03588950                0.79476438               -1.33739183
               4.30223804                2.20138265               25.05960940                0.00010000               -1.40063008               -0.14171756                0.27336818                0.82747758                4.54972115               -2.01210915
               5.27547486                2.08985790               25.04780336                0.00010000               -1.47231208                0.13409985                0.06873395                1.53696343                5.14995246               -1.25694384
               6.27279179                1.98249743               24.97954658                0.00010000               -0.11475979               -0.07273544               -0.15486671                1.28618907                1.95153655               -0.34525692
               7.27317967                1.87617515               24.90381464                0.00010000                0.15212644               -0.13882093               -0.38280584                1.05235032                3.27314266                0.44412087
               8.27583432                1.77210187               24.86212442                0.00010000                0.27232258               -0.09983341               -0.62271405                0.70195534                3.83444748                0.98911940
               9.27862612                1.66564393               24.79832150                0.51641353                0.28390487                0.25646331               -0.81994695                0.12473214                1.85013707                1.44599999
              10.28151242                1.55767340               24.71714089                1.00000000                0.32734530                0.32307538               -1.07537607                0.01338686                0.66252803                0.64062525
              11.28517303                1.44964897               24.62958090                1.00000000                0.36606063                0.41225578               -1.35320314               -0.00774078                0.34279976               -0.93961585
               1.43347990                3.57546963               25.28744078                1.00000000               -0.24268779               -0.30248092                0.95836412               -0.01394737                0.07214959                1.43973102
               2.43105302                3.45080793               25.19023643                1.00000000               -0.20346067               -0.20944874                0.68765221                0.00762776                0.08924487               -0.03739553
               3.42941069                3.32573726               25.09331837                0.32187946               -0.10975252               -0.12318493                0.42179997               -0.00311298                1.03663047               -1.63063418
               4.42885797                3.20000247               25.01504463                0.00010000               -0.64219412               -0.09828446                0.15121276                0.83756892                4.81542546               -2.69873138
               5.41656681                3.09071962               24.99366163                0.00010000               -1.23368264                0.02970974               -0.00360607                2.21237680                7.20424463               -3.10561515
               6.40418432                2.97959087               24.96279565                0.00010000               -1.00094789               -0.08223214               -0.16849324                1.81622181                6.39615902               -1.05966373
               7.39654785                2.87282312               24.92469632                0.00010000               -0.62937393               -0.16162304               -0.34447097                1.49784669                5.94734931                1.06249286
               8.39159684                2.76824054               24.88464254                0.00010000               -0.48543542               -0.17956434               -0.53135875                1.14972567                5.61711444                1.32175550
               9.38683914                2.66821866               24.83972994                0.20330329               -0.11534833                0.18530280               -0.74250229                0.37822763                3.54339375                2.71379275
              10.38928987                2.56082790               24.75795462                1.00000000                0.29347680                0.29662858               -0.99815284               -0.00744512                0.85832254                1.02914399
              11.39270868                2.45376187               24.65926491                1.00000000                0.34188001                0.41216393               -1.31138399               -0.01193427                0.01438908               -0.65526239
               1.55753013                4.57255674               25.25909538                1.00000000               -0.20116646               -0.27460596                0.83467490               -0.02009926                0.09980577                1.28711198
               2.55551847                4.44887432               25.15464683                0.90620746               -0.16497321               -0.17074129                0.55738550                0.00036169                0.14071481               -0.18864508
               3.55423067                4.32478267               25.05096094                0.17416279               -0.07557083               -0.06875738                0.29107738               -0.04418962                1.15458972               -1.55282877
               4.55400705                4.19941696               24.96677573                0.00010000               -0.70483322                0.05640530                0.00747072                0.64536538                6.18887510               -2.48613824
               5.54013400                4.09045209               24.96371643                0.00010000               -1.34971550                0.08173565               -0.09544989                1.24586674                9.86228438               -1.44654124
               6.52701274                3.98085279               24.95281265                0.00010000               -1.28235340                0.18683369               -0.19101355                1.11097091                9.19018668               -0.43736399
               7.51448693                3.87294268               24.93609648                0.00010000               -1.17897225                0.13100839               -0.30790697                0.95457244                8.76124769                0.70254902
               8.50343329                3.76851059               24.91623583                0.00010000               -1.04418113                0.10566375               -0.44973928                0.88049296                8.64449395                1.84274423
               9.49360331                3.66934998               24.89673864                0.16733736               -0.38064939                0.08234348               -0.62553874                0.36886403                4.71766694                3.25149192
              10.49582031                3.56360598               24.79770713                0.87463359                0.27315433                0.25783492               -0.93230859                0.00216293                0.42185158                1.04792176
              11.49906640                3.45789225               24.69205155                1.00000000                0.32460913                0.41288170               -1.25524856               -0.02039479                0.09465197               -0.46515810
               1.68044274                5.56997751               25.22895243                1.00000000               -0.16084214               -0.23516550                0.70195873               -0.02475137                0.12491411                1.11058170
               2.67883432                5.44739310               25.11725392                0.71246918               -0.12292452               -0.12361822                0.40848172               -0.00639431                0.25449446               -0.40425881
               3.67798425                5.32436211               25.00808877                0.10217271               -0.13692307               -0.01405727                0.12964198                0.00553937                1.75550064               -1.78537702
               4.67609586                5.20113057               24.92640120                0.00010000               -0.89679693                0.29884701               -0.23225599                0.42023397                8.05084707               -1.15418021
               5.66004832                5.09235434               24.94278879                0.00010000               -1.60913582                0.30425724               -0.19686003                0.94137371               12.42474768               -0.62305440
               6.64391315                4.98332754               24.94869248                0.00010000               -1.60334081                0.34390570               -0.21316906                0.69279149               11.67310540                0.06783794
               7.62798150                4.87544328               24.94995149                0.00010000               -1.55568720                0.32312847               -0.27054062                0.54863363               11.36693911                0.91401357
               8.61279940                4.77035381               24.94936490                0.00010000               -1.44302344                0.22025929               -0.35991020                0.53773413               11.33804067                1.88356592
               9.59912103                4.66986553               24.94942509                0.17279463               -0.60042669                0.03781352               -0.47864769                0.23442709                5.88743467                2.87070285
              10.60079087                4.56598460               24.83895858                0.74538890                0.23036000                0.22101682               -0.81765258                0.01389513                0.22338061                1.09116275
              11.60372823                4.46201950               24.72547345                1.00000000                0.29373632                0.40358703               -1.18013061               -0.02108162                0.07785308               -0.44736413
               1.80220392                6.56785343               25.19705771                0.99803700               -0.11979452               -0.18804869                0.56403114               -0.02464250                0.06717106                0.96119952
               2.80100598                6.44640196               25.07729826                0.59034371               -0.07999712               -0.07615135                0.25845585               -0.00616961                0.24314778               -0.58229781
               3.80060398                6.32450153               24.96099992                0.06406272               -0.32932376                0.03759553               -0.03508644                0.15664637                3.42904693               -2.12102813
               4.79441950                6.20539391               24.90495719                0.00010000               -1.19197360                0.47826894               -0.44503533                0.35769782               10.49190644                0.08425249
               5.77676451                6.09653724               24.92935022                0.00010000               -1.83199399                0.51956268               -0.27331921                0.69109862               14.25413737               -0.00753088
               6.75777962                5.98773090               24.94894185                0.00010000               -1.91655864                0.54644778               -0.22420159                0.42512925               13.88069556                0.40532389
               7.73843334                5.87940525               24.96581590                0.00010000               -1.90069452                0.47883427               -0.22816931                0.19654904               13.73512824                1.03474561
               8.71976573                5.77291577               24.98209091                0.00010000               -1.78861344                0.29309209               -0.26610026                0.12135097               13.78759149                1.80316453
               9.70266107                5.67010625               24.99932067                0.19089465               -0.79107499                0.01199215               -0.32842753                0.00880272                7.03727263                2.62413914
              10.70394423                5.56802631               24.87967430                0.67131397                0.19569414                0.18826224               -0.70691538                0.01249394                0.12868976                1.01247119
              11.70657495                5.46596399               24.75845182                1.00000000                0.26307171                0.38030908               -1.09158445               -0.01606086                0.05669009               -0.50009731
               1.92285283                7.56621654               25.16389822                0.98772716               -0.07899995               -0.14026294                0.42683041               -0.02344776                0.02793541                0.87533880
               2.92206283                7.44587007               25.03627936                0.52721628               -0.03637981               -0.03142263                0.11209605               -0.00316449                0.16343471               -0.64563049
               3.92212524                7.32511402               24.91131133                0.04083879               -0.54243617                0.08157919               -0.19891421                0.33958769                5.46088486               -2.29572551
               4.91121411                7.21069595               24.88964224                0.00010000               -1.52959731                0.56728543               -0.46162196                0.53300403               13.27923042                0.27165146
               5.89153329                7.10274559               24.92080002                0.00010000               -2.08331982                0.72493620               -0.30270793                0.59698722               15.89380845                0.29091010
               6.86954771                6.99425650               24.95171091                0.00010000               -2.24028390                0.77859242               -0.21906180                0.22663186               15.87408236                0.54295963
               7.84672761                6.88501997               24.98233077                0.00010000               -2.25111461                0.67187089               -0.18192213               -0.14751230               15.93112985                1.01073698
               8.82452542                6.77621565               25.01393966                0.00010000               -2.12705330                0.38990539               -0.17550313               -0.35651996               16.10746842                1.65425320
               9.80418655                6.67010537               25.04740708                0.21554469               -0.96712051               -0.00932665               -0.19198983               -0.26901998                8.17052365                2.43889222
              10.80518301                6.56974984               24.91943123                0.63484809                0.16725555                0.15754138               -0.59897299                0.00294375                0.07157700                0.90838486
              11.80753166                6.46962569               24.79062257                0.99221790                0.23486465                0.34967105               -1.00591410               -0.01171869                0.03811692               -0.58003919
               2.04242789                8.56504817               25.13024612                0.98210922               -0.03826924               -0.09506851                0.29194706               -0.02247180                0.01008352                0.85458116
               3.04204520                8.44577351               24.99499101                0.51737078                0.00709806                0.01185822               -0.03139383               -0.00035942                0.05742703               -0.65576265
               4.04256986                8.32613311               24.86062238                0.02180942               -0.72985938                0.12107511               -0.35793318                0.53857590                7.39656681               -2.21661784
               5.02744801                8.21673961               24.87214530                0.00010000               -1.87130734                0.69110467               -0.41481091                0.80700290               16.17689712                0.17857182
               6.00514371                8.11103596               24.91346771                0.00010000               -2.37050662                0.95548678               -0.29988811                0.58850403               17.66928569                0.30237341
               6.98003788                8.00330275               24.95489142                0.00010000               -2.58098880                1.01688034               -0.20574224                0.10523014               17.76944722                0.48224183
               7.95352393                7.89284267               24.99795810                0.00010000               -2.62439752                0.94426795               -0.13548821               -0.41612187               18.01709317                0.81965203
               8.92754993                7.78071388               25.04394600                0.00010000               -2.48887272                0.57392882               -0.09201543               -0.89980390               18.38084092                1.37141677
               9.90374648                7.66991972               25.09373520                0.24454329               -1.15335695               -0.02092775               -0.07377778               -0.61634302                9.33208193                2.17863031
              10.90448279                7.57117714               24.95807921                0.63009856                0.14212040                0.13156025               -0.50106461               -0.01176924                0.04388337                0.81339806
              11.90658889                7.47295741               24.82179353                0.98789823                0.21060941                0.31510247               -0.92894043               -0.00767269                0.02221349               -0.67528444
               2.16095272                9.56431517               25.09661878                0.97845444                0.00179818               -0.05330799                0.15959612               -0.02192227               -0.00949591                0.73550496
               3.16097070                9.44610724               24.95370896                0.54028467                0.04889629                0.05454951               -0.17239403                0.00080603                0.07528804               -0.56085790
               4.16193065                9.32753552               24.81243295                0.00010000               -0.92596925                0.15879131               -0.50384161                0.80251734                9.35583284               -1.52614427
               5.14245132                9.22451805               24.85512225                0.00010000               -2.25952074                1.03413988               -0.41073473                0.84437139               18.93441414                0.18933619
               6.11674023                9.12185533               24.90535364                0.00010000               -2.63028570                1.13453951               -0.30645905                0.46721485               19.37704011                0.17446168
               7.08984560                9.01459410               24.95663646                0.00010000               -2.78730930                1.17814075               -0.19987478                0.05342150               19.59060573                0.27596479
               8.06099405                8.90390533               25.01085420                0.00010000               -3.01966554                1.17355169               -0.09899367               -0.43073515               20.00898056                0.46194608
               9.02945229                8.78769423               25.07029311                0.00010000               -2.97988100                1.05635779               -0.00333939               -1.08510485               20.61696374                0.82056930
              10.00139643                8.66968682               25.13655796                0.27517153               -1.37711788               -0.00829244                0.02231989               -1.05125897               10.62952214                1.44088449
              11.00190993                8.57238105               24.99584808                0.65089264                0.12106166                0.11335550               -0.41726534               -0.02870965                0.13293558                0.64507422
              12.00381766                8.47592773               24.85185106                0.96876849                0.19077241                0.28056505               -0.86461502               -0.00692484               -0.01958898               -0.63762294
               2.27840531               10.56398201               25.06051770                0.98922658                0.04356579               -0.03331577                0.02788134                0.03350745                0.40372758                0.61587826
               3.27884096               10.44686450               24.91426726                0.80924107                0.09020442                0.07572588               -0.30876514                0.05337267                0.78185207               -0.46664656
               4.28020940               10.32930894               24.77551648                0.48914424               -1.44126621                0.17734117               -0.63360172                1.35577067               11.21736749               -0.96225938
               5.25001564               10.23742241               24.83796546                0.33749620               -2.78987232                1.29043661               -0.46981436                0.97732305               21.09484476                0.16852676
               6.22441195               10.13372675               24.89567730                0.32801215               -2.54796648                1.18714233               -0.34266547                0.23932956               21.00167819                0.08882782
               7.19905631               10.02686557               24.95581205                0.34495892               -2.63014225                1.22714646               -0.21374543                0.05041857               21.30842546                0.14686351
               8.17180910                9.91631371               25.01937812                0.38653271               -2.94949818                1.24083775               -0.08554235               -0.16972067               21.80572197                0.25051555
               9.14006635                9.80184104               25.08934236                0.50058729               -3.68873109                1.41468076                0.05494645               -1.26658612               22.53810069                0.47007633
              10.09803448                9.66975387               25.16789177                0.65613893               -2.11993334                0.00670572                0.07640564               -1.75603362               12.16129386                0.88545064
              11.09766768                9.57344425               25.03092526                0.84802744                0.06612652                0.10632039               -0.34985892                0.01651662                0.88197988                0.52557496
              12.09935701                9.47856871               24.88356819                0.97933133                0.16893321                0.26409781               -0.80579042                0.06638172                0.37631465               -0.54369468
               1.13272448                0.62851544               26.38825034                1.00000000               -0.34561903               -0.37384814                1.30343382               -0.06450036               -0.85065824                0.87895315
               2.12926829                0.49375692               26.30203711                1.00000000               -0.29148603               -0.29543128                1.04583964               -0.05017001               -1.09408655                0.07995716
               3.12689476                0.35872024               26.21094037                1.00000000               -0.16798428               -0.21713352                0.77538185               -0.04160871               -1.05163048               -0.21046909
               4.12590861                0.22441405               26.12561296                0.63153300                0.25486544               -0.17020162                0.51412854                0.39476123               -0.15508654               -0.72415740
               5.13199207                0.10023673               26.05254410                0.70167491                0.40152432               -0.05690606                0.22409848               -0.08015214                0.26735155                0.21025938
               6.13393909               -0.01612383               25.97633675                0.77487518                0.14842592                0.02610325               -0.04963290               -0.01064499               -0.07272793                0.12079414
               7.13496059               -0.13084069               25.89659249                0.75366882                0.10160158                0.09879493               -0.32220429                0.00374389               -0.28333561               -0.07065640
               8.13597113               -0.24550027               25.81610984                0.86178441                0.12567818                0.18497386               -0.60462524                0.01096635               -0.53973488                0.09720002
               9.13747415               -0.36172359               25.73099731                1.00000000                0.21284678                0.27195490               -0.88590082                0.00069420               -0.87240043                0.50414594
              10.14022806               -0.47920597               25.64365326                1.00000000                0.32698880                0.34350775               -1.16042452               -0.03854735               -0.89021287                0.00682050
              11.14401393               -0.59689504               25.55813184                1.00000000                0.37858683                0.42441996               -1.42355843               -0.05027154               -0.80037632               -0.80342690
               1.26683800                1.62477696               26.35358280                1.00000000               -0.31738066               -0.35581008                1.17912954               -0.02386277               -0.11852508                1.19539267
               2.26366419                1.49080261               26.26703187                1.00000000               -0.28439434               -0.27472108                0.92295738               -0.00631240               -0.10571364                0.11154618
               3.26115011                1.35654891               26.18069951                0.89809725               -0.22831076               -0.19408842                0.65830105                0.01266476                0.08788089               -0.57137061
               4.25909798                1.22271203               26.09798551                0.20779177               -0.48453133               -0.15591282                0.38856478                0.56065176                1.63760825               -1.12434227
               5.25145949                1.09966767               26.04256470                0.34155622               -0.48633145                0.06022586                0.14413762               -0.10653182                2.38739862                1.00308515
               6.24937135                0.98413721               25.97411976                0.42652814               -0.08866186                0.08396778               -0.10862711                0.11391077                1.51778518                0.42377191
               7.24968625                0.87014726               25.90113629                0.32594372                0.10754449                0.08321769               -0.36234173                0.16561208                1.42704408               -0.35682017
               8.25152224                0.75634947               25.83089571                0.48287146                0.23238495                0.18638571               -0.61134231                0.16250924                1.43162096                0.60549233
               9.25433395                0.64099596               25.75817284                1.00000000                0.29530386                0.26335853               -0.85942745                0.07333002                0.72888801                0.73948799
              10.25742832                0.52422910               25.67402979                1.00000000                0.34331677                0.33624195               -1.12129239                0.00372173                0.09018243                0.10396078
              11.26120028                0.40734916               25.58856235                1.00000000                0.37719675                0.41926385               -1.38318264               -0.00858800                0.02258530               -0.95131076
               1.40019593                2.62139924               26.32521457                1.00000000               -0.28258315               -0.32561152                1.06529585               -0.01640336                0.04368178                1.51773800
               2.39737010                2.48826250               26.23262605                1.00000000               -0.24786475               -0.23893445                0.80356623                0.00800817                0.20480594                0.08609841
               3.39523864                2.35483847               26.14320622                0.55571749               -0.16836075               -0.15890550                0.55053494                0.03169165                0.79131348               -1.34109198
               4.39400289                2.22129579               26.06231795                0.00010000               -1.34011884               -0.13798978                0.26817370                0.78611913                4.57079221               -2.02743301
               5.36843626                2.10144124               26.04845783                0.00010000               -1.41325874                0.12310398                0.06310537                1.44749745                5.22099663               -1.24556933
               6.36573771                1.98555553               25.97797809                0.00010000               -0.11878465               -0.07292131               -0.15818770                1.20521353                2.01330241               -0.31381367
               7.36606057                1.87082367               25.89997360                0.00010000                0.13174504               -0.13251806               -0.38538580                0.97927343                3.32629063                0.48780828
               8.36837261                1.75822745               25.85587649                0.00010000                0.25002772               -0.09435518               -0.62801900                0.64918032                3.90431347                1.03840532
               9.37106112                1.64354358               25.79010824                0.52145401                0.27883457                0.25341703               -0.82300801                0.10728919                1.91189894                1.48793849
              10.37394930                1.52751886               25.70638641                1.00000000                0.32704719                0.31965606               -1.07557696                0.00964332                0.68426077                0.66174010
              11.37760207                1.41149023               25.61606204                1.00000000                0.36527625                0.41418737               -1.35060812               -0.00743758                0.35327645               -0.96734222
               1.53278341                3.61826473               26.29698115                1.00000000               -0.23982888               -0.30219029                0.94956421               -0.01368223                0.07686449                1.45688526
               2.53038513                3.48602392               26.19708316                1.00000000               -0.20163787               -0.20751589                0.68167853                0.00782267                0.09672038               -0.03663979
               3.52875066                3.35337080               26.09752374                0.33289397               -0.10837664               -0.11937513                0.41944128               -0.00854999                1.04377966               -1.64529087
               4.52821759                3.21995224               26.01655174                0.00010000               -0.63004797               -0.09427851                0.15098740                0.78463172                4.87667463               -2.72399910
               5.51614970                3.10212974               25.99361043                0.00010000               -1.20621990                0.02057755               -0.00632273                2.07462206                7.32537035               -3.10039751
               6.50409320                2.98267878               25.96108429                0.00010000               -0.97749481               -0.08561529               -0.17370756                1.69357953                6.51607558               -1.01344977
               7.49659980                2.86749690               25.92121176                0.00010000               -0.61536326               -0.16480369               -0.35279396                1.38437676                6.06361655                1.13729313
               8.49178593                2.75446237               25.87927965                0.00010000               -0.47057434               -0.17999875               -0.54162048                1.06937895                5.72331157                1.41910450
               9.48718831                2.64606430               25.83226258                0.20177387               -0.10556977                0.16870246               -0.75059716                0.34187770                3.62356012                2.79201569
              10.48967453                2.53062222               25.74794620                1.00000000                0.29602408                0.29228576               -1.00244418               -0.01509643                0.88742856                1.05730161
              11.49310880                2.41563290               25.64614322                1.00000000                0.34342620                0.41496750               -1.31191844               -0.01093736                0.01423092               -0.67324215
               1.66440391                4.61535544               26.26739351                1.00000000               -0.19834198               -0.27396775                0.82479728               -0.02020106                0.10792509                1.29507073
               2.66242049                4.48411218               26.16018934                0.89676805               -0.16322929               -0.16823617                0.55103834               -0.00013052                0.15452091               -0.20151673
               3.66113932                4.35245097               26.05385969                0.18009427               -0.07419579               -0.06486296                0.28867933               -0.05055368                1.16604821               -1.58188427
               4.66093657                4.21941022               25.96687306                0.00010000               -0.69685829                0.05509555                0.01188637                0.59466701                6.27907037               -2.56412303
               5.64720216                4.10185279               25.96276993                0.00010000               -1.33472148                0.08041967               -0.09400549                1.14749954               10.05192664               -1.45341728
               6.63424214                3.98384322               25.95087756                0.00010000               -1.26188209                0.17829550               -0.19630068                1.01154967                9.38240278               -0.39569483
               7.62196452                3.86752759               25.93296173                0.00010000               -1.15246769                0.11994807               -0.31950916                0.85802674                8.94225927                0.77695535
               8.61119279                3.75462747               25.91165887                0.00010000               -1.01128484                0.09162643               -0.46594734                0.78924553                8.80826129                1.93742095
               9.60173882                3.64691763               25.89038497                0.16375358               -0.35570076                0.05466395               -0.64448943                0.32804889                4.81318658                3.36048227
              10.60407877                3.53336458               25.78831583                0.85493115                0.28115714                0.25290277               -0.94426484                0.00081931                0.44652557                1.09381958
              11.60736196                3.41978958               25.67946329                1.00000000                0.32831871                0.41804536               -1.26063223               -0.02249953                0.11054099               -0.46758554
               1.79486590                5.61278538               26.23591813                1.00000000               -0.15789179               -0.23399586                0.69106135               -0.02489681                0.12640788                1.11137317
               2.79328698                5.48265920               26.12130407                0.70441108               -0.12121758               -0.12050814                0.40138353               -0.00711053                0.26353119               -0.42668656
               3.79244155                5.35207354               26.00937270                0.10604322               -0.12889346               -0.00914399                0.12687345               -0.00776976                1.73617069               -1.83076834
               4.79070911                5.22105415               25.92420213                0.00010000               -0.88874305                0.28827338               -0.20852407                0.36951402                8.17959103               -1.25841078
               5.77466669                5.10373814               25.94086607                0.00010000               -1.60298619                0.30117983               -0.18788215                0.84381185               12.72847030               -0.62123918
               6.75864939                4.98624469               25.94654286                0.00010000               -1.58452985                0.33577393               -0.21715252                0.59649773               11.94540897                0.11362223
               7.74297609                4.86989586               25.94717750                0.00010000               -1.52342931                0.30924437               -0.28481644                0.45236424               11.61845741                0.98852422
               8.72818080                4.75629490               25.94565696                0.00010000               -1.39819523                0.20217494               -0.38209188                0.43999761               11.57436604                1.98110295
               9.71501218                4.64715758               25.94449306                0.16901425               -0.56809151                0.01477638               -0.50768411                0.19081199                6.01812929                2.99278858
              10.71681897                4.53568028               25.83068844                0.72667368                0.23983079                0.21522662               -0.83504777                0.01775108                0.23675347                1.15723358
              11.71980880                4.42399381               25.71361639                1.00000000                0.29898288                0.41209346               -1.18951565               -0.02196417                0.07834808               -0.43426773
               1.92415833                6.61067552               26.20263937                0.99721408               -0.11682130               -0.18636093                0.55218535               -0.02460962                0.06626439                0.95975345
               2.92299012                6.48170202               26.07984837                0.58387550               -0.07846755               -0.07273550                0.25135992               -0.00666921                0.24840637               -0.60302927
               3.92258898                6.35226809               25.96063968                0.06631077               -0.31639317                0.04321088               -0.03732621                0.13276830                3.39298438               -2.16680115
               4.91666225                6.22517569               25.90073786                0.00010000               -1.18505642                0.46509754               -0.39715561                0.28574936               10.67432158                0.08961925
               5.89888785                6.10787639               25.92669987                0.00010000               -1.83239408                0.51249626               -0.25643385                0.58965062               14.66470099                0.02676385
               6.88001437                5.99055870               25.94668706                0.00010000               -1.89631282                0.53591419               -0.22707653                0.32258391               14.22438435                0.46033775
               7.86096159                5.87371248               25.96345330                0.00010000               -1.86416744                0.46395967               -0.24497350                0.09533496               14.05505739                1.10923401
               8.84273102                5.75867097               25.97929621                0.00010000               -1.73959600                0.27614704               -0.29338941                0.01636656               14.09701451                1.89714660
               9.82616967                5.64721316               25.99586117                0.18751346               -0.75667278               -0.00124289               -0.36367998               -0.04164688                7.19802860                2.73807937
              10.82759757                5.53766911               25.87248280                0.65474234                0.20629716                0.18481894               -0.73064939                0.01645742                0.13343325                1.07243871
              11.83029562                5.42803145               25.74746175                1.00000000                0.26980497                0.39000921               -1.10530464               -0.01618870                0.05789212               -0.48284010
               2.05232070                7.60905816               26.16810430                0.98715809               -0.07596783               -0.13799901                0.41422599               -0.02339756                0.02718686                0.87537141
               3.05156102                7.48120449               26.03736624                0.52227705               -0.03487285               -0.02811368                0.10501817               -0.00321388                0.16471674               -0.66284260
               4.05162325                7.35293776               25.90931661                0.04171912               -0.53726119                0.08672052               -0.20040966                0.30681974                5.50095957               -2.33781621
               5.04081580                7.23035610               25.88530305                0.00010000               -1.52732804                0.55567666               -0.40215399                0.44014819               13.54015970                0.39630538
               6.02107668                7.11398806               25.91786965                0.00010000               -2.07754130                0.71282466               -0.28259989                0.49524441               16.32575654                0.35641249
               6.99926497                6.99696297               25.94950406                0.00010000               -2.21530822                0.76566373               -0.22259769                0.12473689               16.27023229                0.60296418
               7.97677052                6.87917506               25.98041807                0.00010000               -2.21287605                0.65729024               -0.20124660               -0.24970523               16.31127594                1.08152017
               8.95500745                6.76181784               26.01202917                0.00010000               -2.07947076                0.37715379               -0.20719654               -0.46274805               16.48119880                1.73892807
               9.93518111                6.64713272               26.04528231                0.21288210               -0.93388123               -0.01201842               -0.23319263               -0.32357403                8.36015181                2.53419462
              10.93632983                6.53937666               25.91328770                0.61921466                0.17896207                0.15876453               -0.62952109                0.00492325                0.07179441                0.96005262
              11.93876035                6.43179399               25.78046604                0.99176764                0.24305178                0.35982769               -1.02485685               -0.01105453                0.03857334               -0.56958370
               2.17939772                8.60791554               26.13310014                0.98179861               -0.03514770               -0.09209853                0.27861373               -0.02244893                0.00959172                0.85694827
               3.17904624                8.48113975               25.99464328                0.51392671                0.00880223                0.01482401               -0.03849451               -0.00002931                0.05558663               -0.67001960
               4.17957376                8.35400250               25.85704189                0.02131299               -0.73156660                0.12450049               -0.35845456                0.49831497                7.53970776               -2.24873579
               5.16441491                8.23628922               25.86826078                0.00010000               -1.86939507                0.68054557               -0.35892668                0.71850825               16.53108830                0.29870207
               6.14218586                8.12213288               25.91054281                0.00010000               -2.35463974                0.94047017               -0.28472961                0.50461105               18.10094896                0.36851642
               7.11732212                8.00587198               25.95280357                0.00010000               -2.55366179                1.00473881               -0.21223611                0.02026813               18.20640372                0.53375824
               8.09111263                7.88685829               25.99650152                0.00010000               -2.59018602                0.93389096               -0.15620859               -0.50622246               18.45147561                0.87854892
               9.06551840                7.76621405               26.04285497                0.00010000               -2.44866276                0.56567994               -0.12656137               -0.99888226               18.80878048                1.45304563
              10.04213937                7.64697279               26.09275237                0.24261280               -1.12418163               -0.01358581               -0.12322341               -0.66975425                9.54771582                2.25216408
              11.04303476                7.54084440               25.95287793                0.61395560                0.15502418                0.13871759               -0.53945593               -0.01180620                0.04393084                0.85182085
              12.04523986                7.43522801               25.81237759                0.98780262                0.22050929                0.32537416               -0.95419225               -0.00633360                0.02260898               -0.67621322
               2.30542331                9.60721619               26.09814604                0.97839555                0.00501680               -0.04955718                0.14552545               -0.02195244               -0.01024760                0.73952599
               3.30547348                9.48150097               25.95195110                0.53754404                0.05083817                0.05711597               -0.17964862                0.00114272                0.07524355               -0.57129238
               4.30644007                9.35542777               25.80739907                0.00010000               -0.92089454                0.16018888               -0.50323221                0.75617515                9.57348462               -1.54308048
               5.28705558                9.24396701               25.85115395                0.00010000               -2.24269599                1.01939350               -0.38256878                0.78469005               19.37540072                0.24477024
               6.26158615                9.13279747               25.90231767                0.00010000               -2.60553252                1.12085238               -0.30114933                0.41889194               19.83626375                0.21172238
               7.23494493                9.01705775               25.95458555                0.00010000               -2.76410745                1.17043474               -0.21091331                0.00451961               20.07225848                0.30488821
               8.20630400                8.89785288               26.00975640                0.00010000               -3.00148159                1.17177757               -0.12058231               -0.48888364               20.50748930                0.49578222
               9.17491530                8.77313144               26.07012030                0.00010000               -2.95741692                1.05809881               -0.02946572               -1.15413747               21.09084791                0.88481680
              10.14715566                8.64686101               26.13648834                0.27416266               -1.35384052                0.00743512               -0.03724764               -1.09598980               10.85865548                1.48247895
              11.14783849                8.54215101               25.99144192                0.63235298                0.13554026                0.12619624               -0.46480682               -0.02968539                0.13765682                0.66812969
              12.14986647                8.43830148               25.84304512                0.96882913                0.20279771                0.29125259               -0.89703741               -0.00537563               -0.01760457               -0.64786683
               2.43038911               10.60692440               26.06072585                0.98928828                0.04684100               -0.02917922                0.01336118                0.03234741                0.40619118                0.62044186
               3.43085752               10.48228207               25.91114447                0.80853013                0.09210585                0.07810985               -0.31643024                0.05249868                0.79072115               -0.47444125
               4.43223123               10.35720628               25.76918522                0.48797405               -1.40592544                0.17785144               -0.63323099                1.29886687               11.47575001               -0.97090077
               5.40273901               10.25667709               25.83329259                0.33783212               -2.73791327                1.27100826               -0.46583471                0.93552524               21.60676212                0.18307124
               6.37747296               10.14454993               25.89224235                0.32819859               -2.51909563                1.17524647               -0.34523194                0.21886004               21.51421175                0.10362312
               7.35235710               10.02928067               25.95359645                0.34476365               -2.61058458                1.22229215               -0.23027325                0.02841181               21.84026505                0.15784923
               8.32526127                9.91029384               26.01839746                0.38582399               -2.94647919                1.24409618               -0.11062491               -0.19950569               22.36479202                0.26497485
               9.29342752                9.78737602               26.08977295                0.50334005               -3.70306340                1.42445868                0.03442825               -1.30739590               23.04894130                0.50966018
              10.25120000                9.64712150               26.16832024                0.65632261               -2.12134643                0.02604869                0.00772980               -1.79595092               12.41137025                0.90688779
              11.25100059                9.54336833               26.02715089                0.83775761                0.08157040                0.12173172               -0.40641194                0.01278756                0.90963720                0.54114437
              12.25283141                9.44105306               25.87531560                0.97933851                0.18308237                0.27515803               -0.84562671                0.06496709                0.39086648               -0.55640833
               1.21164604                0.67265975               27.40125705                1.00000000               -0.34503676               -0.37245919                1.29820017               -0.06382710               -0.86474262                0.89167495
               2.20819567                0.53019867               27.31247459                1.00000000               -0.29225370               -0.29385755                1.04198160               -0.04915797               -1.11471830                0.08459216
               3.20580096                0.38744118               27.21868267                1.00000000               -0.17167203               -0.21543580                0.77349126               -0.04199376               -1.07454398               -0.21034412
               4.20476223                0.24532823               27.13074952                0.63176315                0.23428537               -0.16832505                0.51365677                0.37067551               -0.18839968               -0.74363358
               5.21048667                0.11276530               27.05479376                0.70076056                0.37982272               -0.05797007                0.22687264               -0.07807586                0.22271161                0.21998531
               6.21235868               -0.01237201               26.97585256                0.77376388                0.14611080                0.02516753               -0.04678872               -0.01286279               -0.11200577                0.12745850
               7.21340888               -0.13589839               26.89338083                0.75277756                0.10924953                0.09804143               -0.32040667                0.00190454               -0.32751171               -0.07226497
               8.21454367               -0.25925658               26.81007745                0.86028279                0.13735522                0.18369916               -0.60257900                0.00641626               -0.58675727                0.10137306
               9.21615599               -0.38392750               26.72216093                1.00000000                0.21984757                0.26957264               -0.88235946               -0.00219753               -0.91393782                0.51637532
              10.21894062               -0.50970796               26.63208377                1.00000000                0.32807195                0.34204172               -1.15463120               -0.03732972               -0.92194789                0.00684337
              11.22271743               -0.63567549               26.54393857                1.00000000                0.37768048                0.42358287               -1.41634901               -0.04837376               -0.82598695               -0.82611790
               1.35346885                1.66893516               27.36534200                1.00000000               -0.31554775               -0.35484938                1.17282959               -0.02299155               -0.12168222                1.21309200
               2.35031337                1.52726009               27.27623632                1.00000000               -0.28263061               -0.27323405                0.91807417               -0.00530025               -0.11327283                0.11788637
               3.34781624                1.38528682               27.18726231                0.90671632               -0.22532271               -0.19204417                0.65432661                0.01028798                0.07327857               -0.56620333
               4.34580692                1.24364498               27.10185322                0.21435146               -0.46301041               -0.15302386                0.38475062                0.52694147                1.63351312               -1.14093432
               5.33855603                1.11218560               27.04399441                0.34640057               -0.46225087                0.05677370                0.14264887               -0.10086641                2.39714602                1.01199603
               6.33656190                0.98787967               26.97302894                0.43204359               -0.08429067                0.08143194               -0.10895844                0.10399040                1.52476942                0.43517168
               7.33687022                0.86508202               26.89751122                0.33364258                0.10302437                0.08771197               -0.36291740                0.15494720                1.43619406               -0.34969960
               8.33862239                0.74258041               26.82478120                0.48830195                0.22447419                0.18713093               -0.61228686                0.14642401                1.44367354                0.60419531
               9.34135970                0.61876822               26.74958688                1.00000000                0.29094650                0.26202312               -0.85854115                0.06651204                0.73488196                0.75662214
              10.34444132                0.49371246               26.66283197                1.00000000                0.34207603                0.33498785               -1.11923237                0.00476637                0.08962320                0.10824354
              11.34820122                0.36856034               26.57475440                1.00000000                0.37599024                0.41983748               -1.37948158               -0.00671892                0.02244292               -0.97640462
               1.49453635                2.66556277               27.33582860                1.00000000               -0.27983453               -0.32533857                1.05748674               -0.01566197                0.04477395                1.53951770
               2.49173800                2.52473398               27.24063356                1.00000000               -0.24572593               -0.23741262                0.79795076                0.00844959                0.21028221                0.09298688
               3.48962183                2.38360030               27.14869219                0.57002616               -0.16678631               -0.15544222                0.54678542                0.02676129                0.78571927               -1.34209040
               4.48840228                2.24226776               27.06497287                0.00010000               -1.26935853               -0.13388042                0.26260159                0.73991688                4.58916768               -2.03758083
               5.46423466                2.11390078               27.04906546                0.00010000               -1.34301013                0.11069838                0.06053550                1.34872534                5.29114671               -1.23199354
               6.46154207                1.98925663               26.97638282                0.00010000               -0.12137846               -0.07286306               -0.15984104                1.11488369                2.07543935               -0.28152065
               7.46180709                1.86585585               26.89610693                0.00010000                0.11219393               -0.12505865               -0.38840414                0.89920011                3.37735564                0.53017057
               8.46378595                1.74448603               26.84956404                0.00010000                0.22735460               -0.08700844               -0.63618304                0.59234869                3.97206016                1.08506124
               9.46635418                1.62131296               26.78186134                0.52569838                0.27289425                0.25070088               -0.82704234                0.08949266                1.97415784                1.52808453
              10.46924384                1.49699180               26.69562935                1.00000000                0.32665551                0.31660263               -1.07635411                0.00623928                0.70656711                0.68430586
              11.47288729                1.37272126               26.60256873                1.00000000                0.36434543                0.41677201               -1.34862724               -0.00715181                0.36422998               -0.99099117
               1.63481317                3.66242839               27.30643206                1.00000000               -0.23683399               -0.30207982                0.94057525               -0.01362369                0.08144424                1.47312646
               2.63244483                3.52251184               27.20387000                1.00000000               -0.19977405               -0.20554563                0.67562835                0.00771469                0.10445052               -0.03537384
               3.63081769                3.38217798               27.10170720                0.34358195               -0.10700292               -0.11521345                0.41729017               -0.01491931                1.05122213               -1.65761011
               4.63030478                3.24096737               27.01806438                0.00010000               -0.61380145               -0.08918192                0.15181288                0.72487656                4.93518008               -2.74179964
               5.61854166                3.11439957               26.99353518                0.00010000               -1.17001336                0.01136631               -0.00857284                1.91942063                7.44133973               -3.09050628
               6.60690451                2.98642241               26.95932150                0.00010000               -0.94584244               -0.08881516               -0.17889825                1.55541003                6.63018863               -0.96651998
               7.59962482                2.86258085               26.91764044                0.00010000               -0.59461288               -0.16699009               -0.36196398                1.25807742                6.17413909                1.21029119
               8.59501225                2.74084024               26.87381013                0.00010000               -0.44905118               -0.18021667               -0.55311406                0.97953591                5.82660906                1.51480478
               9.59064379                2.62378224               26.82471800                0.19974788               -0.09272229                0.15080924               -0.75874675                0.30300907                3.70381514                2.86605989
              10.59315781                2.50004451               26.73790574                1.00000000                0.29777360                0.28741659               -1.00418034               -0.02288992                0.91701396                1.08570298
              11.59659926                2.37689578               26.63302654                1.00000000                0.34414584                0.41730540               -1.30991465               -0.01012310                0.01357464               -0.68711110
               1.77409698                4.65952117               27.27559133                1.00000000               -0.19542705               -0.27346396                0.81474460               -0.02051755                0.11604022                1.30219709
               2.77214271                4.52062307               27.16566760                0.88729813               -0.16145363               -0.16557494                0.54453470               -0.00098003                0.16850482               -0.21418735
               3.77086790                4.38129603               27.05673452                0.18539097               -0.07322469               -0.06056144                0.28611929               -0.05735183                1.17931811               -1.60988424
               4.77067821                4.24048412               26.96701346                0.00010000               -0.68499326                0.05650941                0.01551923                0.53608054                6.36829368               -2.62905949
               5.75716804                4.11412810               26.96183632                0.00010000               -1.31046080                0.08000200               -0.09302597                1.03657687               10.23336429               -1.45273411
               6.74446900                3.98748033               26.94888664                0.00010000               -1.23086179                0.16840406               -0.20227790                0.89966626                9.56401548               -0.35144227
               7.73255080                3.86251604               26.92970629                0.00010000               -1.11468599                0.10706743               -0.33218563                0.75065522                9.11325996                0.85112308
               8.72217528                3.74088170               26.90691688                0.00010000               -0.96703567                0.07491475               -0.48316062                0.68860043                8.96390887                2.02959417
               9.71321009                3.62432914               26.88384885                0.15976836               -0.32513885                0.02314316               -0.66228531                0.28333842                4.90671660                3.46288942
              10.71567250                3.50274013               26.77882184                0.83476274                0.28861017                0.24588910               -0.95173822               -0.00084870                0.47276805                1.13823463
              11.71898229                3.38106737               26.66683891                1.00000000                0.33097933                0.42199532               -1.26123437               -0.02527483                0.12634404               -0.46706577
               1.91219902                5.65695911               27.24277365                1.00000000               -0.15486427               -0.23294224                0.68001652               -0.02516494                0.12755117                1.11129397
               2.91065038                5.51920034               27.12528159                0.69632685               -0.11947034               -0.11719348                0.39401235               -0.00806361                0.27244130               -0.44881481
               3.90980961                5.38096675               27.01062624                0.10917649               -0.12280323               -0.00372144                0.12360740               -0.01982511                1.72774337               -1.87486177
               4.90819431                5.24209756               26.92223072                0.00010000               -0.87663087                0.28006261               -0.18720556                0.31001966                8.31057725               -1.33838117
               5.89227699                5.11599961               26.93903115                0.00010000               -1.58422077                0.29704178               -0.17937512                0.73171071               13.01440541               -0.60971796
               6.87650990                4.98979049               26.94434943                0.00010000               -1.55202237                0.32480654               -0.22207307                0.48837355               12.20103143                0.16275355
               7.86123655                4.86472220               26.94425516                0.00010000               -1.47693668                0.29166626               -0.30033819                0.34612867               11.85517824                1.06322602
               8.84697116                4.74233853               26.94172306                0.00010000               -1.33922066                0.18023961               -0.40520603                0.33228923               11.79686640                2.07664591
               9.83445213                4.62424510               26.93927141                0.16480669               -0.52842762               -0.01252736               -0.53660891                0.14243577                6.14382281                3.11066317
              10.83640261                4.50496229               26.82225763                0.70758449                0.24935803                0.20678518               -0.84956039                0.02151958                0.25201617                1.22164403
              11.83943929                4.38533568               26.70168314                1.00000000                0.30366844                0.41950873               -1.19542520               -0.02303106                0.07842951               -0.41884270
               2.04911122                6.65486232               27.20810142                0.99637855               -0.11374262               -0.18479565                0.54015182               -0.02462873                0.06529529                0.95740796
               3.04797380                6.51827920               27.08232546                0.57734413               -0.07685219               -0.06910152                0.24389752               -0.00731184                0.25361735               -0.62314696
               4.04757418                6.38122160               26.96025340                0.06777108               -0.30640259                0.04943734               -0.04022018                0.11020890                3.38060542               -2.21069453
               5.04184574                6.24608537               26.89701407                0.00010000               -1.17324242                0.45007898               -0.34692956                0.20586464               10.86209367                0.11629613
               6.02410933                6.12006894               26.92422154                0.00010000               -1.81659304                0.50156476               -0.23925556                0.47307521               15.04414656                0.06846796
               7.00551388                5.99397646               26.94440032                0.00010000               -1.85919999                0.52043914               -0.23086641                0.20872350               14.54525606                0.51779827
               7.98692533                5.86834937               26.96091643                0.00010000               -1.81078639                0.44399787               -0.26313176               -0.01492462               14.35597746                1.18422834
               8.96929816                5.74448649               26.97622312                0.00010000               -1.67451416                0.25484592               -0.32174325               -0.09783906               14.38922250                1.99025840
               9.95343505                5.62407860               26.99204707                0.18370146               -0.71429222               -0.01735193               -0.39914621               -0.09658691                7.35115294                2.85055444
              10.95501231                5.50687583               26.86506131                0.63781425                0.21699211                0.17967351               -0.75298626                0.02057516                0.13903043                1.13103827
              11.95777489                5.38945754               26.73634573                0.99926303                0.27625779                0.39912443               -1.11725263               -0.01647212                0.05876861               -0.46346935
               2.18487269                7.65326320               27.17218274                0.98657882               -0.07278236               -0.13584626                0.40129904               -0.02337758                0.02643102                0.87452183
               3.18414486                7.51781831               27.03837972                0.51712903               -0.03325328               -0.02454707                0.09744938               -0.00331533                0.16601197               -0.67953125
               4.18420762                7.38195550               26.90730314                0.04174675               -0.53403005                0.09271676               -0.20259135                0.27265867                5.57106497               -2.37797341
               5.17346426                7.25109914               26.88159916                0.00010000               -1.51801054                0.53886924               -0.33692359                0.33992623               13.80763100                0.52604434
               6.15384741                7.12603091               26.91514802                0.00010000               -2.05301631                0.69446639               -0.26191556                0.38053467               16.71936948                0.42259887
               7.13240394                7.00019927               26.94725895                0.00010000               -2.17096961                0.74599864               -0.22712038                0.01323045               16.63998182                0.66371608
               8.11042802                6.87360215               26.97830584                0.00010000               -2.15593910                0.63629745               -0.22195142               -0.35935538               16.66951984                1.15393822
               9.08928515                6.74743545               27.00979573                0.00010000               -2.01484815                0.35985863               -0.23997530               -0.57637754               16.83466697                1.82433078
              10.07013106                6.62389806               27.04274323                0.20987315               -0.89249932               -0.01608098               -0.27459356               -0.38184514                8.53916928                2.62725739
              11.07143517                6.50855576               26.90684080                0.60321510                0.19076900                0.15917496               -0.65948013                0.00719898                0.07145010                1.01042601
              12.07394644                6.39331817               26.77012543                0.99123108                0.25112675                0.36982631               -1.04296545               -0.01041608                0.03876378               -0.55731804
               2.31953345                8.65214540               27.13581840                0.98148236               -0.03182583               -0.08916096                0.26476467               -0.02246565                0.00913361                0.85845599
               3.31921519                8.51778826               26.99422112                0.51010123                0.01065342                0.01809476               -0.04625767                0.00041084                0.05402795               -0.68392977
               4.31974652                8.38307593               26.85345328                0.01987343               -0.73231662                0.12875429               -0.35968736                0.45321794                7.71002772               -2.27895207
               5.30456886                8.25686275               26.86496676                0.00010000               -1.85633105                0.66412460               -0.30066457                0.62294012               16.88927722                0.40254118
               6.28261990                8.13395827               26.90777312                0.00010000               -2.31808064                0.91796618               -0.27021046                0.41100874               18.49503526                0.42947297
               7.25820725                8.00889643               26.95064670                0.00010000               -2.50589283                0.98498563               -0.22003795               -0.07174236               18.61829631                0.58502743
               8.23250204                7.88107532               26.99483393                0.00010000               -2.53662757                0.91614415               -0.17782067               -0.60158520               18.86289555                0.94069003
               9.20747469                7.75168367               27.04141477                0.00010000               -2.39121031                0.55185697               -0.16170974               -1.10330916               19.21135120                1.54319934
              10.18467783                7.62375698               27.09127073                0.24054681               -1.08692557               -0.00647689               -0.17305445               -0.72537393                9.74818147                2.32114306
              11.18573618                7.51005933               26.94729009                0.59752303                0.16819566                0.14574602               -0.57825088               -0.01158952                0.04265216                0.88804168
              12.18804175                7.39685407               26.80270969                0.98764232                0.23055644                0.33571097               -0.97966590               -0.00488986                0.02278810               -0.67591437
               2.45313765                9.65147998               27.09952929                0.97834690                0.00848947               -0.04570881                0.13076088               -0.02205526               -0.01096014                0.74290420
               3.45322254                9.51818020               26.95011599                0.53413067                0.05299182                0.06003341               -0.18782780                0.00157158                0.07591433               -0.58166070
               4.45419749                9.38453058               26.80236831                0.00010000               -0.90909068                0.16213407               -0.50323583                0.70155932                9.80260949               -1.55889028
               5.43504073                9.26438163               26.84747088                0.00010000               -2.20817880                0.99718992               -0.35692849                0.71922699               19.81353790                0.27540192
               6.41003391                9.14439023               26.89933065                0.00010000               -2.55943461                1.09957868               -0.29791071                0.36448869               20.26941774                0.24424045
               7.38385204                9.01989898               26.95241819                0.00010000               -2.72124157                1.15521545               -0.22372241               -0.04829651               20.53267949                0.33365277
               8.35560908                8.89192504               27.00844255                0.00010000               -2.96573628                1.16278877               -0.14235733               -0.54999904               20.98925297                0.53265419
               9.32453731                8.75847259               27.06970379                0.00010000               -2.91805841                1.05226391               -0.05161031               -1.22544054               21.53189730                0.96253035
              10.29724791                8.62376853               27.13581301                0.27340668               -1.32155132                0.02354291               -0.09833054               -1.13979001               11.06059515                1.51879660
              11.29810629                8.51147068               26.98655195                0.61380303                0.15056287                0.13949340               -0.51397360               -0.03036292                0.14079948                0.68847951
              12.30025917                8.40003239               26.83391031                0.96858399                0.21528812                0.30227615               -0.93081653               -0.00367025               -0.01546249               -0.65711379
               2.58569189               10.65123122               27.06078492                0.98936129                0.05041254               -0.02487554               -0.00195460                0.03119500                0.40818791                0.62456322
               3.58619602               10.51898893               26.90793866                0.80723859                0.09421899                0.08087259               -0.32536900                0.05171708                0.79984710               -0.48232587
               4.58757627               10.38631862               26.76285187                0.48640496               -1.35511345                0.17880341               -0.63403863                1.22875989               11.73249785               -0.97897451
               5.55909375               10.27680655               26.82864876                0.33814155               -2.65919751                1.24249189               -0.46534057                0.88686317               22.10920440                0.17683108
               6.53439232               10.15594984               26.88877266                0.32838550               -2.46936204                1.15596115               -0.35070676                0.19555057               22.00886373                0.11631632
               7.50970651               10.03200074               26.95120659                0.34456648               -2.57319365                1.21017572               -0.24914859                0.00450961               22.35255086                0.16948814
               8.48292845                9.90433109               27.01716563                0.38509727               -2.92920577                1.24060570               -0.13596742               -0.23165265               22.91310708                0.28222917
               9.45112239                9.77272894               27.09003093                0.50636258               -3.70222539                1.42563527                0.02098342               -1.34665492               23.52291738                0.56183014
              10.40888394                9.62422783               27.16804637                0.65673611               -2.11286673                0.04593081               -0.06374040               -1.83038404               12.62377515                0.92338583
              11.40886506                9.51284920               27.02279702                0.82757533                0.09804910                0.13785172               -0.46585117                0.00946498                0.93462312                0.55413413
              12.41084492                9.40289959               26.86665566                0.97928892                0.19798650                0.28671980               -0.88781509                0.06361459                0.40541399               -0.56787973
               1.29299456                0.71817904               28.41421434                1.00000000               -0.34462561               -0.37117876                1.29340890               -0.06325805               -0.87766741                0.90333285
               2.28954831                0.56792530               28.32287674                1.00000000               -0.29328079               -0.29239299                1.03864540               -0.04823618               -1.13365643                0.08934065
               3.28712895                0.41735408               28.22641019                1.00000000               -0.17593911               -0.21387485                0.77247573               -0.04258239               -1.09535683               -0.20998597
               4.28602952                0.26733398               28.13588610                0.63170426                0.21071579               -0.16639827                0.51461150                0.34471603               -0.21874588               -0.76288197
               5.29134326                0.12623514               28.05708155                0.69971383                0.35411928               -0.05992598                0.23170163               -0.07472599                0.17943695                0.23058122
               6.29311191               -0.00792740               27.97540097                0.77297578                0.14211021                0.02377839               -0.04330584               -0.01529382               -0.15301593                0.13479664
               7.29418547               -0.14054676               27.89018435                0.75221215                0.11719856                0.09739385               -0.31885197               -0.00040351               -0.37318259               -0.07396352
               8.29545588               -0.27288029               27.80405826                0.85828610                0.15018063                0.18270834               -0.60135859                0.00135648               -0.63370575                0.10434489
               9.29718908               -0.40624797               27.71335012                1.00000000                0.22777943                0.26759735               -0.88017093               -0.00508681               -0.95428305                0.52840811
              10.30001147               -0.54056550               27.62056063                1.00000000                0.32977618                0.34138915               -1.15055664               -0.03587635               -0.95270936                0.00627594
              11.30378460               -0.67504908               27.52980486                1.00000000                0.37731334                0.42399735               -1.41108328               -0.04639096               -0.85125408               -0.84876182
               1.44261572                1.71446725               28.37703939                1.00000000               -0.31372966               -0.35397498                1.16676677               -0.02224120               -0.12488408                1.22960564
               2.43947843                1.56500137               28.28539336                1.00000000               -0.28084698               -0.27183699                0.91336249               -0.00440346               -0.12111896                0.12447184
               3.43699878                1.41521533               28.19378604                0.91597338               -0.22211381               -0.19011458                0.65041798                0.00766922                0.05787715               -0.55964135
               4.43503615                1.26566999               28.10568052                0.22017148               -0.43860455               -0.15004791                0.38054872                0.49019978                1.63014756               -1.15655204
               5.42822669                1.12563588               28.04541768                0.35067248               -0.43431127                0.05127279                0.14369742               -0.09268152                2.40890120                1.02377281
               6.42634992                0.99231038               27.97194059                0.43753804               -0.07844090                0.07799771               -0.10788768                0.09422086                1.53224406                0.44825170
               7.42665787                0.86042718               27.89387794                0.34162677                0.09850637                0.09223089               -0.36379794                0.14387076                1.44469593               -0.34295048
               8.42832005                0.72894680               27.81864997                0.49343479                0.21614708                0.18900143               -0.61462014                0.13021727                1.45554345                0.59898149
               9.43098082                0.59642800               27.74100201                1.00000000                0.28666025                0.26110643               -0.85920181                0.05957412                0.74096580                0.77214052
              10.43405326                0.46284839               27.65164515                1.00000000                0.34117281                0.33483536               -1.11912735                0.00623403                0.08901245                0.11223749
              11.43780427                0.32919090               27.56097272                1.00000000                0.37510149                0.42236765               -1.37810170               -0.00458449                0.02257157               -1.00063902
               1.59148150                2.71109954               28.34636430                1.00000000               -0.27693434               -0.32513583                1.04982124               -0.01506338                0.04543579                1.56027235
               2.58871216                2.56248856               28.24858506                1.00000000               -0.24339000               -0.23594830                0.79215789                0.00864090                0.21515087                0.10045860
               3.58661370                2.41355178               28.15414193                0.58525382               -0.16495997               -0.15195340                0.54305614                0.02132001                0.77770023               -1.33999936
               4.58541296                2.26433302               28.06756999                0.00010000               -1.18822300               -0.12971670                0.25690226                0.68829401                4.60721859               -2.04182112
               5.56284924                2.12726060               28.04966854                0.00010000               -1.26039636                0.09564379                0.06322627                1.23961042                5.36262422               -1.21584095
               6.56020503                1.99363255               27.97478127                0.00010000               -0.12113886               -0.07329071               -0.16031127                1.01395166                2.13769295               -0.24839599
               7.56042647                1.86129786               27.89220552                0.00010000                0.09271845               -0.11619083               -0.39241576                0.81016377                3.42564190                0.57037312
               8.56205940                1.73089974               27.84315283                0.00010000                0.20262474               -0.07705886               -0.64795865                0.52984009                4.03786968                1.12857168
               9.56447896                1.59897415               27.77356739                0.52917686                0.26569241                0.24849955               -0.83282900                0.07098288                2.03819260                1.56597986
              10.56737325                1.46613121               27.68485932                1.00000000                0.32644717                0.31477031               -1.07925514                0.00385717                0.72979771                0.70894705
              11.57100791                1.33339828               27.58908949                1.00000000                0.36346542                0.42148037               -1.34942822               -0.00657198                0.37631810               -1.01008753
               1.73953642                3.70796454               28.31579265                1.00000000               -0.23374179               -0.30208778                0.93176940               -0.01367980                0.08568695                1.48875507
               2.73719900                3.56028240               28.21059572                1.00000000               -0.19778472               -0.20358541                0.66942252                0.00734776                0.11223866               -0.03335887
               3.73558072                3.41217626               28.10586955                0.35386048               -0.10528928               -0.11087713                0.41479372               -0.02203098                1.05905402               -1.66748047
               4.73509321                3.26307566               28.01958800                0.00010000               -0.59306776               -0.08351636                0.15208609                0.65800934                4.99089976               -2.75184288
               5.72371937                3.12754876               27.99343898                0.00010000               -1.12507560                0.00207705               -0.01091866                1.74579624                7.55111783               -3.07675956
               6.71259170                2.99084457               27.95750633                0.00010000               -0.90627035               -0.09230509               -0.18451906                1.40010237                6.73782069               -0.91982983
               7.70559396                2.85810336               27.91397248                0.00010000               -0.56755732               -0.16812578               -0.37220663                1.11670269                6.27839150                1.28108468
               8.70124056                2.72740562               27.86821737                0.00010000               -0.42124785               -0.17966615               -0.56623025                0.87818189                5.92656108                1.60953632
               9.69716900                2.60139799               27.81708764                0.19729142               -0.07671389                0.13239278               -0.76975255                0.26137078                3.78523742                2.93580434
              10.69970628                2.46914380               27.72786260                1.00000000                0.29848469                0.28230877               -1.00373097               -0.03033301                0.94910836                1.11562439
              11.70313870                2.33762050               27.61994493                1.00000000                0.34324200                0.41966944               -1.30396405               -0.00998986                0.01326708               -0.69435853
               1.88657217                4.70505778               28.28368840                1.00000000               -0.19247820               -0.27316826                0.80487842               -0.02086150                0.12404931                1.30877395
               2.88464739                4.55841685               28.17108003                0.87781300               -0.15961737               -0.16286793                0.53792598               -0.00196615                0.18247840               -0.22644234
               3.88337983                4.41133424               28.05958207                0.18993797               -0.07233726               -0.05594149                0.28304301               -0.06437986                1.19373483               -1.63668266
               4.88320065                4.26266269               27.96718345                0.00010000               -0.66917821                0.06051239                0.01642282                0.46952184                6.45418466               -2.67869575
               5.86999626                4.12730214               27.96090941                0.00010000               -1.27740825                0.08048990               -0.09272539                0.91202355               10.40561375               -1.44387474
               6.85765248                3.99178645               27.94683200                0.00010000               -1.18983961                0.15707548               -0.20942873                0.77437513                9.73449067               -0.30500989
               7.84619947                3.85793534               27.92631802                0.00010000               -1.06620355                0.09234429               -0.34621223                0.63160145                9.27397775                0.92472975
               8.83632841                3.72730642               27.90199566                0.00010000               -0.91156374                0.05579798               -0.50206185                0.57739957                9.11181633                2.11950225
               9.82796820                3.60162201               27.87713927                0.15539625               -0.28921673               -0.01126804               -0.68145148                0.23280206                5.00088893                3.55903858
              10.83054408                3.47177738               27.76928106                0.81391256                0.29432517                0.23649430               -0.95087250               -0.00445265                0.50225127                1.17987571
              11.83385470                3.34179167               27.65423860                1.00000000                0.33106225                0.42448144               -1.25397440               -0.02918832                0.14129274               -0.46348259
               2.03240105                5.70250117               28.24951846                1.00000000               -0.15178359               -0.23215970                0.66906751               -0.02541366                0.12833164                1.11050499
               3.03088322                5.55702504               28.12918432                0.68820855               -0.11768852               -0.11379509                0.38650096               -0.00903242                0.28116055               -0.47054492
               4.03004728                5.41105743               28.01184485                0.11154667               -0.11837341                0.00215310                0.11992433               -0.03032450                1.72902254               -1.91756976
               5.02851575                5.26428591               27.92045802                0.00010000               -0.86056020                0.27352398               -0.16791257                0.24182318                8.44292869               -1.38963349
               6.01283608                5.12915856               27.93727857                0.00010000               -1.55348728                0.29133679               -0.17155383                0.60442193               13.28314881               -0.58780157
               6.99744601                4.99398608               27.94210140                0.00010000               -1.50650292                0.31093484               -0.22837937                0.36819049               12.43964507                0.21498638
               7.98270602                4.85995025               27.94117074                0.00010000               -1.41720640                0.27055159               -0.31747544                0.22971889               12.07724363                1.13801053
               8.96910188                4.72852158               27.93755284                0.00010000               -1.26759725                0.15485284               -0.42955588                0.21394059               12.00627939                2.17057299
               9.95735408                4.60117263               27.93376089                0.16013502               -0.48271543               -0.04347879               -0.56543536                0.08692270                6.26613282                3.22493956
              10.95944757                4.47387369               27.81369724                0.68806301                0.25861465                0.19646582               -0.86194364                0.02364696                0.26997659                1.28295001
              11.96252637                4.34611013               27.68970789                1.00000000                0.30788014                0.42640534               -1.20016076               -0.02398268                0.07813300               -0.40268277
               2.17701615                6.70041459               28.21344241                0.99553998               -0.11056693               -0.18347779                0.52802152               -0.02464860                0.06427973                0.95418087
               3.17591048                6.55614095               28.08472632                0.57073064               -0.07518407               -0.06534197                0.23619051               -0.00798194                0.25876714               -0.64261478
               4.17551247                6.41137730               27.95983528                0.06848214               -0.29872515                0.05604851               -0.04346801                0.08850234                3.39296645               -2.25276373
               5.16993598                6.26813317               27.89379927                0.00010000               -1.15639698                0.43191936               -0.29487498                0.11796816               11.05554758                0.16817886
               6.15238453                6.13312888               27.92191476                0.00010000               -1.78556884                0.48649519               -0.22249910                0.34200871               15.39147075                0.11772311
               7.13422460                5.99800515               27.94206973                0.00010000               -1.80630926                0.50024211               -0.23620266                0.08391427               14.84285177                0.57755323
               8.11625835                5.86334637               27.95819067                0.00010000               -1.74198826                0.41930401               -0.28301230               -0.13417760               14.63820187                1.25979433
               9.09938484                5.73040347               27.97286135                0.00010000               -1.59519033                0.22956124               -0.35120827               -0.22162070               14.66514322                2.08292722
              10.08435454                5.60075243               27.98787824                0.17938686               -0.66526640               -0.03592116               -0.43456659               -0.15657171                7.49802974                2.96261618
              11.08607951                5.47570670               27.85742308                0.62042681                0.22738048                0.17413580               -0.77404569                0.02481986                0.14633117                1.18871253
              12.08890215                5.35031977               27.72511670                0.99804817                0.28226391                0.40867729               -1.12868666               -0.01669298                0.05939419               -0.44200474
               2.32045537                7.69883161               28.17613028                0.98599137               -0.06944991               -0.13382358                0.38803373               -0.02340105                0.02568263                0.87271613
               3.31976087                7.55571820               28.03931523                0.51189143               -0.03151287               -0.02080310                0.08947148               -0.00358922                0.16731850               -0.69567898
               4.31982511                7.41217840               27.90526478                0.04096781               -0.53186633                0.09904942               -0.20527538                0.23611460                5.67324824               -2.41624374
               5.30912354                7.27292430               27.87856458                0.00010000               -1.50104146                0.51675781               -0.26996881                0.23273503               14.08274838                0.65901735
               6.28980428                7.13888846               27.91263134                0.00010000               -2.01083724                0.67054166               -0.24243318                0.25443613               17.07267437                0.48832712
               7.26890680                7.00399092               27.94496165                0.00010000               -2.10900684                0.72040709               -0.23354066               -0.10747524               16.98299029                0.72500051
               8.24762414                6.86833633               27.97597904                0.00010000               -2.08216971                0.60944985               -0.24445769               -0.47669977               17.00627164                1.22843961
               9.22726340                6.73311280               28.00722967                0.00010000               -1.93523635                0.33832469               -0.27377829               -0.69791722               17.16893681                1.91120901
              10.20891942                6.60045421               28.03979044                0.20641968               -0.84433869               -0.02132812               -0.31554865               -0.44416291                8.70864972                2.71913950
              11.21037663                6.47735640               27.90009809                0.58677540                0.20234765                0.15936961               -0.68851334                0.00994072                0.07100371                1.05977948
              12.21296637                6.35428368               27.75960673                0.99063154                0.25897410                0.38025345               -1.06098062               -0.00955860                0.03888781               -0.54306414
               2.46277495                8.69773812               28.13839544                0.98116163               -0.02830381               -0.08619322                0.25031754               -0.02255658                0.00870106                0.85906492
               3.46249191                8.55572489               27.99371813                0.50592859                0.01268602                0.02160048               -0.05461029                0.00060219                0.05268123               -0.69756395
               4.46302867                8.41335829               27.84984814                0.01756772               -0.73056478                0.13364901               -0.36164474                0.40278520                7.90715557               -2.30755799
               5.44788062                8.27846833               27.86224748                0.00010000               -1.83110208                0.64343760               -0.24828142                0.52109384               17.25314863                0.48495025
               6.42640663                8.14653971               27.90513860                0.00010000               -2.26266916                0.88971386               -0.25866320                0.30839366               18.85197587                0.48378065
               7.40262724                8.01241329               27.94840281                0.00010000               -2.44020814                0.95900005               -0.23027429               -0.17122567               19.00559032                0.63579298
               8.37760247                7.87553537               27.99294511                0.00010000               -2.46593105                0.89189675               -0.20085164               -0.70320019               19.25200580                1.00695122
               9.35330862                7.73716997               28.03962078                0.00010000               -2.31873930                0.53265415               -0.19742899               -1.21450532               19.58932050                1.64505728
              10.33122768                7.60032587               28.08929128                0.23826407               -1.04298812                0.00035494               -0.22233611               -0.78379381                9.93381511                2.38599286
              11.33244885                7.47889409               27.94131292                0.58080767                0.18143704                0.15286355               -0.61725586               -0.01102373                0.03993610                0.92193842
              12.33485642                7.35792484               27.79278428                0.98743340                0.24075711                0.34647754               -1.00619937               -0.00321882                0.02272740               -0.67444685
               2.60403070                9.69710775               28.10076126                0.97831270                0.01220392               -0.04168635                0.11519065               -0.02223169               -0.01166471                0.74573800
               3.60415274                9.55615021               27.94819454                0.52960830                0.05533369                0.06326622               -0.19684586                0.00196160                0.07748973               -0.59218796
               4.60513737                9.41485138               27.79733435                0.00010000               -0.88943692                0.16506942               -0.50460783                0.63926194               10.04105865               -1.57447388
               5.58636400                9.28579305               27.84401538                0.00010000               -2.15550900                0.96948074               -0.33996158                0.64765240               20.24860202                0.27925705
               6.56202719                9.15668274               27.89635945                0.00010000               -2.49386877                1.07262710               -0.29902086                0.30318274               20.67819297                0.27130699
               7.53648662                9.02317092               27.95011110                0.00010000               -2.66118662                1.13401797               -0.23958348               -0.10602841               20.97289977                0.36211087
               8.50880346                8.88617426               28.00690925                0.00010000               -2.91519154                1.14784547               -0.16505133               -0.61542167               21.45720940                0.57331126
               9.47818279                8.74376589               28.06908809                0.00010000               -2.86420228                1.03941964               -0.06954166               -1.30082247               21.93963474                1.05828532
              10.45151941                8.60046130               28.13452173                0.27285819               -1.28128046                0.03983136               -0.15985664               -1.18352400               11.23250838                1.54951037
              11.45255718                8.48041367               27.98116245                0.59527175                0.16605418                0.15333897               -0.56464964               -0.03065845                0.14212951                0.70587928
              12.45484050                8.36121323               27.82442879                0.96800857                0.22833138                0.31399628               -0.96690337               -0.00174504               -0.01321065               -0.66529202
               2.74424539               10.69690439               28.06068676                0.98944910                0.05421254               -0.02033584               -0.01820692                0.03005133                0.40967320                0.62845500
               3.74478752               10.55699021               27.90463709                0.80484373                0.09628436                0.08399973               -0.33542719                0.05124245                0.80949440               -0.49068997
               4.74617108               10.41665968               27.75650445                0.48443693               -1.28926046                0.18083006               -0.63713906                1.14675728               11.98688985               -0.98793264
               5.71900231               10.29785794               27.82398578                0.33843939               -2.55393323                1.20648949               -0.47036193                0.83045950               22.60052631                0.15046582
               6.69509241               10.16799225               27.88522822                0.32856295               -2.39935806                1.13095127               -0.36120969                0.16830753               22.48590345                0.12661143
               7.67101515               10.03509365               27.94861348                0.34436646               -2.51966718                1.19227278               -0.27168036               -0.02214637               22.84623723                0.18183375
               8.64469907                9.89849228               28.01567811                0.38434722               -2.90050123                1.23180175               -0.16248283               -0.26720322               23.45512366                0.30297092
               9.61300512                9.75795836               28.09019262                0.50964101               -3.68948275                1.41924755                0.01460037               -1.38625605               23.95856314                0.63071398
              10.57090942                9.60112250               28.16704543                0.65738303               -2.09606816                0.06611937               -0.13733335               -1.86087418               12.79321707                0.93444249
              11.57108376                9.48196087               28.01783387                0.81753159                0.11564965                0.15472003               -0.52837340                0.00677096                0.95669020                0.56425439
              12.57322241                9.36420477               27.85755930                0.97919641                0.21386498                0.29915368               -0.93363694                0.06258052                0.42002480               -0.57789752
               1.37676790                0.76507632               29.42712523                1.00000000               -0.34412055               -0.36990032                1.28868450               -0.06287453               -0.88949238                0.91412606
               2.37332669                0.60695224               29.33324749                1.00000000               -0.29417169               -0.29110360                1.03545940               -0.04756337               -1.15060972                0.09411977
               3.37088446                0.44848976               29.23413219                1.00000000               -0.18053733               -0.21275029                0.77211408               -0.04330861               -1.11320722               -0.20918132
               4.36971595                0.29048175               29.14104175                0.63102731                0.18380350               -0.16516991                0.51758786                0.31697471               -0.24513554               -0.78115515
               5.37456053                0.14070468               29.05942780                0.69902600                0.32398082               -0.06306007                0.23726335               -0.07050911                0.13663597                0.24265648
               6.37619556               -0.00275532               28.97498645                0.77324413                0.13637035                0.02197185               -0.03968593               -0.01838014               -0.19600618                0.14240474
               7.37728794               -0.14476484               28.88700379                0.75241411                0.12541141                0.09666925               -0.31649733               -0.00320740               -0.41983851               -0.07593861
               8.37870379               -0.28635310               28.79805028                0.85584083                0.16400084                0.18185758               -0.59945291               -0.00437485               -0.68074153                0.10587922
               9.38056796               -0.42866313               28.70455751                1.00000000                0.23639544                0.26568922               -0.87786278               -0.00832993               -0.99385466                0.54018254
              10.38343170               -0.57175147               28.60907264                1.00000000                0.33179710                0.34099838               -1.14684887               -0.03424914               -0.98285796                0.00474027
              11.38720390               -0.71498645               28.51571690                1.00000000                0.37722005                0.42493681               -1.40665734               -0.04413689               -0.87654513               -0.87227923
               1.53426323                1.76137732               29.38867734                1.00000000               -0.31188919               -0.35306864                1.16102045               -0.02182909               -0.12819532                1.24517006
               2.53114434                1.60404121               29.29450357                1.00000000               -0.27883058               -0.27057253                0.90877475               -0.00391848               -0.12946679                0.13115372
               3.52868662                1.44636225               29.20027067                0.92680959               -0.21830537               -0.18864763                0.64639161                0.00476468                0.04128473               -0.55140630
               4.52677823                1.28883006               29.10946420                0.22460955               -0.41063206               -0.14789519                0.37751867                0.45079579                1.62884508               -1.16968735
               5.52047398                1.14007408               29.04686835                0.35505669               -0.40158566                0.04289930                0.14904030               -0.08251683                2.42466045                1.04034098
               6.51874652                0.99746440               28.97087118                0.44394091               -0.07096107                0.07391479               -0.10522698                0.08455830                1.53871682                0.46153500
               7.51905476                0.85620185               28.89023526                0.35038166                0.09313333                0.09668085               -0.36422599                0.13307527                1.45080149               -0.33732787
               8.52060919                0.71546547               28.81248879                0.49836091                0.20645417                0.19215835               -0.61803647                0.11347933                1.46650295                0.58882449
               9.52318384                0.57399376               28.73240284                1.00000000                0.28208399                0.26050297               -0.86127944                0.05183088                0.74684801                0.78593651
              10.52625087                0.43165852               28.64044942                1.00000000                0.34068354                0.33523775               -1.12077664                0.00775738                0.08791227                0.11513796
              11.52999751                0.28926292               28.54719237                1.00000000                0.37466460                0.42668739               -1.37884769               -0.00208912                0.02272305               -1.02566328
               1.69100354                2.75801495               29.35682503                1.00000000               -0.27401552               -0.32489647                1.04300088               -0.01453880                0.04542111                1.58025854
               2.68826339                2.60154079               29.25647671                1.00000000               -0.24063174               -0.23457585                0.78618061                0.00851137                0.21883014                0.10855083
               3.68619091                2.44471680               29.15955331                0.60151072               -0.16216733               -0.14870137                0.53766092                0.01514673                0.76660020               -1.33433290
               4.68502004                2.28752385               29.07011092                0.00010000               -1.09575268               -0.12565012                0.25075915                0.63104829                4.62714363               -2.03787296
               5.66427585                2.14156266               29.05032999                0.00010000               -1.16305432                0.07747154                0.07011670                1.11854209                5.43940221               -1.19683059
               6.66175895                1.99872298               28.97317660                0.00010000               -0.11637408               -0.07446598               -0.16266310                0.89935072                2.19730849               -0.21598575
               7.66194837                1.85716877               28.88825861                0.00010000                0.07112565               -0.10559049               -0.39599060                0.70969643                3.46789343                0.60753754
               8.66318147                1.71749007               28.83660486                0.00010000                0.17315809               -0.06386727               -0.66281351                0.45986364                4.10051802                1.16898456
               9.66541153                1.57654693               28.76520476                0.53196708                0.25681106                0.24663467               -0.84129327                0.04913483                2.10472458                1.60083866
              10.66831769                1.43495329               28.67404425                1.00000000                0.32708891                0.31383715               -1.08580008                0.00160975                0.75310265                0.73629265
              11.67195331                1.29354730               28.57558017                1.00000000                0.36356238                0.42982901               -1.35573388               -0.00547708                0.38890121               -1.02366938
               1.84692077                3.75487939               29.32506745                1.00000000               -0.23080601               -0.30220547                0.92373691               -0.01341195                0.08949670                1.50386553
               2.84461271                3.59934969               29.21725845                1.00000000               -0.19571386               -0.20175814                0.66327413                0.00720274                0.11982644               -0.03032919
               3.84300650                3.44338823               29.11000307                0.36320048               -0.10296854               -0.10648664                0.41105878               -0.02921787                1.06649301               -1.67433063
               4.84255334                3.28631705               29.02110610                0.00010000               -0.56803998               -0.07418328                0.14864583                0.58249035                5.03809267               -2.74645351
               5.83164570                3.14162351               28.99331681                0.00010000               -1.07129595               -0.00758238               -0.01463850                1.55069672                7.65233760               -3.06199969
               6.82112742                2.99597508               28.95563112                0.00010000               -0.85820485               -0.09689594               -0.19143849                1.22288926                6.83865405               -0.87395945
               7.81448160                2.85409004               28.91019631                0.00010000               -0.53495579               -0.16781994               -0.38392791                0.95656869                6.37605932                1.34905561
               8.81042831                2.71418813               28.86248552                0.00010000               -0.38891411               -0.17768928               -0.58043054                0.76226504                6.02137348                1.70382382
               9.80670332                2.57892645               28.80932295                0.19450625               -0.05728083                0.11448718               -0.78510680                0.21390321                3.86671112                3.00118510
              10.80928269                2.43793526               28.71783112                1.00000000                0.29983160                0.27748586               -1.00879901               -0.03832267                0.98636196                1.15103521
              11.81269995                2.29785950               28.60694726                1.00000000                0.34172583                0.42437262               -1.29934022               -0.01058810                0.01963958               -0.69092681
               2.00179470                4.75197084               29.29168890                1.00000000               -0.18961006               -0.27320932                0.79558940               -0.02086311                0.13205932                1.31466676
               2.99989860                4.59750563               29.17642612                0.86833611               -0.15777598               -0.16032674                0.53141056               -0.00246418                0.19645449               -0.23816157
               3.99863919                4.44258707               29.06239538                0.19346145               -0.07320179               -0.05130397                0.27946854               -0.06777877                1.20775998               -1.66196835
               4.99843457                4.28604019               28.96734191                0.00010000               -0.65037115                0.06860102                0.01634926                0.39448817                6.53468094               -2.70636813
               5.98563176                4.14141101               28.95998181                0.00010000               -1.23421811                0.08073612               -0.09388963                0.76978842               10.56974772               -1.42769850
               6.97375021                3.99678506               28.94469806                0.00010000               -1.13825322                0.14387028               -0.21871619                0.63422832                9.89380634               -0.25702130
               7.96286670                3.85381238               28.92278205                0.00010000               -1.00799256                0.07598588               -0.36220588                0.49997996                9.42473849                0.99746040
               8.95359035                3.71393628               28.89687565                0.00010000               -0.84621147                0.03480901               -0.52238773                0.45512955                9.25123058                2.20721173
               9.94594247                3.57883667               28.87021982                0.15067856               -0.24860826               -0.04607691               -0.70550542                0.17469002                5.09831127                3.65313951
              10.94861819                3.44050300               28.75980439                0.79258502                0.29753011                0.22720086               -0.94374095               -0.01147356                0.53874008                1.21821031
              11.95189307                3.30203475               28.64175942                1.00000000                0.32748808                0.42722142               -1.24585475               -0.03279045                0.15806896               -0.45667913
               2.15543393                5.74941520               29.25615501                1.00000000               -0.14867365               -0.23183602                0.65839539               -0.02549016                0.12888510                1.10874620
               3.15394720                5.59614315               29.13301161                0.68025709               -0.11587851               -0.11048166                0.37902670               -0.00976950                0.28986771               -0.49187692
               4.15311636                5.44236215               29.01302473                0.11308139               -0.11640171                0.00796618                0.11611591               -0.03663527                1.73988229               -1.95859649
               5.15161916                5.28768907               28.91887247                0.00010000               -0.84098857                0.26511013               -0.14714377                0.16593631                8.57724059               -1.40874845
               6.13629659                5.14323823               28.93560007                0.00010000               -1.51042670                0.28298120               -0.16482794                0.45999667               13.53515966               -0.55595743
               7.12141063                4.99885249               28.93978185                0.00010000               -1.44833075                0.29411042               -0.23688912                0.23581695               12.66120246                0.27022625
               8.10732998                4.85560976               28.93790565                0.00010000               -1.34520127                0.24622899               -0.33690238                0.10314383               12.28533017                1.21291259
               9.09450660                4.71488431               28.93313195                0.00010000               -1.18497919                0.12659654               -0.45578746                0.08591221               12.20410968                2.26380048
              10.08363039                4.57800492               28.92796271                0.15499031               -0.43257319               -0.07676524               -0.59418156                0.02432044                6.38788428                3.33831883
              11.08585514                4.44247928               28.80501876                0.66811411                0.26751271                0.18731092               -0.87495802                0.02406495                0.29265632                1.34101079
              12.08898065                4.30640393               28.67767992                1.00000000                0.31255078                0.43419253               -1.20772737               -0.02341217                0.07712203               -0.38620609
               2.30782900                6.74733412               29.21866185                0.99469900               -0.10727304               -0.18253537                0.51581899               -0.02468687                0.06332452                0.94979473
               3.30675627                6.59529599               29.08704927                0.56416156               -0.07342203               -0.06151172                0.22834094               -0.00890914                0.26403538               -0.66139312
               4.30636056                6.44274640               28.95938404                0.06843168               -0.29395281                0.06278075               -0.04674026                0.06766351                3.43144018               -2.29269628
               5.30087721                6.29134239               28.89111657                0.00010000               -1.13461378                0.40710993               -0.24004478                0.02288773               11.25482471                0.24488628
               6.28366828                6.14707064               28.91977156                0.00010000               -1.73910984                0.46676919               -0.20697471                0.19660555               15.70471959                0.17393677
               7.26609502                6.00266727               28.93967627                0.00010000               -1.73852662                0.47568570               -0.24402460               -0.05141372               15.11682103                0.63958895
               8.24889775                5.85873696               28.95525619                0.00010000               -1.65907874                0.39033736               -0.30541929               -0.26217973               14.90257006                1.33634175
               9.23291344                5.71646821               28.96919895                0.00010000               -1.50319207                0.20079451               -0.38229460               -0.35448507               14.92674281                2.17592594
              10.21883391                5.57730137               28.98335573                0.17449717               -0.61064825               -0.05685478               -0.47012475               -0.22068804                7.64111529                3.07549986
              11.22070048                5.44424922               28.84958040                0.60249601                0.23708076                0.16911181               -0.79271716                0.03005229                0.15665499                1.24697458
              12.22357552                5.31071860               28.71377200                0.99681559                0.28750484                0.41926938               -1.14001966               -0.01674868                0.06051917               -0.41627024
               2.45901644                7.74576450               29.17994342                0.98539392               -0.06597064               -0.13191967                0.37436165               -0.02350341                0.02495371                0.86975438
               3.45835674                7.59491292               29.04016915                0.50663355               -0.02966019               -0.01691612                0.08117373               -0.00434450                0.16863625               -0.71119356
               4.45842324                7.44361776               28.90319763                0.03949768               -0.53020317                0.10544044               -0.20808983                0.19590339                5.80766281               -2.45222678
               5.44775267                7.29583127               28.87619978                0.00010000               -1.47597079                0.48842848               -0.20401025                0.12100039               14.36393287                0.78906688
               6.42890382                7.15257361               28.91029936                0.00010000               -1.95183183                0.64175626               -0.22609798                0.11853670               17.38401282                0.55232795
               7.40871604                7.00836620               28.94258814                0.00010000               -2.03091931                0.68977885               -0.24307742               -0.23697896               17.29913863                0.78672019
               8.38828544                6.86341650               28.97341668                0.00010000               -1.99317731                0.57735867               -0.26968451               -0.60197826               17.32255967                1.30570689
               9.36885249                6.71890020               29.00432016                0.00010000               -1.84249089                0.31290864               -0.30908014               -0.82735971               17.48635557                2.00061117
              10.35143562                6.57686782               29.03643226                0.20242305               -0.79067709               -0.02779103               -0.35555165               -0.51052994                8.87093469                2.81143112
              11.35303895                6.44586151               28.89307054                0.56984290                0.21356482                0.15922604               -0.71650072                0.01314629                0.07120209                1.10847194
              12.35570692                6.31478931               28.74890582                0.98998668                0.26679670                0.39122341               -1.07999729               -0.00831716                0.03888321               -0.52616779
               2.60906208                8.74469573               29.14082475                0.98083620               -0.02459718               -0.08305399                0.23515803               -0.02273826                0.00827857                0.85865872
               3.60881611                8.59495767               28.99312891                0.50160732                0.01490948                0.02522825               -0.06345214                0.00009932                0.05143199               -0.71080717
               4.60936027                8.44485520               28.84622039                0.01465398               -0.72373705                0.13835170               -0.36399646                0.34639330                8.12608008               -2.33445130
               5.59434137                8.30111096               28.86000113                0.00010000               -1.79280917                0.61986036               -0.20822328                0.41427773               17.61983985                0.54049051
               6.57350409                8.15990576               28.90259986                0.00010000               -2.19144130                0.85765696               -0.25224476                0.19750570               19.17426976                0.53012390
               7.55051254                8.01646284               28.94604121                0.00010000               -2.35899517                0.92821636               -0.24443027               -0.27887197               19.36883474                0.68587505
               8.52632419                7.87028413               28.99081689                0.00010000               -2.37988062                0.86208780               -0.22654732               -0.81228129               19.62009914                1.07824073
               9.50291493                7.72272638               29.03746619                0.00010000               -2.23310945                0.50831304               -0.23441331               -1.33367698               19.94497654                1.76194228
              10.48166200                7.57674555               29.08682401                0.23563479               -0.99365128                0.00683822               -0.27030977               -0.84522701               10.10622702                2.44790614
              11.48304191                7.44743374               28.93494497                0.56380098                0.19457896                0.16029019               -0.65652276               -0.00998062                0.03581973                0.95372770
              12.48555358                7.31854307               28.78258570                0.98719719                0.25116698                0.35811064               -1.03503086               -0.00129957                0.02239349               -0.67149464
               2.75803778                9.74410342               29.10183310                0.97829496                0.01614603               -0.03732033                0.09863106               -0.02246253               -0.01245396                0.74800515
               3.75819925                9.59541748               28.94617907                0.52458978                0.05800180                0.06661816               -0.20648814                0.00167437                0.07914439               -0.60279196
               4.75919782                9.44638480               28.79227615                0.00010000               -0.86057881                0.16822830               -0.50845601                0.57080507               10.28328734               -1.59072627
               5.74098767                9.30822848               28.84067165                0.00010000               -2.08478843                0.93820563               -0.33562516                0.56905449               20.67767715                0.25829941
               6.71750205                9.16972675               28.89335024                0.00010000               -2.41137180                1.04193888               -0.30646849                0.23403245               21.06498173                0.29204435
               7.69276023                9.02693053               28.94762652                0.00010000               -2.58628899                1.10849024               -0.26021813               -0.16998360               21.39385245                0.39006035
               8.66577627                8.88065826               29.00514153                0.00010000               -2.85213489                1.12843389               -0.19047383               -0.68682324               21.91484914                0.61840137
               9.63571754                8.72906646               29.06831296                0.00010000               -2.79762762                1.02038970               -0.08494245               -1.38211365               22.31556325                1.17659535
              10.60982372                8.57700458               29.13261588                0.27245098               -1.23378612                0.05618693               -0.22070633               -1.22770554               11.37303504                1.57496781
              11.61104181                8.44906732               28.97525896                0.57678907                0.18192766                0.16788543               -0.61675568               -0.03049858                0.14149972                0.72049287
              12.61346227                8.32195153               28.81457224                0.98660536                0.24204604                0.32687773               -1.00647937                0.00047025               -0.01088645               -0.67204721
               2.90598470               10.74394932               29.06042078                0.98955317                0.05835223               -0.01540965               -0.03574552                0.02876279                0.41052510                0.63215244
               3.90656822               10.59629004               28.90123011                0.80195519                0.09903416                0.08725516               -0.34605970                0.05041988                0.81833304               -0.49955163
               4.90796538               10.44821977               28.75010908                0.48235698               -1.20938564                0.18349738               -0.64318230                1.05600758               12.23665782               -0.99948315
               5.88238051               10.31987507               28.81924153                0.33871763               -2.42413439                1.16465907               -0.48156532                0.76552222               23.07798842                0.10897923
               6.85948269               10.18074454               28.88154846                0.32873804               -2.30995707                1.10177898               -0.37871021                0.13594284               22.94451452                0.13382088
               7.83618136               10.03863265               28.94577298                0.34415848               -2.45154514                1.17021214               -0.29974073               -0.05247365               23.32194094                0.19475940
               8.81045179                9.89285281               29.01391597                0.38357430               -2.86275138                1.21945458               -0.19239407               -0.30737191               23.99536110                0.32775852
               9.77892634                9.74313418               29.09032293                0.51312217               -3.66723790                1.40677174                0.01223715               -1.42829602               24.35624233                0.72030016
              10.73710703                9.57786928               29.16529970                0.65823000               -2.07206723                0.08646999               -0.21221328               -1.88880519               12.91622357                0.93988233
              11.73748499                9.45079145               29.01222955                0.80763898                0.13437640                0.17241359               -0.59412264                0.00488491                0.97581556                0.57146877
              12.73979456                9.32508062               28.84798292                0.97906346                0.23095670                0.31290965               -0.98452738                0.06214576                0.43477133               -0.58617156
               1.46296018                0.81335734               30.43998803                1.00000000               -0.34310315               -0.36864869                1.28363230               -0.06226316               -0.90119084                0.92518805
               2.45952915                0.64729554               30.34358593                1.00000000               -0.29448210               -0.29003187                1.03203802               -0.04653328               -1.16644274                0.09876559
               3.45707054                0.48089347               30.24185247                1.00000000               -0.18489745               -0.21273951                0.77103979               -0.04214705               -1.12825514               -0.20934618
               4.45583120                0.31486599               30.14623786                0.62997140                0.15303717               -0.16589046                0.51814070                0.28410071               -0.26974059               -0.79948303
               5.46013129                0.15620716               30.06182682                0.69971225                0.28922919               -0.06666447                0.24029863               -0.06757562                0.09206343                0.25551397
               6.46161579                0.00315122               29.97460725                0.77504812                0.12967875                0.01997116               -0.03609049               -0.02262483               -0.23862072                0.14891253
               7.46272486               -0.14852847               29.88385441                0.75375756                0.13357705                0.09542721               -0.31175473               -0.00640368               -0.46520695               -0.07767351
               8.46428733               -0.29963972               29.79206921                0.85319089                0.17823836                0.18084278               -0.59508116               -0.01080555               -0.72740465                0.10616084
               9.46628963               -0.45113498               29.69579286                1.00000000                0.24537966                0.26344674               -0.87368795               -0.01247469               -1.03267740                0.55185165
              10.46919492               -0.60322425               29.59762366                1.00000000                0.33377745                0.34037977               -1.14206000               -0.03282546               -1.01249066                0.00258856
              11.47296518               -0.75544560               29.50167171                1.00000000                0.37702549                0.42599627               -1.40206097               -0.04136855               -0.90206383               -0.89599129
               1.62839935                1.80967085               30.40025980                1.00000000               -0.31035993               -0.35213704                1.15543468               -0.02124472               -0.13156189                1.26102237
               2.62529575                1.64439522               30.30356885                1.00000000               -0.27677515               -0.26954242                0.90475324               -0.00367231               -0.13804295                0.13722200
               3.62286385                1.47876608               30.20671387                0.93836138               -0.21401916               -0.18803727                0.64317426                0.00264092                0.02440070               -0.54283884
               4.62101537                1.31320708               30.11323089                0.22836686               -0.37754685               -0.14661648                0.38148430                0.40611906                1.62909437               -1.17771257
               5.61531291                1.15554051               30.04839849                0.36133620               -0.36290087                0.03341915                0.15790389               -0.07079135                2.44158967                1.05622360
               6.61375735                1.00335093               29.96983605                0.45185532               -0.06283088                0.07008399               -0.10177765                0.07460413                1.53975160                0.46987891
               7.61405630                0.85242580               29.88659342                0.35998956                0.08625879                0.10080145               -0.36290293                0.12244918                1.45165625               -0.33177377
               8.61548253                0.70216870               29.80628924                0.50301487                0.19504257                0.19612130               -0.62196502                0.09549861                1.47553898                0.57407250
               9.61795715                0.55149948               29.72377643                1.00000000                0.27697230                0.26029022               -0.86454279                0.04276391                0.75300350                0.79836446
              10.62102198                0.40017954               29.62922961                1.00000000                0.34078441                0.33498086               -1.12406065                0.00899265                0.08680885                0.11734888
              11.62477283                0.24881436               29.53339576                1.00000000                0.37508597                0.43078005               -1.38208145                0.00092800                0.02317778               -1.05167206
               1.79308655                2.80631460               30.36722432                1.00000000               -0.27260719               -0.32464396                1.03708425               -0.01374124                0.04498077                1.59989943
               2.79036048                2.64190469               30.26430867                1.00000000               -0.23875256               -0.23344045                0.78181784                0.00911395                0.22103476                0.11645793
               3.78831150                2.47713273               30.16489515                0.61584172               -0.15906642               -0.14592531                0.52760616                0.01140236                0.75104727               -1.32532380
               4.78717915                2.31193366               30.07258517                0.00010000               -0.98699468               -0.11457426                0.24153556                0.56343862                4.64199992               -2.01909375
               5.76857161                2.15687554               30.05107087                0.00010000               -1.04782864                0.05582153                0.07237213                0.97737135                5.51506700               -1.18417087
               6.76622258                2.00455290               29.97152801                0.00010000               -0.11077692               -0.07535085               -0.16935855                0.76699707                2.24613920               -0.18986265
               7.76635607                1.85348756               29.88428570                0.00010000                0.04505180               -0.09323823               -0.39646740                0.59671279                3.49679959                0.64126249
               8.76712362                1.70428270               29.82989656                0.00010000                0.13889982               -0.04786956               -0.67912366                0.38210611                4.15601808                1.20759612
               9.76913407                1.55407082               29.75674153                0.53415949                0.24681390                0.24535732               -0.85348202                0.01965699                2.17353089                1.63364580
              10.77205989                1.40347536               29.66314332                1.00000000                0.32900131                0.31124121               -1.09624534               -0.00567917                0.77513798                0.76517514
              11.77571409                1.25317000               29.56197482                1.00000000                0.36541985                0.44041756               -1.36675056               -0.00421670                0.39896411               -1.03037408
               1.95694434                3.80317798               30.33426739                1.00000000               -0.22844393               -0.30255193                0.91668914               -0.01253792                0.09364552                1.51778968
               2.95465990                3.63972641               30.22386121                1.00000000               -0.19407048               -0.20021150                0.65762804                0.00895562                0.12755465               -0.02675179
               3.95306293                3.47584757               30.11409072                0.37009912               -0.10592855               -0.10297562                0.40697551               -0.02515449                1.07205599               -1.67782650
               4.95254133                3.31091560               30.02256092                0.00010000               -0.54109184               -0.05823470                0.14767126                0.49690242                5.07952088               -2.72681824
               5.94224110                3.15665694               29.99314621                0.00010000               -1.00280288               -0.02053171               -0.02202563                1.31958880                7.74914343               -3.05262118
               6.93248528                3.00184391               29.95367756                0.00010000               -0.79901750               -0.10287989               -0.20091706                1.02049441                6.93265366               -0.82976960
               7.92626075                2.85056104               29.90629392                0.00010000               -0.49719444               -0.16561741               -0.39824609                0.77639934                6.46717019                1.41192281
               8.92254139                2.70121131               29.85660876                0.00010000               -0.35515606               -0.17392378               -0.59639600                0.63186148                6.11103210                1.79838494
               9.91915763                2.55640663               29.80138551                0.19151530               -0.03660885                0.09871114               -0.80081753                0.15323330                3.94746525                3.06315163
              10.92180921                2.40640437               29.70768662                1.00000000                0.30707967                0.27392971               -1.03390281               -0.05322662                1.02976128                1.20431701
              11.92529922                2.25762272               29.59395812                1.00000000                0.34900096                0.43777060               -1.31746634               -0.00856926                0.03750296               -0.67609618
               2.11973892                4.80026356               30.29960019                1.00000000               -0.18689221               -0.27374153                0.78679530               -0.02024953                0.14056642                1.31911913
               3.11787000                4.63790046               30.18170824                0.85914397               -0.15598439               -0.15810290                0.52519508               -0.00197007                0.21112282               -0.24985580
               4.11661923                4.47507322               30.06517144                0.19581909               -0.07810815               -0.04753635                0.27586059               -0.06051824                1.22348453               -1.68576610
               5.11630783                4.31076896               29.96751043                0.00010000               -0.62920819                0.07103419                0.02233043                0.31677870                6.61645277               -2.72069606
               6.10403507                4.15646490               29.95903162                0.00010000               -1.17897296                0.07963614               -0.09774899                0.60575685               10.72730880               -1.40649227
               7.09272837                4.00249530               29.94245768                0.00010000               -1.07592045                0.12842409               -0.23122861                0.47947521               10.04290165               -0.20788062
               8.08251666                3.85017521               29.91907390                0.00010000               -0.94065616                0.05866625               -0.38148414                0.35553511                9.56716635                1.06924221
               9.07391525                3.70080423               29.89154791                0.00010000               -0.77554897                0.01314827               -0.54514668                0.32277326                9.38261192                2.29223359
              10.06700568                3.55604504               29.86302916                0.14564387               -0.20679870               -0.08017696               -0.72906347                0.11085288                5.20408754                3.74541830
              11.06977928                3.40895396               29.75040624                0.77196822                0.30501659                0.22567620               -0.95638163               -0.01726813                0.58994726                1.26804220
              12.07310601                3.26192542               29.62932151                1.00000000                0.33267334                0.43753592               -1.26613661               -0.03049141                0.17544143               -0.44698399
               2.28126555                5.79770315               30.26268637                1.00000000               -0.14547028               -0.23207455                0.64781004               -0.02543477                0.12951947                1.10537649
               3.27981085                5.63656436               30.13676485                0.67248882               -0.11407405               -0.10724606                0.37170121               -0.01036466                0.29899318               -0.51303869
               4.27898407                5.47489685               30.01416717                0.11383399               -0.11628145                0.01386288                0.11269687               -0.03866686                1.76278351               -1.99808461
               5.27748522                5.31233628               29.91751514                0.00010000               -0.81770875                0.24673096               -0.12218275                0.08449677                8.71671170               -1.40590346
               6.26262990                5.15824966               29.93398201                0.00010000               -1.45603723                0.27217115               -0.15978332                0.29801385               13.76841966               -0.51497417
               7.24836448                5.00441240               29.93736361                0.00010000               -1.37836859                0.27476644               -0.24873716                0.09163611               12.86570953                0.32892413
               8.23506252                4.85173436               29.93443269                0.00010000               -1.26187292                0.21934833               -0.36006826               -0.03338554               12.48055459                1.28848040
               9.22312702                4.70147428               29.92843709                0.00010000               -1.09187850                0.09647749               -0.48504151               -0.05131868               12.39363758                2.35608512
              10.21322495                4.55480309               29.92187726                0.14928686               -0.37717701               -0.11260815               -0.62583172               -0.03833316                6.51222194                3.45280331
              11.21558348                4.41091789               29.79619807                0.64750377                0.27607605                0.18202272               -0.88631862                0.02937063                0.32287411                1.39606732
              12.21874647                4.26637343               29.66555334                1.00000000                0.31629983                0.44215284               -1.21492273               -0.02327958                0.07840128               -0.36543494
               2.44150780                6.79562207               30.22375879                0.99384293               -0.10387992               -0.18196723                0.50338143               -0.02478187                0.06247450                0.94383974
               3.44046900                6.63575554               30.08929314                0.55764138               -0.07169157               -0.05748332                0.22037554               -0.01015344                0.26955972               -0.67947053
               4.44007397                6.47535047               29.95890048                0.06763434               -0.29120256                0.07003321               -0.04990854                0.04558514                3.49765597               -2.33010091
               5.43464495                6.31570358               29.88899837                0.00010000               -1.10773710                0.37423962               -0.18348611               -0.08134466               11.45901342                0.34068327
               6.41791923                6.16190833               29.91777527                0.00010000               -1.67842756                0.44285305               -0.19406846                0.03766653               15.98066192                0.23539406
               7.40107640                6.00799063               29.93718924                0.00010000               -1.65660819                0.44739915               -0.25576007               -0.19691919               15.36669032                0.70424146
               8.38478706                5.85456218               29.95208228                0.00010000               -1.56281265                0.35776972               -0.33185817               -0.39880318               15.15036665                1.41463607
               9.36982015                5.70273378               29.96521545                0.00010000               -1.39958310                0.16917555               -0.41662623               -0.49606853               15.17693613                2.27035635
              10.35679540                5.55379288               29.97847575                0.16890643               -0.55119000               -0.07942693               -0.50687084               -0.28882921                7.78563102                3.18981368
              11.35879635                5.41259441               29.84156873                0.58368560                0.24669651                0.16216880               -0.80900436                0.03596097                0.17308399                1.30621752
              12.36172933                5.27076847               29.70231631                0.99554676                0.29329857                0.42865946               -1.15228094               -0.01624416                0.06197203               -0.38493213
               2.60050297                7.79406380               30.18361752                0.98478160               -0.06235960               -0.13002289                0.36015627               -0.02369125                0.02425690                0.86540928
               3.59987938                7.63541469               30.04093871                0.50127340               -0.02776197               -0.01283588                0.07259512               -0.00551898                0.17007317               -0.72591714
               4.59994773                7.47629751               29.90110298                0.03733769               -0.52894518                0.11201358               -0.21078317                0.15052319                5.97319562               -2.48524120
               5.58930047                7.31982107               29.87448437                0.00010000               -1.44257780                0.45513466               -0.14204495                0.00311065               14.64985306                0.90757599
               6.57109618                7.16710673               29.90810938                0.00010000               -1.87641153                0.60914909               -0.21506144               -0.02639871               17.65218513                0.61296767
               7.55177224                7.01336038               29.94010010                0.00010000               -1.93764320                0.65508892               -0.25745872               -0.37532383               17.58874493                0.84902239
               8.53234331                6.85888976               29.97058535                0.00010000               -1.88986513                0.54065815               -0.29929846               -0.73550888               17.61994972                1.38667170
               9.51397494                6.70485779               30.00104806                0.00010000               -1.73777893                0.28411196               -0.34725493               -0.96471594               17.79066799                2.09390938
              10.49758773                6.55321455               30.03267941                0.19773683               -0.73239176               -0.03462547               -0.39535186               -0.58092414                9.02986018                2.90652489
              11.49932711                6.41416127               29.88576808                0.55233845                0.22428675                0.15929098               -0.74444931                0.01696412                0.07317031                1.15564188
              12.50207347                6.27494662               29.73800679                0.98933459                0.27463647                0.40300271               -1.10214882               -0.00678902                0.03873954               -0.50719986
               2.75833220                8.79302161               30.14309860                0.98050516               -0.02072855               -0.07959902                0.21920689               -0.02294396                0.00785045                0.85704118
               3.75812491                8.63549882               29.99244909                0.49709921                0.01729267                0.02892409               -0.07272228               -0.00088377                0.05021391               -0.72335999
               4.75867805                8.47759075               29.84256821                0.01139942               -0.71134818                0.14253251               -0.36683805                0.28351302                8.35942063               -2.35967010
               5.74389795                8.32480627               29.85808302                0.00010000               -1.74130520                0.59487864               -0.18380808                0.30217741               17.98490332                0.56455556
               6.72385195                8.17409131               29.90009370                0.00010000               -2.10555280                0.82341476               -0.25318060                0.07809529               19.46541829                0.56797828
               7.70178689                8.02109241               29.94351420                0.00010000               -2.26362359                0.89399919               -0.26448837               -0.39579162               19.70887980                0.73525391
               8.67857948                7.86537534               29.98841416                0.00010000               -2.27929314                0.82767289               -0.25713588               -0.93028514               19.96907482                1.15535063
               9.65620103                7.70841602               30.03493251                0.00010000               -2.13530170                0.47916291               -0.27445779               -1.46150995               20.28248201                1.89659864
              10.63587344                7.55310037               30.08388508                0.23252553               -0.93987358                0.01352089               -0.31667013               -0.90946995               10.26865895                2.50914246
              11.63740356                7.41578023               29.92818246                0.54649901                0.20746990                0.16888430               -0.69667794               -0.00840685                0.03059370                0.98426308
              12.64002284                7.27882853               29.77208366                0.98250050                0.26192810                0.37142211               -1.06804320                0.00096579                0.02186289               -0.66628536
               2.91508967                9.79247182               30.10273388                0.97829225                0.02028971               -0.03247698                0.08095733               -0.02261338               -0.01340669                0.74934816
               3.91529257                9.63599317               29.94406478                0.52024507                0.06104357                0.06991341               -0.21649255                0.00086516                0.07931063               -0.61284325
               4.91631054                9.47914816               29.78716523                0.00010000               -0.82245555                0.17067057               -0.51463666                0.49701229               10.52175422               -1.60675688
               5.89884346                9.33171864               29.83730288                0.00010000               -1.99692968                0.90457472               -0.34432104                0.48258036               21.09573595                0.21737525
               6.87637195                9.18357502               29.89023008                0.00010000               -2.31355386                1.00904545               -0.32211062                0.15605104               21.43180928                0.30609189
               7.85257238                9.03124036               29.94490674                0.00010000               -2.49789734                1.08017579               -0.28788906               -0.24161211               21.79623848                0.41731894
               8.82641400                8.87544321               30.00309978                0.00010000               -2.77763365                1.10616137               -0.22185533               -0.76612269               22.36562843                0.66832466
               9.79701971                8.71444105               30.06738924                0.00095855               -2.71899411                0.99642012               -0.10237365               -1.47065172               22.66402293                1.32060501
              10.77203412                8.55348497               30.13010760                0.27206836               -1.17944470                0.07260644               -0.27991845               -1.27241317               11.48356110                1.59636422
              11.77343081                8.41753895               29.96882734                0.55838043                0.19810370                0.18344156               -0.67029669               -0.02983062                0.13890972                0.73312891
              12.77599619                8.28237507               29.80429920                0.96545457                0.25653809                0.34157279               -1.05083610                0.00302402               -0.00854631               -0.67645091
               3.07083723               10.79237207               30.05997185                0.98967148                0.06286478               -0.00997460               -0.05486822                0.02725741                0.41072428                0.63513037
               4.07146588               10.63689709               29.89771590                0.80011910                0.10277983                0.09039210               -0.35665492                0.04893479                0.82447387               -0.50799260
               5.07289282               10.48100416               29.74364080                0.48060369               -1.11715893                0.18559967               -0.65025767                0.95826191               12.47673134               -1.01158106
               6.04912270               10.34289777               29.81435447                0.33899457               -2.27207866                1.11791242               -0.49863183                0.69132689               23.53709084                0.05993756
               7.02745125               10.19427222               29.87765401                0.32890496               -2.20181192                1.06971976               -0.40498819                0.09783787               23.38266719                0.13730331
               8.00508646               10.04269592               29.94261867                0.34395252               -2.36974572                1.14555616               -0.33584981               -0.08727487               23.77974882                0.20804487
               8.98005634                9.88749857               30.01183023                0.38278599               -2.81701100                1.20553528               -0.22961977               -0.35334192               24.53728801                0.35688327
               9.94874624                9.72834442               30.09043736                0.51675145               -3.63645319                1.39033704                0.00646367               -1.47465023               24.71946166                0.83319518
              10.90732727                9.55455250               30.16280116                0.65925199               -2.04146933                0.10675297               -0.28728892               -1.91545260               12.99320154                0.94004240
              11.90791685                9.41944906               30.00595142                0.79793228                0.15419112                0.19101086               -0.66298425                0.00397786                0.99221271                0.57612467
              12.91041110                9.28565998               29.83786875                0.97893670                0.24942436                0.32849163               -1.04164068                0.06258207                0.44969073               -0.59210150
               1.55154830                0.86303656               31.45279787                1.00000000               -0.34148966               -0.36750734                1.27837202               -0.06092645               -0.91461526                0.93781639
               2.54813340                0.68896170               31.35388825                1.00000000               -0.29404323               -0.28988023                1.02900816               -0.04322584               -1.18500300                0.10351142
               3.54566743                0.51458003               31.24955298                1.00000000               -0.18933073               -0.21172290                0.76800907               -0.03826758               -1.14895567               -0.21419068
               4.54434679                0.34050602               31.15140457                0.62851206                0.11824866               -0.15775303                0.51279857                0.23745225               -0.29906177               -0.81769592
               5.54803241                0.17267163               31.06423377                0.70166286                0.25243879               -0.07171290                0.24013556               -0.07021395                0.05146277                0.26613038
               6.54939556                0.00976533               30.97426464                0.77758402                0.12447225                0.01758894               -0.03166377               -0.02829317               -0.27499247                0.15334208
               7.55052185               -0.15179635               30.88076870                0.75645714                0.14108396                0.09314237               -0.30331102               -0.01047988               -0.50583910               -0.07764232
               8.55221724               -0.31266996               30.78614866                0.85108970                0.19190546                0.17895308               -0.58643844               -0.01787154               -0.77240220                0.10560577
               9.55435996               -0.47359322               30.68708375                1.00000000                0.25429003                0.26056092               -0.86541697               -0.01772472               -1.07035245                0.56333138
              10.55730304               -0.63491161               30.58623144                1.00000000                0.33532782                0.33974390               -1.13469617               -0.03159141               -1.04159746               -0.00029791
              11.56106652               -0.79635438               30.48767568                1.00000000                0.37634749                0.42807527               -1.39652547               -0.03805167               -0.92790070               -0.92060476
               1.72501389                1.85936148               31.41178603                1.00000000               -0.30844807               -0.35156057                1.14972046               -0.02055068               -0.13441858                1.27830519
               2.72192941                1.68606290               31.31259863                1.00000000               -0.27506450               -0.26920530                0.90114579               -0.00094164               -0.14605367                0.14404230
               3.71951260                1.51246280               31.21313416                0.93203325               -0.21269477               -0.18732743                0.64503505                0.00667589                0.01292138               -0.54420439
               4.71767551                1.33892849               31.11709388                0.23385678               -0.34059922               -0.13470363                0.39572946                0.34146141                1.63452455               -1.20399704
               5.71270061                1.17195450               31.05002643                0.36972778               -0.31644474                0.02299491                0.16193096               -0.06926629                2.45092415                1.05961624
               6.71134662                1.00994122               30.96883563                0.46026159               -0.05329579                0.06594449               -0.09924257                0.06259640                1.53265286                0.46959780
               7.71163470                0.84913508               30.88297720                0.37001068                0.07951744                0.10449370               -0.35954352                0.10861605                1.44653249               -0.32338359
               8.71293696                0.68911957               30.80004949                0.50712453                0.18344219                0.19962120               -0.62522201                0.07530361                1.48193825                0.55636224
               9.71530354                0.52901239               30.71511199                1.00000000                0.27153715                0.26019925               -0.86893619                0.03208397                0.76031279                0.80943108
              10.71836771                0.36848583               30.61796821                1.00000000                0.34126148                0.33556994               -1.12918176                0.00990507                0.08627130                0.11981359
              11.72212877                0.20792637               30.51955074                1.00000000                0.37610627                0.43659205               -1.38902567                0.00420886                0.02366341               -1.07686777
               1.89773445                2.85600534               31.37756671                1.00000000               -0.27211984               -0.32510863                1.03085820               -0.01316644                0.04727782                1.61989356
               2.89501325                2.68357760               31.27211307                1.00000000               -0.23995455               -0.23239090                0.77902500                0.01196020                0.22192252                0.12354973
               3.89293536                2.51083348               31.17010543                0.62509506               -0.16644664               -0.14536984                0.52051936                0.02348307                0.73583361               -1.32182287
               4.89168432                2.33781195               31.07494163                0.00070348               -0.86505030               -0.10365347                0.24203452                0.48554045                4.66990425               -2.02452311
               5.87563435                2.17313152               31.05177743                0.00010000               -0.91087050                0.03279197                0.05636917                0.80417925                5.57573180               -1.19306259
               6.87346691                2.01108422               30.96978943                0.00010000               -0.10592663               -0.07455995               -0.17800899                0.62240873                2.28131442               -0.17464271
               7.87351582                1.85029353               30.88032926                0.00010000                0.01895488               -0.07973891               -0.39641155                0.47486734                3.50998232                0.67098442
               8.87384601                1.69132247               30.82302239                0.00010000                0.10597834               -0.03075488               -0.69548755                0.29688153                4.20082003                1.24604167
               9.87563539                1.53161076               30.74813512                0.53585206                0.23705769                0.24447347               -0.86992407               -0.01257260                2.24423824                1.66926560
              10.87858716                1.37179979               30.65211934                1.00000000                0.33171103                0.31364255               -1.11277429               -0.01478541                0.79844776                0.78841333
              11.88226961                1.21237746               30.54824516                1.00000000                0.36824475                0.45322574               -1.38511430               -0.00332131                0.40928574               -1.03998123
               2.06960605                3.85285931               31.34340123                1.00000000               -0.22655802               -0.30355502                0.90949984               -0.01164885                0.09893152                1.53033637
               3.06734047                3.68141508               31.23041101                1.00000000               -0.19290751               -0.19863662                0.65261087                0.01163248                0.13762304               -0.02516979
               4.06574790                3.50955540               31.11814258                0.37494956               -0.11260989               -0.10190881                0.40413677               -0.00941653                1.08308820               -1.67926079
               5.06508828                3.33685542               31.02405953                0.00010000               -0.51179888               -0.05699557                0.15452445                0.41370322                5.12960745               -2.72661202
               6.05551193                3.17261034               30.99287629                0.00010000               -0.92277456               -0.03430803               -0.03266326                1.05954709                7.84296730               -3.04723081
               7.04663278                3.00845002               30.95161278                0.00010000               -0.73090643               -0.10714165               -0.21520581                0.80145084                7.01968722               -0.78777166
               8.04089380                2.84754030               30.90223139                0.00010000               -0.45377118               -0.16175415               -0.41714902                0.58292150                6.55042814                1.46712266
               9.03755736                2.68850448               30.85055760                0.00010000               -0.31595147               -0.16849212               -0.61712503                0.49014429                6.19896684                1.89381510
              10.03457477                2.53390186               30.79330660                0.18813147               -0.01260294                0.08212629               -0.81578448                0.08923497                4.01916993                3.12742870
              11.03730530                2.37475868               30.69715307                1.00000000                0.31661158                0.27763017               -1.06792810               -0.06866720                1.06590745                1.26119521
              12.04090700                2.21699089               30.58059793                1.00000000                0.36016973                0.45611961               -1.35233125               -0.01169091                0.05501328               -0.66433680
               2.24038993                4.84993424               31.30742480                1.00000000               -0.18401210               -0.27475885                0.77770354               -0.01987305                0.15013819                1.32142284
               3.23854981                4.67960486               31.18693002                0.85062433               -0.15416212               -0.15587983                0.51898308               -0.00165763                0.22708223               -0.26224652
               4.23730669                4.50879530               31.06791259                0.19750172               -0.08231789               -0.04419891                0.27257075               -0.05294922                1.24619682               -1.70924774
               5.23690345                4.33667204               30.96778852                0.00010000               -0.60379953                0.06138217                0.03395325                0.23501676                6.71074121               -2.75527461
               6.22523069                4.17244536               30.95802683                0.00010000               -1.11687447                0.07923801               -0.10371279                0.42869687               10.87344765               -1.37801789
               7.21456596                4.00894139               30.94007349                0.00010000               -1.00554501                0.11246934               -0.24780490                0.31272192               10.18151957               -0.15647076
               8.20511979                3.84705845               30.91515237                0.00010000               -0.86393122                0.04153420               -0.40664689                0.19925163                9.70088833                1.14123349
               9.19728734                3.68795262               30.88597271                0.00010000               -0.69769557               -0.00830056               -0.57340922                0.17861368                9.51329631                2.37548851
              10.19116588                3.53325329               30.85563855                0.14015110               -0.15812749               -0.11437333               -0.75258570                0.04694223                5.31193045                3.82971357
              11.19412479                3.37735239               30.74067675                0.75037956                0.32027451                0.22397266               -0.98625489               -0.02111017                0.63646625                1.34177382
              12.19757137                3.22149985               30.61643669                1.00000000                0.34465879                0.45547703               -1.30024559               -0.03869688                0.18067394               -0.41618803
               2.40986735                5.84736413               31.26911121                1.00000000               -0.14210921               -0.23272391                0.63677764               -0.02567144                0.13042936                1.10005489
               3.40844626                5.67829748               31.14044563                0.66497999               -0.11228044               -0.10360660                0.36437268               -0.01183678                0.30875129               -0.53409563
               4.40762174                5.50867142               31.01527867                0.11381563               -0.11538543                0.02066294                0.10959443               -0.04563295                1.79948160               -2.03574376
               5.40613855                5.33808307               30.91642881                0.00010000               -0.79026151                0.22573925               -0.10062030               -0.00985450                8.85750895               -1.39212338
               6.39181651                5.17419510               30.93240441                0.00010000               -1.39322061                0.26028969               -0.15740907                0.12381520               13.97796598               -0.46488634
               7.37827414                5.01069941               30.93480710                0.00010000               -1.29744602                0.25371093               -0.26540271               -0.06341297               13.05170837                0.39228262
               8.36586759                4.84837098               30.93070429                0.00010000               -1.16696739                0.19092865               -0.38938457               -0.18009354               12.66354428                1.36630147
               9.35493479                4.68833846               30.92343112                0.00010000               -0.98768734                0.06558702               -0.52062808               -0.19926175               12.57639889                2.44842284
              10.34611385                4.53161439               30.91544607                0.14290240               -0.31491281               -0.14789002               -0.66362288               -0.10364837                6.64632774                3.56198642
              11.34863654                4.37923813               30.78729238                0.62535465                0.28621470                0.17255885               -0.89568623                0.03414240                0.36726462                1.46114187
              12.35183814                4.22610043               30.65338147                1.00000000                0.32016046                0.45333310               -1.22278668               -0.02634830                0.08407816               -0.32547795
               2.57800979                6.84527977               31.22872948                0.99295824               -0.10040152               -0.18156287                0.49043055               -0.02511089                0.06167959                0.93626432
               3.57700578                6.67753273               31.09145678                0.55105192               -0.07006748               -0.05294283                0.21225239               -0.01223644                0.27526564               -0.69679518
               4.57660844                6.50920856               30.95838587                0.06611458               -0.29115457                0.07868895               -0.05295859                0.01869170                3.59156549               -2.36496070
               5.57118269                6.34118682               30.88744685                0.00010000               -1.07588939                0.34075394               -0.12839991               -0.19763080               11.66675626                0.45028325
               6.55509066                6.17765116               30.91589019                0.00010000               -1.60304381                0.41597173               -0.18603944               -0.13279673               16.21651159                0.30065759
               7.53912181                6.01401561               30.93456107                0.00010000               -1.56058947                0.41611364               -0.27331400               -0.35166579               15.59171212                0.77222221
               8.52387887                5.85087702               30.94861902                0.00010000               -1.45315582                0.32235371               -0.36474962               -0.54411807               15.38246702                1.49632204
               9.51005870                5.68926436               30.96086643                0.00010000               -1.28428091                0.13614318               -0.45730887               -0.64722642               15.41896923                2.36816134
              10.49819325                5.53029549               30.97321832                0.16247653               -0.48685493               -0.10127031               -0.54861095               -0.36309192                7.93729248                3.30957195
              11.50032160                5.38080357               30.83340031                0.56375547                0.25632842                0.15612458               -0.82723048                0.04047327                0.19871072                1.36296366
              12.50331982                5.23056651               30.69072638                0.99432142                0.29982211                0.43887706               -1.17013816               -0.01539770                0.06283790               -0.35371007
               2.74485920                7.84373288               31.18714654                0.98415386               -0.05864683               -0.12797883                0.34533469               -0.02400877                0.02356459                0.85969224
               3.74427273                7.67723863               31.04162105                0.49558666               -0.02588585               -0.00841657                0.06368594               -0.00713371                0.17163540               -0.73973940
               4.74434149                7.51024520               30.89898197                0.03461816               -0.52646963                0.11954963               -0.21365852                0.09829128                6.16682277               -2.51581380
               5.73374334                7.34489815               30.87335888                0.00010000               -1.40048448                0.41983705               -0.08807838               -0.11997089               14.93741823                1.00692829
               6.71633180                7.18251453               30.90599813                0.00010000               -1.78641901                0.57467329               -0.21142324               -0.17929247               17.87714999                0.66930137
               7.69801496                7.01902168               30.93743897                0.00010000               -1.82976614                0.61728417               -0.27886054               -0.52242992               17.85232075                0.91246657
               8.67973647                6.85481806               30.96743071                0.00010000               -1.77215837                0.49998475               -0.33576058               -0.87759229               17.90024669                1.47262699
               9.66257179                6.69106133               30.99737506                0.00010000               -1.62118340                0.25264051               -0.39088248               -1.10970602               18.08619779                2.19335824
              10.64731281                6.52958898               31.02852522                0.19219406               -0.66984093               -0.03976437               -0.43745480               -0.65543639                9.19025835                3.00908586
              11.64917498                6.38236062               30.87818155                0.53424232                0.23457447                0.16280905               -0.77540719                0.02112962                0.07863697                1.20278269
              12.65200430                6.23487797               30.72686284                0.98269718                0.28293191                0.41792157               -1.13171364               -0.00483442                0.03874563               -0.48539008
               2.91051811                8.84272019               31.14520889                0.98017113               -0.01673364               -0.07578742                0.20251977               -0.02314662                0.00737047                0.85407951
               3.91035078                8.67736440               30.99167447                0.49253569                0.01983202                0.03275909               -0.08246188               -0.00196318                0.04860720               -0.73488225
               4.91091475                8.51159956               30.83888363                0.00812315               -0.69184167                0.14659320               -0.37145799                0.21362427                8.59860092               -2.38411942
               5.89651394                8.34958356               30.85632497                0.00010000               -1.67667409                0.57031922               -0.17659794                0.18196301               18.34381420                0.55555283
               6.87738127                8.18914462               30.89753624                0.00010000               -2.00721289                0.78868748               -0.26330465               -0.05098456               19.72946880                0.59732003
               7.85636969                8.02636129               30.94075145                0.00010000               -2.15469486                0.85753808               -0.29285638               -0.52337814               20.02675432                0.78426314
               8.83428737                7.86087671               30.98567418                0.00010000               -2.16380176                0.78953147               -0.29583329               -1.05871279               20.30127736                1.23881790
               9.81309365                7.69431718               31.03197703                0.00010000               -2.02510736                0.44561926               -0.32048175               -1.59790687               20.60799045                2.05026658
              10.79378523                7.52950020               31.08049061                0.22878099               -0.88192225                0.02134029               -0.36202075               -0.97566921               10.42617753                2.57382971
              11.79545520                7.38405975               30.92101141                0.52890010                0.22016067                0.18001587               -0.73896959               -0.00609142                0.02481568                1.01610765
              12.79818844                7.23892494               30.76122483                0.96673504                0.27332355                0.38797247               -1.10758723                0.00368548                0.02130675               -0.65644120
               3.07510785                9.84221713               31.10345224                0.97830414                0.02462569               -0.02721017                0.06228858               -0.02268294               -0.01451428                0.74927842
               4.07535410                9.67789381               30.94184922                0.51758095                0.06434795                0.07317758               -0.22677050               -0.00010464                0.07677185               -0.62150942
               5.07639481                9.51317707               30.78198342                0.00010000               -0.77582850                0.17187264               -0.52076351                0.41786970               10.74914949               -1.62029766
               6.05983753                9.35630453               30.83378523                0.00010000               -1.89302136                0.86935320               -0.36449663                0.38531896               21.49700908                0.16318153
               7.03853438                9.19828828               30.88690802                0.00010000               -2.20111135                0.97490625               -0.34756533                0.06792422               21.77975483                0.31363898
               8.01581531                9.03617244               30.94186874                0.00010000               -2.39640235                1.05041970               -0.32524144               -0.32245746               22.18046489                0.44387493
               8.99060633                8.87060869               31.00070442                0.00010000               -2.69125686                1.08264313               -0.26378108               -0.85536233               22.81199336                0.72301936
               9.96199017                8.69997371               31.06626549                0.00547404               -2.62747422                0.96923383               -0.13006112               -1.56709576               22.99288327                1.49035405
              10.93805685                8.53001579               31.12701751                0.27157343               -1.11808836                0.08914047               -0.33668568               -1.31704982               11.56968304                1.61562455
              11.93962840                8.38596094               30.96185302                0.54007110                0.21453821                0.20030201               -0.72529140               -0.02859605                0.13453868                0.74547010
              12.94234761                8.24263742               30.79355552                0.95140205                0.27192090                0.35872777               -1.10095933                0.00591071               -0.00628300               -0.67665823
               3.23871109               10.84217599               31.05932342                0.98980150                0.06776553               -0.00411413               -0.07534197                0.02552058                0.41036714                0.63660207
               4.23938874               10.67882795               30.89409702                0.79948822                0.10751699                0.09341417               -0.36727830                0.04651491                0.82697614               -0.51466833
               5.24086143               10.51503701               30.73710393                0.47933515               -1.01398165                0.18599403               -0.65537173                0.85379589               12.70039869               -1.01834454
               6.21910911               10.36697063               30.80926889                0.33925306               -2.09947923                1.06660989               -0.52172933                0.60744446               23.97228902                0.01049371
               7.19887184               10.20864275               30.87344870                0.32907088               -2.07544909                1.03544675               -0.44136453                0.05369906               23.79772920                0.13694834
               8.17760013               10.04736968               30.93905598                0.34373707               -2.27464930                1.11972411               -0.38291897               -0.12717655               24.21905720                0.22148693
               9.15337886                9.88252958               31.00932357                0.38198205               -2.76277473                1.19208885               -0.27962671               -0.40613921               25.08175426                0.39017868
              10.12234463                9.71370185               31.09045221                0.52043308               -3.59609263                1.37281380               -0.01550013               -1.52688206               25.05596354                0.96898214
              11.08145700                9.53128301               31.15955392                0.66035857               -2.00414886                0.12672206               -0.36122688               -1.94178759               13.03078661                0.93571154
              12.08226166                9.38806579               30.99896986                0.78841381                0.17483488                0.21048482               -0.73426581                0.00414977                1.00625707                0.57894362
              13.08495370                9.24609950               30.82715010                0.97515599                0.26920454                0.34620831               -1.10527075                0.06398003                0.46475033               -0.59473671
               1.64248712                0.91413736               32.46555548                1.00000000               -0.34131361               -0.36692340                1.27425258               -0.05936907               -0.92950498                0.95166732
               2.63907398                0.73194501               32.36416609                1.00000000               -0.29560023               -0.28937565                1.02746723               -0.03924563               -1.20846660                0.10701236
               3.63657512                0.54944731               32.25721265                1.00000000               -0.19524009               -0.21177650                0.76664704               -0.03538746               -1.17958593               -0.21594444
               4.63516918                0.36713343               32.15649383                0.62823003                0.08626766               -0.15433579                0.51246377                0.18929687               -0.33356094               -0.82629637
               5.63830047                0.18994443               32.06662953                0.70183597                0.22059124               -0.07552619                0.23919508               -0.07395028                0.01994154                0.27077013
               6.63958101                0.01707607               31.97397398                0.77936044                0.12117939                0.01420234               -0.02540551               -0.03427493               -0.30154605                0.15701369
               7.64072406               -0.15449833               31.87778819                0.76032440                0.14716103                0.08958910               -0.29096607               -0.01536470               -0.53840233               -0.07539539
               8.64252423               -0.32532927               31.78034044                0.85119319                0.20378705                0.17514920               -0.57143865               -0.02509652               -0.81267753                0.10494127
               9.64479980               -0.49592482               31.67848453                1.00000000                0.26234086                0.25615635               -0.84972093               -0.02423497               -1.10586807                0.57323116
              10.64777105               -0.66670375               31.57492973                1.00000000                0.33594404                0.33916609               -1.12248678               -0.03038933               -1.07031782               -0.00426763
              11.65151868               -0.83760781               31.47374120                1.00000000                0.37476336                0.43153456               -1.38835900               -0.03417039               -0.95420350               -0.94688761
               1.82408578                1.91046812               32.42325421                1.00000000               -0.30592240               -0.35200410                1.14418257               -0.01907321               -0.13812374                1.29629476
               2.82102655                1.72905125               32.32159177                1.00000000               -0.27293737               -0.26908497                0.89790738                0.00238244               -0.15189430                0.15155687
               3.81862703                1.54732954               32.21961458                0.92562067               -0.21064820               -0.18797288                0.64850536                0.00816615                0.00968120               -0.55154100
               4.81681359                1.36559008               32.12114548                0.24318209               -0.30186909               -0.13279417                0.40222787                0.27978429                1.63947531               -1.24557757
               5.81258965                1.18918917               32.05163711                0.37624504               -0.26769744                0.01099965                0.15298896               -0.07170008                2.45013588                1.04548632
               6.81145964                1.01721810               31.96785120                0.46758388               -0.04082815                0.06034106               -0.10069551                0.04622099                1.52631240                0.46552671
               7.81177308                0.84639756               31.87940255                0.37982054                0.07634350                0.10756935               -0.35594142                0.09014090                1.43912840               -0.31235632
               8.81298651                0.67642222               31.79378480                0.51052198                0.17358011                0.20123501               -0.62529614                0.05245572                1.48598736                0.53759983
               9.81524469                0.50663674               31.70639770                1.00000000                0.26610689                0.25931716               -0.87372932                0.01938872                0.76870129                0.81879203
              10.81830865                0.33668791               31.60664598                1.00000000                0.34181755                0.33812608               -1.13612467                0.01092787                0.08666415                0.12054282
              11.82208104                0.16670753               31.50561525                1.00000000                0.37723899                0.44655010               -1.40040680                0.00843734                0.02441161               -1.10482791
               2.00493939                2.90709727               32.38784148                1.00000000               -0.26791816               -0.32707547                1.02372593               -0.01251464                0.05097949                1.64011826
               3.00226021                2.72656331               32.27988917                1.00000000               -0.23698894               -0.23225920                0.77449824                0.01175192                0.22441855                0.13129277
               4.00019962                2.54568785               32.17530554                0.63392731               -0.16774867               -0.14371736                0.52558811                0.01816988                0.73240304               -1.32825580
               4.99890524                2.36447755               32.07742586                0.00328641               -0.74805838               -0.10268066                0.25900716                0.40313802                4.70500020               -2.07228016
               5.98523845                2.19016443               32.05219826                0.00010000               -0.78041011                0.01368750                0.02209472                0.63814420                5.61892436               -1.20630998
               6.98329704                2.01828289               31.96796783                0.00010000               -0.09578467               -0.07068399               -0.18995901                0.47764575                2.32173073               -0.16443443
               7.98332275                1.84765306               31.87635747                0.00010000                0.00185632               -0.06585878               -0.40277727                0.34819685                3.51454543                0.69654308
               8.98333416                1.67869543               31.81598681                0.00010000                0.07995624               -0.01424620               -0.70996810                0.20337342                4.23786928                1.28508971
               9.98492188                1.50926152               31.73934305                0.53487001                0.22923240                0.24075150               -0.89260148               -0.04678894                2.31488783                1.71190863
              10.98791881                1.34005877               31.64088784                1.00000000                0.33631507                0.31914743               -1.13756249               -0.02054753                0.82250202                0.81227373
              11.99164818                1.17132319               31.53427253                1.00000000                0.37293693                0.47184571               -1.41569914               -0.00212217                0.42104170               -1.04918732
               2.18490341                3.90392661               32.35245739                1.00000000               -0.22323965               -0.30576145                0.90083723               -0.01246152                0.10492703                1.54251779
               3.18267101                3.72440607               32.23691342                1.00000000               -0.19136130               -0.19711981                0.64760124                0.00961108                0.14913923               -0.02470260
               4.18107618                3.54445520               32.12217346                0.38146141               -0.11356214               -0.09678364                0.40257673               -0.01922774                1.10033184               -1.68300004
               5.18039977                3.36353646               32.02565141                0.00010000               -0.47644987               -0.05916840                0.15731242                0.32554529                5.18750285               -2.75624925
               6.17154719                3.18946292               31.99249294                0.00010000               -0.84379245               -0.03939968               -0.04302614                0.81242786                7.92362600               -3.02601973
               7.16352392                3.01580442               31.94937344                0.00010000               -0.66113490               -0.10556649               -0.23581612                0.57768315                7.09688232               -0.74555923
               8.15832449                2.84508039               31.89795094                0.00010000               -0.40392039               -0.15630381               -0.44250609                0.38226635                6.62464098                1.51757454
               9.15544551                2.67613729               31.84426626                0.00010000               -0.26894641               -0.16274722               -0.64707248                0.33661075                6.28324830                1.98943809
              10.15294556                2.51145177               31.78506982                0.18374835                0.01952569                0.06191607               -0.83107410                0.02759658                4.08329867                3.19253764
              11.15583603                2.34307086               31.68632805                1.00000000                0.32820979                0.27956714               -1.09716331               -0.07578356                1.09713842                1.32254469
              12.15950976                2.17614445               31.56691150                1.00000000                0.36737286                0.47474621               -1.38480766               -0.01506912                0.07324653               -0.63883367
               2.36373125                4.90098204               32.31515426                1.00000000               -0.18073992               -0.27635202                0.76759919               -0.02101930                0.15991832                1.32263805
               3.36192385                4.72262091               32.19208791                0.84247800               -0.15232922               -0.15251920                0.51230735               -0.00412340                0.24338808               -0.27483892
               4.36068467                4.54375218               32.07062286                0.19878523               -0.07577164               -0.03732475                0.26921445               -0.07061965                1.27508398               -1.73191428
               5.36040842                4.36329418               31.96818950                0.00010000               -0.57328071                0.06495095                0.03615350                0.13670723                6.79511018               -2.78979815
               6.34921905                4.18937643               31.95695736                0.00010000               -1.05875915                0.08128294               -0.11111187                0.25705596               10.99914864               -1.34016434
               7.33923323                4.01617156               31.93750158                0.00010000               -0.92919234                0.09830268               -0.26957207                0.13626945               10.30469352               -0.09939763
               8.33063520                3.84452698               31.91094096                0.00010000               -0.77691209                0.02566734               -0.44016601                0.03269111                9.82328774                1.21658085
               9.32369499                3.67544048               31.88007972                0.00010000               -0.60474799               -0.02941383               -0.61288878                0.02202780                9.64095693                2.46063563
              10.31854024                3.51049984               31.84797744                0.13382273               -0.09922643               -0.14943596               -0.78262070               -0.02228431                5.42378305                3.89946211
              11.32171046                3.34565011               31.73068115                0.72302759                0.33296885                0.21731564               -1.00376085               -0.02621935                0.68532259                1.42710423
              12.32519962                3.18081811               31.60331659                1.00000000                0.34891573                0.47148681               -1.31594063               -0.04619455                0.18483448               -0.36424433
               2.54120529                5.89839957               32.27542192                1.00000000               -0.13868729               -0.23350123                0.62497134               -0.02661182                0.13131520                1.09357671
               3.53981841                5.72135568               32.14405231                0.65753715               -0.11073822               -0.09883489                0.35682088               -0.01483983                0.31855204               -0.55441615
               4.53899052                5.54370870               32.01635906                0.11307546               -0.11543769                0.02978901                0.10634256               -0.06448300                1.84365959               -2.07088231
               5.53750966                5.36483548               31.91550274                0.00010000               -0.75897985                0.22424957               -0.08919426               -0.12763932                8.99658245               -1.35463884
               6.52381093                5.19108858               31.93083383                0.00010000               -1.32054488                0.24756614               -0.15949775               -0.05744099               14.16481561               -0.40541163
               7.51109876                5.01777047               31.93205556                0.00010000               -1.20507652                0.23158222               -0.28868143               -0.22731351               13.21603388                0.46142571
               8.49970939                4.84559373               31.92664500                0.00010000               -1.05927762                0.16176031               -0.42791739               -0.33628070               12.83209905                1.44965513
               9.48991321                4.67554902               31.91802453                0.00010000               -0.87095763                0.03562867               -0.56804356               -0.36127185               12.75338885                2.54476886
              10.48229024                4.50846305               31.90860480                0.13562739               -0.24599195               -0.17973353               -0.71351140               -0.18323592                6.79475089                3.66985612
              11.48499337                4.34741717               31.77828435                0.60062298                0.29798123                0.16572005               -0.91086398                0.03315833                0.42449690                1.53580286
              12.48824987                4.18557418               31.64109761                1.00000000                0.32564961                0.46973909               -1.24302820               -0.02758224                0.08955718               -0.27681734
               2.71728679                6.89631202               32.23356740                0.99205248               -0.09688615               -0.18106685                0.47689983               -0.02578252                0.06083460                0.92764965
               3.71631793                6.72064422               32.09353819                0.54430989               -0.06857895               -0.04767351                0.20384313               -0.01529084                0.28097439               -0.71313924
               4.71591521                6.54434796               31.95784130                0.06384263               -0.29210874                0.08873853               -0.05611613               -0.01546017                3.71125678               -2.39703829
               5.71047575                6.36777917               31.88643037                0.00010000               -1.03899821                0.31230168               -0.07660070               -0.32485908               11.87443479                0.57827597
               6.69513524                6.19432776               31.91405448                0.00010000               -1.51469695                0.38790590               -0.18492889               -0.31138978               16.41050009                0.37025910
               7.68018181                6.02080321               31.93172296                0.00010000               -1.45020999                0.38244304               -0.29892338               -0.51391282               15.79095331                0.84467448
               8.66613104                5.84776219               31.94478729                0.00010000               -1.32907875                0.28467033               -0.40718042               -0.69736998               15.59838070                1.58404425
               9.65360024                5.67615306               31.95606928                0.00010000               -1.15618365                0.10326660               -0.50877820               -0.80829167               15.65391753                2.47422111
              10.64300737                5.50690517               31.96750353                0.15509207               -0.41688685               -0.11695364               -0.60181769               -0.44461832                8.10049659                3.44168926
              11.64526250                5.34896452               31.82502413                0.54286606                0.26632911                0.15943232               -0.85547282                0.04382861                0.23698822                1.42352062
              12.64833395                5.19021290               31.67891355                0.98871643                0.30714535                0.45830912               -1.20309439               -0.01336529                0.06405690               -0.31891438
               2.89202524                7.89477823               32.19052421                0.98352130               -0.05485846               -0.12572583                0.33001603               -0.02451888                0.02282153                0.85294932
               3.89147666                7.72040221               32.04221243                0.48971697               -0.02394421               -0.00356012                0.05429714               -0.00951874                0.17309015               -0.75254259
               4.89154636                7.54548347               31.89682981                0.03147373               -0.52219901                0.12794748               -0.21769754                0.03818286                6.38343194               -2.54455824
               5.88103268                7.37108152               31.87272281                0.00010000               -1.34936325                0.38559076               -0.04580308               -0.24954522               15.22259424                1.08158705
               6.86455909                7.19884670               31.90388091                0.00010000               -1.68233030                0.54000289               -0.21705783               -0.33912890               18.05989700                0.72178354
               7.84738607                7.02541933               31.93452289                0.00010000               -1.70734727                0.57723435               -0.30958507               -0.67786610               18.09038193                0.97815433
               8.83041215                6.85128714               31.96387014                0.00010000               -1.63908406                0.45578999               -0.38207557               -1.02782950               18.16478952                1.56534215
               9.81460439                6.67761435               31.99323041                0.00010000               -1.49128671                0.21889342               -0.44364821               -1.26094937               18.37697784                2.30252871
              10.80058642                6.50612398               32.02393031                0.18568614               -0.60210862               -0.04102489               -0.48584883               -0.73266434                9.35713626                3.12748658
              11.80256222                6.35060582               31.87025994                0.51578702                0.24496925                0.17331992               -0.81279585                0.02597663                0.08969808                1.25607494
              12.80548580                6.19474037               31.71537251                0.96439889                0.29235805                0.43970645               -1.17270096               -0.00213628                0.03931404               -0.45548587
               3.06554845                8.89379750               32.14714899                0.97984364               -0.01261344               -0.07176884                0.18534092               -0.02343940                0.00673093                0.84986171
               4.06542231                8.72057301               31.99079985                0.48856987                0.02255573                0.03691091               -0.09278661               -0.00352124                0.04532193               -0.74505433
               5.06599956                8.54690691               31.83513905                0.00504893               -0.66503482                0.15192176               -0.37815379                0.13645725                8.83478540               -2.40549662
               6.05212162                8.37549099               31.85455106                0.00010000               -1.59923564                0.54784217               -0.18678456                0.05236320               18.69130983                0.51435944
               7.03401485                8.20512781               31.89482761                0.00010000               -1.89687850                0.75443232               -0.28418585               -0.19093286               19.97057470                0.61878545
               8.01418405                8.03234790               31.93765708                0.00010000               -2.03177073                0.81969968               -0.33189560               -0.66253082               20.32315695                0.83361149
               8.99337944                7.85687799               31.98249749                0.00010000               -2.03198193                0.74835310               -0.34657883               -1.19859993               20.61913549                1.32885643
               9.97354441                7.68053092               32.02852288                0.00010000               -1.90084108                0.40793027               -0.37618518               -1.74167094               20.92921829                2.22131689
              10.95536261                7.50608468               32.07664467                0.22419328               -0.81893818                0.03050834               -0.40797319               -1.04230876               10.58548728                2.64815488
              11.95716565                7.35243091               31.91340307                0.51117202                0.23297587                0.19420426               -0.78432411               -0.00281463                0.01927580                1.05381955
              12.96002213                7.19900703               31.74993191                0.95118365                0.28564860                0.40881318               -1.15472819                0.00659800                0.02077813               -0.63694109
               3.23800544                9.89334286               32.10397965                0.97833781                0.02913954               -0.02178660                0.04305086               -0.02279626               -0.01565194                0.74771577
               4.23829683                9.72114043               31.93952937                0.51549687                0.06760464                0.07675608               -0.23758565               -0.00091903                0.07247508               -0.62838660
               5.23935753                9.54852191               31.77674996                0.00010000               -0.72188975                0.17446701               -0.52529520                0.33136446               10.96024698               -1.62777868
               6.22385904                9.38203836               31.83001294                0.00010000               -1.77369987                0.83246637               -0.39446302                0.27577651               21.87536542                0.10200950
               7.20388353                9.21393535               31.88327878                0.00010000               -2.07368770                0.94010107               -0.38406895               -0.03105717               22.10931678                0.31537199
               8.18238528                9.04181332               31.93840191                0.00010000               -2.28132038                1.02016420               -0.37481337               -0.41362317               22.54620358                0.47000244
               9.15825712                8.86625420               31.99782416                0.00010000               -2.59104977                1.05929226               -0.32178927               -0.95623046               23.25386956                0.78190549
              10.13056429                8.68577295               32.06478802                0.00961009               -2.52084371                0.94098492               -0.17966395               -1.67146513               23.31440383                1.68039000
              11.10784025                8.50673415               32.12337389                0.27072240               -1.04903548                0.10546150               -0.39068507               -1.36101576               11.64275034                1.63570791
              12.10958358                8.35448990               31.95432151                0.52186749                0.23126444                0.21816675               -0.78143083               -0.02686760                0.12847604                0.75991465
              13.11246554                8.20291663               31.78228002                0.93739895                0.28819612                0.37845260               -1.15671478                0.00884701               -0.00434245               -0.66999865
               3.40949737               10.89336177               32.05846501                0.98994621                0.07275125                0.00189135               -0.09641090                0.02383011                0.40952341                0.63643529
               4.41022489               10.72210813               31.89037033                0.79901371                0.11157765                0.09677019               -0.37874674                0.04452923                0.82745769               -0.51922263
               5.41172893               10.55039625               31.73053337                0.47833461               -0.90005884                0.18743410               -0.65955112                0.73874885               12.90457124               -1.01736009
               6.39222371               10.39214032               31.80391989                0.33948665               -1.90550920                1.01019575               -0.55125582                0.51314667               24.37783641               -0.03445910
               7.37361874               10.22392984               31.86882672                0.32923079               -1.93154905                0.99944899               -0.48844844                0.00406424               24.18734127                0.13338243
               8.35359273               10.05275118               31.93496029                0.34353102               -2.16617724                1.09378554               -0.44374896               -0.17255553               24.63805181                0.23497706
               9.33029520                9.87806383               32.00623769                0.38115633               -2.69787827                1.18096312               -0.34891410               -0.46622057               25.62487321                0.42678506
              10.29963516                9.69935062               32.09012736                0.52403205               -3.54349236                1.35776674               -0.07114216               -1.58640887               25.37955042                1.12228753
              11.25942535                9.50819391               32.15557662                0.66143930               -1.95946758                0.14597580               -0.43262989               -1.96930861               13.04476371                0.92806087
              12.26044581                9.35679425               31.99126610                0.77908546                0.19601350                0.23043451               -0.80656021                0.00533197                1.01845144                0.58111468
              13.26334562                9.20657608               31.81576334                0.96844996                0.28998091                0.36594469               -1.17448705                0.06619095                0.47981193               -0.59287331
               1.73573697                0.96667244               33.47828293                1.00000000               -0.34300773               -0.36710673                1.27282195               -0.05825235               -0.94393754                0.96412795
               2.73230689                0.77625059               33.37443760                1.00000000               -0.29944954               -0.28796380                1.02718490               -0.03833103               -1.23084444                0.11041677
               3.72974798                0.58545730               33.26488592                1.00000000               -0.20241007               -0.21181995                0.76904773               -0.03823713               -1.20524988               -0.21246063
               4.72825869                0.39467679               33.16165384                0.62927923                0.06015547               -0.15918780                0.51974103                0.14910915               -0.36747004               -0.83431282
               5.73095109                0.20807188               33.06901767                0.70011320                0.19736487               -0.07763824                0.23720220               -0.07162930               -0.01256158                0.27423293
               6.73220599                0.02515116               32.97375653                0.77864088                0.12181300                0.01067452               -0.01894808               -0.04010040               -0.31894585                0.16015539
               7.73338735               -0.15653299               32.87494938                0.76390974                0.15306831                0.08516522               -0.27672707               -0.02091897               -0.56018419               -0.07173472
               8.73526735               -0.33745986               32.77471989                0.85514470                0.21329784                0.16850630               -0.54841992               -0.03167745               -0.84199363                0.10492595
               9.73765330               -0.51795495               32.67008934                1.00000000                0.26863289                0.24846610               -0.82427179               -0.03217115               -1.13617283                0.57952148
              10.74064001               -0.69842946               32.56378170                1.00000000                0.33531040                0.33680358               -1.10321838               -0.02992065               -1.09749068               -0.00888907
              11.74435951               -0.87904023               32.45990850                1.00000000                0.37195010                0.43387154               -1.37485171               -0.02918282               -0.97915973               -0.97393177
               1.92557629                1.96300137               33.43466968                1.00000000               -0.30451381               -0.35339546                1.13991855               -0.01695710               -0.14292081                1.31293114
               2.92253115                1.77337095               33.33055678                1.00000000               -0.27118907               -0.26843981                0.89573515                0.00342006               -0.15889461                0.15783503
               3.92015251                1.58333910               33.22610427                0.94087700               -0.20443320               -0.18739071                0.64354399                0.00063556                0.00032246               -0.54599435
               4.91844249                1.39308491               33.12513844                0.25245851               -0.25774496               -0.14081835                0.38621068                0.22946592                1.63016711               -1.25780149
               5.91499761                1.20729550               33.05308621                0.38117495               -0.21675357                0.00388026                0.13380021               -0.06536137                2.45005101                1.02367535
               6.91410742                1.02525790               32.96682172                0.47270382               -0.02569716                0.05610686               -0.10967886                0.02797435                1.53081344                0.46201395
               7.91448367                0.84431867               32.87585838                0.38844775                0.07770733                0.11044951               -0.35601527                0.06838538                1.43658907               -0.30071649
               8.91566156                0.66422520               32.78754357                0.51364118                0.16663618                0.20013309               -0.62034956                0.02807525                1.48852663                0.52005391
               9.91781639                0.48452971               32.69763740                1.00000000                0.26109404                0.25658871               -0.87616142                0.00460927                0.77623008                0.82537934
              10.92088344                0.30493858               32.59524572                1.00000000                0.34310352                0.33963210               -1.14374259                0.01182400                0.08742506                0.11984059
              11.92467846                0.12529848               32.49154261                1.00000000                0.37950166                0.45688497               -1.41430710                0.01406737                0.02531883               -1.13629871
               2.11465866                2.95960453               33.39804123                1.00000000               -0.26210914               -0.33022424                1.01667659               -0.01146147                0.05110376                1.65973076
               3.11203757                2.77088180               33.28760303                1.00000000               -0.23059625               -0.23243287                0.76920322                0.00904946                0.22808370                0.14014596
               4.11004673                2.58170948               33.18061719                0.64940708               -0.15729812               -0.13805080                0.53089727               -0.00786631                0.72903253               -1.32498438
               5.10889160                2.39186042               33.08012177                0.00542202               -0.62879330               -0.10590562                0.26183384                0.32581841                4.68996345               -2.07509564
               6.09747087                2.20814949               33.05221933                0.00010000               -0.65746490                0.00176669               -0.01741699                0.48388385                5.64768900               -1.20199139
               7.09574231                2.02627329               32.96599025                0.00010000               -0.08415564               -0.06264067               -0.21208155                0.32657686                2.37904539               -0.14926056
               8.09578775                1.84567600               32.87227372                0.00010000               -0.00622441               -0.05051823               -0.42092761                0.21398184                3.52063051                0.72073929
               9.09561782                1.66654280               32.80882303                0.00010000                0.06221785               -0.00124410               -0.72003041                0.09713505                4.26511700                1.32122211
              10.09703211                1.48717682               32.73028309                0.52710858                0.22449486                0.22942525               -0.92408363               -0.09085277                2.38168101                1.76905465
              11.10010771                1.30836319               32.62936809                1.00000000                0.34444710                0.32388418               -1.17058318               -0.02782022                0.84751049                0.84072092
              12.10392105                1.13009747               32.51993117                1.00000000                0.38133382                0.49358330               -1.45759806               -0.00024253                0.43303767               -1.05605704
               2.30279252                3.95639689               33.36141798                1.00000000               -0.21853362               -0.30910291                0.89165812               -0.01434135                0.10979752                1.55513719
               3.30060719                3.76872230               33.24336304                1.00000000               -0.18879835               -0.19562979                0.64217137                0.00462993                0.15827616               -0.02108160
               4.29901656                3.58057808               33.12619412                0.38830641               -0.10441690               -0.08690310                0.40214704               -0.05477304                1.11189621               -1.68678243
               5.29851885                3.39096680               33.02720577                0.00010000               -0.43770722               -0.04178379                0.15368971                0.21661494                5.22024438               -2.75352132
               6.29026241                3.20733083               32.99201577                0.00010000               -0.77032074               -0.04241506               -0.05565715                0.57345060                7.98346619               -2.98113329
               7.28311243                3.02400509               32.94689646                0.00010000               -0.58843083               -0.10009892               -0.26237204                0.34556979                7.16004186               -0.69611958
               8.27849380                2.84330830               32.89338127                0.00010000               -0.35044933               -0.14900026               -0.47377127                0.17074415                6.68985595                1.56829975
               9.27610345                2.66420032               32.83761615                0.00010000               -0.21574235               -0.15678648               -0.68744073                0.16310421                6.36348774                2.08948087
              10.27417895                2.48911821               32.77668512                0.17657837                0.06514720                0.02653650               -0.84299075               -0.03880230                4.11607837                3.23927960
              11.27740639                2.31141626               32.67520980                0.97392723                0.35130493                0.27874971               -1.14235860               -0.07818462                1.12177269                1.40478679
              12.28120505                2.13517015               32.55290178                1.00000000                0.37986553                0.49656936               -1.43125991               -0.02080583                0.10324240               -0.58977571
               2.48972101                4.95342247               33.32277679                1.00000000               -0.17720370               -0.27871793                0.75704695               -0.02330889                0.16839624                1.32463514
               3.48794897                4.76696920               33.19717617                0.83448916               -0.15071182               -0.14817081                0.50540730               -0.00890362                0.25792650               -0.28572676
               4.48670677                4.57997142               33.07329688                0.19948541               -0.07389108               -0.02713725                0.26516827               -0.09582529                1.29846298               -1.75165010
               5.48647115                4.39102475               32.96851159                0.00010000               -0.54025919                0.08913086                0.02763252                0.02031718                6.85883412               -2.78201773
               6.47590159                4.20730119               32.95580460                0.00010000               -0.98974583                0.08294567               -0.12320818                0.07720808               11.10848737               -1.29212938
               7.46667623                4.02427132               32.93468205                0.00010000               -0.84470908                0.08507281               -0.29781009               -0.04669860               10.40781586               -0.03494415
               8.45900741                3.84269600               32.90634905                0.00010000               -0.68031201                0.01047292               -0.48342103               -0.14087168                9.92922292                1.29749851
               9.45306999                3.66340707               32.87371494                0.00010000               -0.49836421               -0.04780156               -0.66804577               -0.15245626                9.76584788                2.55570862
              10.44904012                3.48770755               32.83998614                0.12617284               -0.02889533               -0.18163934               -0.84358697               -0.09493989                5.55312390                3.96358755
              11.45249209                3.31393818               32.72060154                0.68828939                0.34785220                0.20974731               -1.01235922               -0.02257121                0.74538091                1.53032334
              12.45599717                3.14002885               32.59011788                1.00000000                0.35050800                0.48984900               -1.33191879               -0.05104652                0.19723638               -0.29084953
               2.67523289                5.95082253               33.28161063                1.00000000               -0.13527192               -0.23460005                0.61288313               -0.02816913                0.13174928                1.08730349
               3.67388017                5.76575888               33.14758205                0.65001407               -0.10941896               -0.09296859                0.34904674               -0.01923987                0.32773448               -0.57326491
               4.67304451                5.58003533               33.01740552                0.11148872               -0.11423698                0.04128110                0.10287271               -0.08874224                1.89016994               -2.10248374
               5.67159543                5.39274941               32.91464493                0.00010000               -0.72422515                0.22537646               -0.08054617               -0.25292652                9.12829433               -1.27142628
               6.65856000                5.20898975               32.92921445                0.00010000               -1.24058890                0.23540366               -0.16764803               -0.24681908               14.32973923               -0.33515133
               7.64678365                5.02570654               32.92903347                0.00010000               -1.10096983                0.20852238               -0.32036444               -0.39700737               13.35577981                0.53699914
               8.63654061                4.84351776               32.92214594                0.00010000               -0.93704380                0.13183832               -0.47851846               -0.49847500               12.98166969                1.54084663
               9.62804277                4.66324429               32.91207025                0.00010000               -0.73957822                0.00679156               -0.63320056               -0.53407623               12.91956407                2.65333923
              10.62174904                4.48548542               32.90117584                0.12733235               -0.17045540               -0.19518951               -0.78436154               -0.27124344                6.96131876                3.78691769
              11.62463366                4.31561121               32.76907510                0.57406583                0.31268636                0.16801067               -0.94552742                0.03204816                0.50116063                1.62449386
              12.62800277                4.14496713               32.62852091                1.00000000                0.33691050                0.49422328               -1.29176661               -0.02316060                0.09351030               -0.21876143
               2.85928492                6.94873047               33.23826747                0.99115904               -0.09335519               -0.18061279                0.46321165               -0.02674808                0.05982388                0.91881206
               3.85835137                6.76510983               33.09553364                0.53716230               -0.06717625               -0.04163835                0.19494906               -0.01923293                0.28649355               -0.72836276
               4.85794139                6.58079704               32.95726354                0.06082451               -0.29465794                0.10104785               -0.06008392               -0.05611579                3.85477554               -2.42602874
               5.85245821                6.39553227               32.88591484                0.00010000               -0.99666584                0.28298926               -0.02648137               -0.46195403               12.07672135                0.72646771
               6.83800808                6.21200926               32.91219161                0.00010000               -1.41250680                0.35936618               -0.19234458               -0.49604325               16.56041683                0.44497987
               7.82420807                6.02844176               32.92858260                0.00010000               -1.32539568                0.34720522               -0.33457432               -0.68133840               15.96289687                0.92274201
               8.81150016                5.84533277               32.94047541                0.00010000               -1.18936336                0.24484670               -0.46232389               -0.85573620               15.79566778                1.68084996
               9.80042080                5.66354290               32.95069087                0.00010000               -1.01259149                0.07070069               -0.57621625               -0.97602997               15.88000256                2.59527448
              10.79124833                5.48380376               32.96118196                0.14672626               -0.33847291               -0.12439241               -0.67498022               -0.52837721                8.27843981                3.59838891
              11.79365135                5.31729839               32.81629085                0.52169839                0.27868913                0.17459839               -0.89861478                0.05013148                0.29094914                1.50091886
              12.79682211                5.14991332               32.66666449                0.96704440                0.31707697                0.48913765               -1.25613765               -0.01037482                0.06625220               -0.26632589
               3.04193920                7.94721027               33.19374686                0.98290419               -0.05102689               -0.12342421                0.31460547               -0.02511073                0.02191758                0.84566074
               4.04142894                7.76492611               33.04270700                0.48356596               -0.02197300                0.00182706                0.04421320               -0.01190942                0.17379637               -0.76429293
               5.04149974                7.58205629               32.89462802                0.02806405               -0.51424038                0.13862173               -0.22415804               -0.02995284                6.61678361               -2.57136771
               6.03114413                7.39840920               32.87244282                0.00010000               -1.28850478                0.35241700               -0.01830587               -0.38429248               15.50186690                1.12681263
               7.01572965                7.21617707               32.90165697                0.00010000               -1.56553774                0.50566037               -0.23323263               -0.50399381               18.20267419                0.77074063
               7.99983337                7.03265065               32.93124727                0.00010000               -1.57024526                0.53563712               -0.35166862               -0.84037524               18.30281596                1.04761253
               8.98432474                6.84841469               32.95978920                0.00010000               -1.48910969                0.40835293               -0.44142638               -1.18441130               18.41376349                1.66657195
               9.97005118                6.66465830               32.98850210                0.00010000               -1.34493685                0.18215012               -0.50994255               -1.41535396               18.66566084                2.42585195
              10.95742601                6.48299758               33.01880824                0.17812071               -0.52622223               -0.03920191               -0.54573262               -0.80943390                9.53587721                3.27120760
              11.95952673                6.31910318               32.86192563                0.49717959                0.25697073                0.18880868               -0.85751183                0.03272168                0.10941189                1.32515981
              12.96256542                6.15474988               32.70340882                0.94684022                0.30386867                0.46826498               -1.22464746                0.00088038                0.04079229               -0.40603373
               3.22335102                8.94626199               33.14891570                0.97953750               -0.00838611               -0.06774232                0.16809768               -0.02375329                0.00590377                0.84472549
               4.22326716                8.76514637               32.98981873                0.48476058                0.02541159                0.04147418               -0.10388330               -0.00440749                0.04011199               -0.75386402
               5.22385925                8.58356948               32.83132055                0.00234782               -0.63077889                0.15854429               -0.38600439                0.05253354                9.06012566               -2.42258308
               6.21065158                8.40258061               32.85258928                0.00010000               -1.50862497                0.52833465               -0.21393081               -0.08875555               19.02451163                0.44423708
               7.19368675                8.22212247               32.89185253                0.00010000               -1.77443188                0.72097689               -0.31609534               -0.34120022               20.19219827                0.63331272
               8.17516294                8.03915451               32.93411353                0.00010000               -1.89412337                0.78093157               -0.38371738               -0.81310075               20.59795463                0.88445884
               9.15580428                7.85349982               32.97874260                0.00010000               -1.88160495                0.70459527               -0.41351689               -1.34978682               20.92449841                1.42495168
              10.13753084                7.66718590               33.02445333                0.00010000               -1.75947515                0.36593663               -0.44563520               -1.89013831               21.25472319                2.40402887
              11.12061478                7.48301972               33.07233114                0.21859908               -0.74886839                0.04002070               -0.45675392               -1.10794888               10.75466660                2.73884653
              12.12255347                7.32107457               32.90532493                0.49334817                0.24657671                0.20965133               -0.83288597                0.00119780                0.01532036                1.10208945
              13.12554631                7.15927862               32.73813027                0.93594656                0.29928396                0.43280701               -1.20821922                0.00932142                0.02029117               -0.60250283
               3.40369537                9.94585542               33.10431326                0.97840538                0.03379264               -0.01640064                0.02380558               -0.02298788               -0.01675954                0.74508923
               4.40403330                9.76575560               32.93709751                0.51339132                0.07104010                0.08076046               -0.24941323               -0.00129326                0.06774609               -0.63381137
               5.40511617                9.58522718               32.77147752                0.00010000               -0.66086344                0.17767589               -0.53073108                0.23821702               11.15205047               -1.63075961
               6.39081603                9.40897589               32.82589597                0.00010000               -1.63922088                0.79434737               -0.43364998                0.15451666               22.22874951                0.03918717
               7.37233175                9.23059661               32.87922665                0.00010000               -1.93110133                0.90460189               -0.43131409               -0.14075471               22.41986346                0.31294311
               8.35219400                9.04826928               32.93437247                0.00010000               -2.15170722                0.98989794               -0.43881058               -0.51513767               22.89174661                0.49610515
               9.32929761                8.86250660               32.99426864                0.00010000               -2.47327417                1.03691913               -0.40150838               -1.06936382               23.68693685                0.84365138
              10.30272852                8.67197704               33.06267221                0.01306550               -2.39596210                0.91415143               -0.26475949               -1.78213712               23.64420179                1.87812677
              11.28137837                8.48379799               33.11920381                0.26923326               -0.97183614                0.12095157               -0.44218895               -1.40410385               11.72065420                1.66005556
              12.28329179                8.32329620               32.94622440                0.50375697                0.24826895                0.23621673               -0.83800990               -0.02507352                0.12098425                0.77862789
              13.28634375                8.16340602               32.77042122                0.92349108                0.30519525                0.39983888               -1.21674685                0.01143944               -0.00291529               -0.65478274
               3.58309091               10.94593397               33.05739520                0.99011154                0.07786239                0.00785473               -0.11744495                0.02231528                0.40802786                0.63519163
               4.58386954               10.76676158               32.88652208                0.79873839                0.11561896                0.10059818               -0.39170210                0.04307539                0.82645020               -0.52246219
               5.58540329               10.58712299               32.72391291                0.47743227               -0.77485287                0.18958159               -0.66647345                0.61401144               13.09025061               -1.01429169
               6.56837248               10.41846756               32.79824377                0.33970475               -1.69125129                0.94916690               -0.58645186                0.41022101               24.74959448               -0.07218790
               7.55157827               10.24021450               32.86367973                0.32938727               -1.77111430                0.96178962               -0.54639994               -0.05110338               24.54867942                0.12824810
               8.53295020               10.05895246               32.93018100                0.34330008               -2.04345082                1.06831843               -0.52050729               -0.22319529               25.03294996                0.24821648
               9.51070925                9.87423821               33.00234529                0.38030532               -2.61767431                1.17316073               -0.44404086               -0.53301231               26.15599051                0.46500562
              10.48059671                9.68546893               33.08902936                0.52735066               -3.47478588                1.34918982               -0.17989949               -1.65315348               25.70906122                1.28155817
              11.44121353                9.48543875               33.15090132                0.66232150               -1.90763681                0.16407621               -0.50035523               -1.99998489               13.06140003                0.91880030
              12.44244397                9.32579890               32.98283866                0.76985940                0.21709660                0.25026978               -0.87785768                0.00705008                1.02945682                0.58380321
              13.44555547                9.16727540               32.80366036                0.96177365                0.31114935                0.38693747               -1.24714259                0.06882150                0.49468969               -0.58624675
               1.83129903                1.02064640               34.49101191                1.00000000               -0.34449270               -0.36779610                1.27394474               -0.05772860               -0.95689840                0.97418961
               2.82785410                0.82191498               34.38470979                1.00000000               -0.30225752               -0.28724608                1.02728340               -0.03825183               -1.24888894                0.11623046
               3.82525388                0.62276141               34.27259361                1.00000000               -0.20830314               -0.20830235                0.76917929               -0.04205534               -1.22225643               -0.21108901
               4.82368804                0.42347798               34.16688865                0.63046571                0.03463384               -0.15118662                0.51929236                0.10122493               -0.39842586               -0.85167913
               5.82594655                0.22729201               34.07137358                0.69690066                0.17911738               -0.08309852                0.23171529               -0.07037595               -0.04529025                0.28008588
               6.82727038                0.03414879               33.97359502                0.77434936                0.13052313                0.00758620               -0.01684422               -0.04881517               -0.32614516                0.16272216
               7.82855701               -0.15775102               33.87225365                0.76416673                0.16370064                0.08099100               -0.26596338               -0.02874554               -0.56639529               -0.06772625
               8.83054440               -0.34887812               33.76937204                0.85986576                0.22287544                0.15982755               -0.52140088               -0.04061319               -0.85261558                0.10571788
               9.83301452               -0.53943052               33.66199909                1.00000000                0.27288349                0.23810981               -0.79410908               -0.04130961               -1.15633443                0.58329969
              10.83600207               -0.72980955               33.55286537                1.00000000                0.33336831                0.33078859               -1.07782504               -0.03121873               -1.11925139               -0.01075209
              11.83968189               -0.92035465               33.44624417                1.00000000                0.36798236                0.43135407               -1.35537192               -0.02333577               -0.99806851               -0.99419146
               2.02945316                2.01696844               34.44605258                1.00000000               -0.30390860               -0.35514021                1.13803743               -0.01565053               -0.14741527                1.32731869
               3.02641408                1.81904252               34.33950647                1.00000000               -0.27006714               -0.26775020                0.89366734                0.00508846               -0.17050496                0.16537568
               4.02405182                1.62067838               34.23248546                0.95378253               -0.19895456               -0.18315478                0.63426448               -0.00343748               -0.02184289               -0.53094287
               5.02243499                1.42196612               34.12886969                0.26140002               -0.20722168               -0.12848385                0.36655060                0.15984892                1.61028177               -1.25432654
               6.01990739                1.22646102               34.05431311                0.38539223               -0.15656201               -0.00484834                0.11059017               -0.06821287                2.45489900                1.00362213
               7.01930375                1.03422466               33.96565763                0.47538957               -0.00621846                0.05370758               -0.12694779                0.00755185                1.54665957                0.46005845
               8.01978302                0.84305889               33.87228225                0.39411773                0.08371354                0.11479851               -0.36464641                0.04205333                1.44729218               -0.28967736
               9.02097802                0.65272015               33.78137781                0.51463221                0.16420627                0.19627035               -0.61572832               -0.00127891                1.49534495                0.50801689
              10.02306714                0.46295058               33.68887447                1.00000000                0.25869644                0.25127106               -0.87504456               -0.01129547                0.78231228                0.83027721
              11.02615194                0.27349833               33.58377113                1.00000000                0.34632455                0.33593292               -1.15056851                0.01135901                0.08799933                0.12254994
              12.02999363                0.08395889               33.47732911                1.00000000                0.38416889                0.45987661               -1.42684662                0.02109946                0.02673188               -1.16336679
               2.22683786                3.01354360               34.40817501                1.00000000               -0.25919379               -0.33373202                1.01163802               -0.01055854                0.04962450                1.67822852
               3.22424592                2.81655997               34.29527324                1.00000000               -0.22881668               -0.23156061                0.76545915                0.01005180                0.22958343                0.15040716
               4.22226153                2.61909831               34.18592348                0.66431494               -0.15717734               -0.13192637                0.52715350               -0.01160583                0.71275228               -1.30690268
               5.22110238                2.42090830               34.08266254                0.00701436               -0.49688868               -0.09449483                0.24549919                0.23223744                4.64016912               -2.03720023
               6.21232375                2.22719504               34.05184992                0.00010000               -0.51394121               -0.01030188               -0.05428911                0.29665407                5.66290210               -1.18385880
               7.21082355                2.03522295               33.96372620                0.00010000               -0.07105851               -0.05172166               -0.24411684                0.17027133                2.44437273               -0.12500057
               8.21090258                1.84454495               33.86793892                0.00010000               -0.00982094               -0.03439181               -0.45208682                0.07216189                3.53906606                0.74986519
               9.21062713                1.65504729               33.80158620                0.00010000                0.05539253                0.01574250               -0.73312958               -0.02583235                4.28381363                1.35362500
              10.21201043                1.46559490               33.72086137                0.49941207                0.22969012                0.17918700               -0.96219393               -0.17659197                2.44140585                1.85751031
              11.21522094                1.27690911               33.61747617                1.00000000                0.35861692                0.32174088               -1.21055758               -0.04245710                0.87272909                0.87447050
              12.21918277                1.08884288               33.50512057                1.00000000                0.39618370                0.51016724               -1.50216999                0.00322812                0.44005041               -1.05839070
               2.42320924                4.01029380               34.37029055                1.00000000               -0.21488410               -0.31307533                0.88428428               -0.01512172                0.11299558                1.56809281
               3.42106040                3.81441130               34.24975685                1.00000000               -0.18689326               -0.19363038                0.63689460                0.00312099                0.16590294               -0.01495489
               4.41947137                3.61803986               34.13021640                0.39377183               -0.10386955               -0.07952697                0.40133141               -0.06390566                1.11843008               -1.68598922
               5.41898301                3.42007622               34.02872520                0.00010000               -0.39727729               -0.03468145                0.15184890                0.10950689                5.22992038               -2.71885109
               6.41152583                3.22625498               33.99137980                0.00010000               -0.68118721               -0.04299383               -0.07686678                0.30042959                8.02491423               -2.91549107
               7.40535926                3.03319022               33.94412600                0.00010000               -0.50619556               -0.09436394               -0.29500154                0.10688109                7.21300186               -0.63613314
               8.40140192                2.84237106               33.88847551                0.00010000               -0.29739202               -0.14163344               -0.51202361               -0.04355130                6.75134163                1.62443187
               9.39941142                2.65303500               33.83051745                0.00010000               -0.18642165               -0.14733624               -0.73034811               -0.05445061                6.47122433                2.17971144
              10.39767348                2.46653432               33.76821000                0.16522271                0.13217011               -0.01570154               -0.93429085               -0.11980827                4.20296934                3.36278466
              11.40205482                2.27993315               33.66348088                0.92022494                0.42585845                0.27410851               -1.23800474               -0.05533382                1.13084606                1.53609312
              12.40619065                2.09416223               33.53828630                1.00000000                0.41358280                0.52695579               -1.52029807               -0.03064694                0.15034038               -0.50988777
               2.61830042                5.00728209               34.33029520                1.00000000               -0.17381308               -0.28194212                0.74770306               -0.02506236                0.17551719                1.32745831
               3.61656228                4.81268737               34.20219605                0.82667032               -0.14909577               -0.14391962                0.49876879               -0.01282477                0.27017411               -0.29455792
               4.61531850                4.61750777               34.07592623                0.19915203               -0.07424491               -0.01737457                0.26018805               -0.11065095                1.31600798               -1.76883612
               5.61507739                4.42021468               33.96874215                0.00010000               -0.50500795                0.09637466                0.02286486               -0.09445001                6.91672408               -2.75499356
               6.60521834                4.22633516               33.95449320                0.00010000               -0.91161414                0.08717767               -0.14205586               -0.11938358               11.20299537               -1.23150715
               7.59684510                4.03333567               33.93154538                0.00010000               -0.75157822                0.07098398               -0.33377083               -0.23496363               10.49205906                0.03617969
               8.59018678                3.84171228               33.90127254                0.00010000               -0.57351221               -0.00433782               -0.53690659               -0.31655024               10.01839796                1.37966575
               9.58537486                3.65210056               33.86671881                0.00010000               -0.37353280               -0.06975657               -0.74266782               -0.32841243                9.86647700                2.65671031
              10.58271612                3.46528087               33.83110570                0.11698715                0.05557419               -0.17643682               -0.94002528               -0.14355036                5.69522511                4.05754781
              11.58648634                3.28239128               33.71043396                0.65125365                0.36977759                0.21422908               -1.05565601               -0.01410880                0.84509197                1.67433014
              12.59011167                3.09938199               33.57667822                1.00000000                0.36253294                0.52450541               -1.40039308               -0.04903723                0.22185043               -0.18925356
               2.81189744                6.00465496               34.28767959                1.00000000               -0.13192203               -0.23650306                0.60160672               -0.02967895                0.13153962                1.08163560
               3.81057822                5.81153291               34.15103324                0.64153136               -0.10831973               -0.08676767                0.34120575               -0.02365751                0.33633009               -0.59087796
               4.80973104                5.61769237               34.01841651                0.10889454               -0.11558020                0.05485541                0.09899703               -0.11090890                1.94165575               -2.13154649
               5.80826661                5.42200371               33.91389181                0.00010000               -0.68569402                0.21479789               -0.06927460               -0.38445535                9.25021728               -1.15036760
               6.79601716                5.22799854               33.92748087                0.00010000               -1.14918715                0.22248337               -0.18225777               -0.44681667               14.46827623               -0.25417907
               7.78528287                5.03460990               33.92564827                0.00010000               -0.98555733                0.18542953               -0.36173697               -0.57016973               13.46903573                0.61823701
               8.77630602                4.84228430               33.91707463                0.00010000               -0.80041421                0.10118206               -0.54320682               -0.66103360               13.10635277                1.63890206
               9.76927459                4.65163987               33.90536052                0.00010000               -0.58971288               -0.02369355               -0.72020280               -0.70799201               13.06596589                2.77855387
              10.76451176                4.46300558               33.89291757                0.11807622               -0.08015328               -0.20201579               -0.88859473               -0.35810408                7.14757310                3.94055582
              11.76767152                4.28421773               33.75937380                0.54768562                0.33583557                0.18705428               -1.01064702                0.03796858                0.60326490                1.73623803
              12.77122847                4.10465234               33.61526228                0.97606447                0.35569495                0.53082325               -1.37128699               -0.01653681                0.09491864               -0.13685437
               3.00395093                7.00255203               34.24283163                0.99031632               -0.08992002               -0.18058703                0.45012319               -0.02770704                0.05841885                0.91016641
               4.00305173                6.81095201               34.09743717                0.52903449               -0.06607015               -0.03508243                0.18540830               -0.02269664                0.29169976               -0.74282608
               5.00262952                6.61860488               33.95663962                0.05712360               -0.29848092                0.11533701               -0.06588905               -0.10131078                4.02378982               -2.45556368
               5.99708211                6.42451063               33.88590075                0.00010000               -0.94768529                0.24698061                0.02099261               -0.60227993               12.27552460                0.88405337
               6.98367582                6.23078483               33.91020759                0.00010000               -1.29630791                0.33010294               -0.20901814               -0.68377016               16.66270965                0.52352544
               7.97115595                6.03704426               33.92503147                0.00010000               -1.18698410                0.31153726               -0.38167992               -0.85108084               16.10553569                1.00666248
               8.95993613                5.84373592               33.93554081                0.00010000               -1.03311054                0.20335473               -0.53303534               -1.01455002               15.96960628                1.78835856
               9.95049374                5.65162669               33.94454495                0.00010000               -0.84799782                0.03645253               -0.66524228               -1.14356938               16.09111074                2.73665582
              10.94297618                5.46124055               33.95400393                0.13736852               -0.24473917               -0.13033137               -0.77825484               -0.60628307                8.47474112                3.78805619
              11.94559895                5.28613236               33.80705183                0.50067055                0.29677720                0.19286028               -0.95281693                0.06181303                0.36790918                1.60753052
              12.94891172                5.10999846               33.65379079                0.94710106                0.33127677                0.52507865               -1.32067907               -0.00805041                0.07045935               -0.17655863
               3.19454333                8.00104322               34.19681632                0.98232378               -0.04718974               -0.12132067                0.29970508               -0.02571822                0.02077071                0.83814499
               4.19407143                7.81083126               34.04309669                0.47725259               -0.01985613                0.00766051                0.03319871               -0.01380650                0.17309001               -0.77516938
               5.19414621                7.61999911               33.89234665                0.02449378               -0.50151841                0.15004331               -0.23389486               -0.10429669                6.86020937               -2.59769598
               6.18404106                7.42694332               33.87235669                0.00010000               -1.21690358                0.32059777               -0.00965619               -0.52003699               15.77382099                1.13622758
               7.16980814                7.23460060               33.89921626                0.00010000               -1.43654511                0.47197814               -0.26022259               -0.67219649               18.30839955                0.81777432
               8.15531016                7.04084065               33.92748952                0.00010000               -1.41877758                0.49338034               -0.40689018               -1.00760422               18.48846036                1.12175802
               9.14143258                6.84635139               33.95504161                0.00010000               -1.32057960                0.35808322               -0.51687234               -1.34391258               18.64546393                1.77717917
              10.12889857                6.65236892               33.98303156                0.00010000               -1.17760794                0.14073512               -0.59471987               -1.56979242               18.95221134                2.56727903
              11.11788043                6.46039895               34.01301566                0.16934028               -0.43743477               -0.03872564               -0.62401972               -0.88429080                9.73242247                3.45088317
              12.12014987                6.28807494               33.85310970                0.47856147                0.27274212                0.20207857               -0.90832626                0.04144661                0.14256951                1.41466264
              13.12333527                6.11515391               33.69087956                0.93014578                0.31853929                0.49730545               -1.28208619                0.00317507                0.04249636               -0.33049313
               3.38386047                9.00012562               34.15051095                0.97926581               -0.00407608               -0.06390343                0.15132671               -0.02411805                0.00496363                0.83898923
               4.38381971                8.81110522               33.98872218                0.48092022                0.02855311                0.04647969               -0.11605324               -0.00519010                0.03357878               -0.76153806
               5.38443153                8.62160575               33.82741896                0.00135111               -0.58699148                0.16576265               -0.39570122               -0.03643805                9.26797227               -2.43632047
               6.37207988                8.43092259               33.85027244                0.00010000               -1.40484826                0.51121442               -0.25227519               -0.23687598               19.33439629                0.34992605
               7.35633456                8.24022439               33.88850570                0.00010000               -1.64134038                0.68832039               -0.35939567               -0.50072842               20.39557903                0.64348852
               8.33925307                8.04691186               33.92998273                0.00010000               -1.74024775                0.74136556               -0.45020605               -0.97293725               20.84921251                0.93783265
               9.32152961                7.85089759               33.97422716                0.00010000               -1.71013691                0.65865723               -0.50033680               -1.51034656               21.21816179                1.52583863
              10.30505033                7.65444139               34.01961017                0.00010000               -1.59726308                0.31952664               -0.53270917               -2.04084835               21.59269172                2.58810812
              11.28958435                7.46046604               34.06750959                0.21174685               -0.66887020                0.04830625               -0.51223644               -1.17233728               10.94191148                2.85391386
              12.29167293                7.29017393               33.89674535                0.47544437                0.26164642                0.22368969               -0.88427611                0.00572496                0.01433786                1.16307032
              13.29481727                7.11994457               33.72576753                0.92107452                0.31443489                0.45684845               -1.26491875                0.01097978                0.01972048               -0.55212003
               3.57210175                9.99976515               34.10445576                0.97851391                0.03857444               -0.01119428                0.00502648               -0.02324404               -0.01787231                0.74168527
               4.57248750                9.81176086               33.93454110                0.51156976                0.07491632                0.08522604               -0.26260462               -0.00171567                0.06240318               -0.63812085
               5.57360008                9.62331436               33.76613534                0.00010000               -0.59013005                0.18169415               -0.53957115                0.13937369               11.32170888               -1.63081324
               6.56068490                9.43716761               33.82133995                0.00010000               -1.48978945                0.75391781               -0.47825026                0.02107728               22.55001854               -0.01928931
               7.54380429                9.24836700               33.87465250                0.00010000               -1.77533368                0.86821164               -0.48898841               -0.25895587               22.70945201                0.30691829
               8.52517822                9.05566796               33.92962570                0.00010000               -2.00540832                0.95932934               -0.51885592               -0.62546852               23.21316244                0.52296920
               9.50369612                8.85952454               33.98979399                0.00010000               -2.33325362                1.01565226               -0.50732720               -1.19357328               24.10192201                0.90637814
              10.47851315                8.65875946               34.05949283                0.01544231               -2.24974934                0.89130414               -0.39788666               -1.89747176               24.00020353                2.06399728
              11.45870114                8.46136508               34.11453011                0.26671269               -0.88636531                0.13544189               -0.49214608               -1.44755070               11.82748086                1.69276693
              12.46078584                8.29254873               33.93756131                0.48569503                0.26562274                0.25339350               -0.89438492               -0.02356070                0.11220307                0.80318079
              13.46401359                8.12429088               33.75794508                0.90964680                0.32277479                0.42141471               -1.27918046                0.01315144               -0.00234760               -0.63169907
               3.75940417               10.99990173               34.05611611                0.99029921                0.08320149                0.01365821               -0.13811995                0.02104254                0.40589645                0.63311730
               4.76023618               10.81280974               33.88253629                0.79864874                0.12040408                0.10488860               -0.40621981                0.04176325                0.82365217               -0.52473234
               5.76181225               10.62523963               33.71720390                0.47656353               -0.63937024                0.19252715               -0.67675252                0.48077673               13.25633782               -1.00958789
               6.74744878               10.44600094               33.79219085                0.33989511               -1.45785740                0.88333323               -0.62768192                0.29383768               25.08660608               -0.09881088
               7.73265510               10.25758863               33.85789872                0.32953279               -1.59313055                0.92216227               -0.61497223               -0.11004392               24.87799775                0.12054520
               8.71558616               10.06609845               33.92455014                0.34309394               -1.90442266                1.04304921               -0.61458707               -0.27810560               25.39818402                0.26124228
               9.69456665                9.87121063               33.99735687                0.37944856               -2.51629049                1.16860956               -0.56988714               -0.60449674               26.65715117                0.50230765
              10.66526035                9.67226748               34.08652937                0.53015048               -3.38612952                1.35080191               -0.35873708               -1.72706743               26.06760403                1.42956664
              11.62684406                9.46317488               34.14556952                0.66273030               -1.84922239                0.18098000               -0.56417163               -2.03699186               13.11726447                0.91015847
              12.62827591                9.29524180               33.97370895                0.76072477                0.23759746                0.26930708               -0.94605290                0.00890547                1.04043758                0.58824188
              13.63159600                9.12837286               33.79082048                0.95503954                0.33200974                0.40819805               -1.32057050                0.07134708                0.50950682               -0.57581756
               1.92920325                1.07607490               35.50376182                1.00000000               -0.34558343               -0.36902572                1.27679825               -0.05761214               -0.96891423                0.98360640
               2.92574742                0.86898183               35.39498327                1.00000000               -0.30396317               -0.28668157                1.02723448               -0.03707837               -1.26664493                0.12291504
               3.92312399                0.66145182               35.28026951                1.00000000               -0.21186069               -0.20614565                0.76466908               -0.04219231               -1.24064569               -0.20937485
               4.92151020                0.45368111               35.17203969                0.63117752                0.01074621               -0.14566200                0.50941748                0.04816217               -0.42794619               -0.86803850
               5.92333891                0.24779453               35.07365198                0.69206298                0.16464050               -0.09029307                0.22031398               -0.07316181               -0.06749862                0.28470971
               6.92480301                0.04428038               34.97341964                0.76650327                0.14717532                0.00475044               -0.02423327               -0.06011684               -0.31994743                0.16531096
               7.92628242               -0.15794471               34.86963011                0.75929989                0.18332916                0.07845596               -0.26601889               -0.03918102               -0.55136423               -0.06359546
               8.92846960               -0.35935705               34.76429187                0.85870302                0.23754344                0.15284283               -0.50372049               -0.05408699               -0.84162724                0.10663229
               9.93103329               -0.56003973               34.65420715                1.00000000                0.27701543                0.23126974               -0.77155027               -0.05134564               -1.16192223                0.59122908
              10.93400991               -0.76045602               34.54222520                1.00000000                0.33036256                0.32347916               -1.05211967               -0.03482175               -1.12907562               -0.00714368
              11.93764054               -0.96109395               34.43280106                1.00000000                0.36306333                0.42486890               -1.33409954               -0.01813282               -1.00548587               -0.99878772
               2.13572020                2.07238464               35.45743043                1.00000000               -0.30320227               -0.35718877                1.13844753               -0.01439007               -0.15254381                1.34084473
               3.13268817                1.86611502               35.34843013                1.00000000               -0.26838853               -0.26711373                0.89114361                0.00695337               -0.18392676                0.17500202
               4.13035243                1.65939036               35.23878956                0.96544454               -0.19338528               -0.18056683                0.62688242               -0.00510180               -0.04689434               -0.51493483
               5.12882047                1.45222449               35.13246945                0.26926037               -0.15223840               -0.12101009                0.35503878                0.08797942                1.58570800               -1.25638541
               6.12730766                1.24689160               35.05529802                0.38808683               -0.08744999               -0.01944560                0.08586606               -0.07851362                2.45772937                0.98617545
               7.12707147                1.04432789               34.96428277                0.47538012                0.02008327                0.05122623               -0.15141123               -0.01570074                1.57248654                0.46105655
               8.12770932                0.84283985               34.86856545                0.39667984                0.09523829                0.12123789               -0.38400355                0.01350763                1.47612032               -0.27862069
               9.12897623                0.64217138               34.77522900                0.50998433                0.16799972                0.19163554               -0.62173168               -0.03324188                1.51897507                0.50179961
              10.13106932                0.44227297               34.68013651                1.00000000                0.26062806                0.25156139               -0.87597474               -0.02278235                0.79360336                0.83592728
              11.13418880                0.24277877               34.57223434                1.00000000                0.35139083                0.32994305               -1.15677967                0.00874852                0.08987215                0.13276780
              12.13809713                0.04315474               34.46300567                1.00000000                0.39083390                0.45332038               -1.43665203                0.02723379                0.02935287               -1.17082816
               2.34145470                3.06893113               35.41827399                1.00000000               -0.25739354               -0.33730449                1.00959425               -0.00917474                0.04830470                1.69584647
               3.33888077                2.86363956               35.30291222                1.00000000               -0.22711107               -0.23073171                0.76219096                0.01102901                0.23046769                0.16262757
               4.33691248                2.65784048               35.19116026                0.67975961               -0.15561062               -0.12674053                0.51918754               -0.01571345                0.69412784               -1.28527906
               5.33576855                2.45126091               35.08503176                0.00868773               -0.36236178               -0.08571650                0.22935656                0.13492632                4.58890817               -2.00870151
               6.32966524                2.24740562               35.05113354                0.00010000               -0.36138987               -0.02569373               -0.08800913                0.10481190                5.67036090               -1.15331227
               7.32854076                2.04530491               34.96110791                0.00010000               -0.04780829               -0.04323198               -0.28113213                0.01398556                2.51562784               -0.09027540
               8.32870908                1.84448004               34.86323198                0.00010000               -0.00845594               -0.01882630               -0.49163655               -0.07046938                3.57750272                0.78326171
               9.32837164                1.64447566               34.79416044                0.00010000                0.06305867                0.02452782               -0.76266480               -0.13356674                4.32415685                1.40047590
              10.32997025                1.44499150               34.71103921                0.47612910                0.24657315                0.19283036               -0.99650195               -0.20636209                2.49470816                1.89561065
              11.33330310                1.24614284               34.60515694                1.00000000                0.37315084                0.32007835               -1.25164485               -0.06304069                0.89662334                0.89573839
              12.33743327                1.04797246               34.48988777                1.00000000                0.41301685                0.51300001               -1.53887961                0.00815670                0.44173917               -1.05762629
               2.54611983                4.06563855               35.37910366                1.00000000               -0.21204373               -0.31742622                0.87991645               -0.01506950                0.11580357                1.58054446
               3.54399940                3.86150038               35.25610093                1.00000000               -0.18515135               -0.19189551                0.63204992                0.00288307                0.17448061               -0.00805339
               4.54241681                3.65685555               35.13422074                0.39825322               -0.10227699               -0.07229496                0.39797340               -0.07109350                1.12663513               -1.68253624
               5.54195386                3.45051016               35.03024275                0.00010000               -0.35284546               -0.02513244                0.14674099               -0.00038614                5.23559857               -2.69272915
               6.53535990                3.24637773               34.99047843                0.00010000               -0.58385498               -0.04178255               -0.10481960                0.02230544                8.05191599               -2.83300491
               7.53027676                3.04346325               34.94099643                0.00010000               -0.41153588               -0.09161350               -0.33455408               -0.13585459                7.26203478               -0.56703088
               8.52712918                2.84246332               34.88314080                0.00010000               -0.22416563               -0.13949238               -0.55916609               -0.26542271                6.81973947                1.68481492
               9.52579345                2.64266194               34.82300919                0.00010000               -0.09271403               -0.13887279               -0.78628720               -0.20695062                6.54628315                2.25397761
              10.52527490                2.44612957               34.75799930                0.15015436                0.20767862               -0.04202781               -1.10508364               -0.21111909                4.32179696                3.55626571
              11.52994702                2.24918034               34.65044970                0.85027649                0.46630620                0.26945120               -1.37595038               -0.10982607                1.17855131                1.71329596
              12.53460102                2.05341474               34.52249581                1.00000000                0.46540063                0.56476715               -1.64342482               -0.05093984                0.20169161               -0.41388321
               2.74942965                5.06258260               35.33773085                1.00000000               -0.17082221               -0.28598748                0.74090360               -0.02626883                0.18213616                1.32989604
               3.74772143                4.85980165               35.20715154                0.81943670               -0.14744091               -0.14000898                0.49237626               -0.01587869                0.28134003               -0.30231549
               4.74648083                4.65639458               35.07850064                0.19781380               -0.07413864               -0.00822741                0.25355412               -0.12205732                1.33425385               -1.78393398
               5.74623866                4.45075826               34.96896889                0.00010000               -0.46612831                0.10366518                0.01952547               -0.21215296                6.96781903               -2.72786498
               6.73715827                4.24656997               34.95296348                0.00010000               -0.82502915                0.09070243               -0.16637978               -0.32382255               11.27833743               -1.15941374
               7.72973807                4.04347264               34.92800663                0.00010000               -0.64781659                0.05609718               -0.37840694               -0.42929648               10.55912304                0.11203664
               8.72420193                3.84169020               34.89561091                0.00010000               -0.45858517               -0.02178932               -0.60136649               -0.49740972               10.08800401                1.45838098
               9.72056637                3.64169821               34.85886158                0.00010000               -0.24862323               -0.08363576               -0.83757704               -0.49067720                9.94686096                2.74635956
              10.71922947                3.44415094               34.82118563                0.10617968                0.16275202               -0.23656276               -1.05320744               -0.23770123                5.84259801                4.22035702
              11.72382141                3.25153186               34.69948842                0.61632939                0.43580944                0.22688821               -1.19605173               -0.02379500                0.95841583                1.91037490
              12.72794566                3.05926780               34.56211001                1.00000000                0.41242495                0.58513618               -1.56129410               -0.05024730                0.23539342               -0.03274663
               2.95115636                6.05991881               35.29364277                1.00000000               -0.12865210               -0.23927702                0.59224893               -0.03123109                0.13103611                1.07582048
               3.94986984                5.85870021               35.15440616                0.63286788               -0.10686560               -0.08058951                0.33300228               -0.02859294                0.34496958               -0.60770626
               4.94901905                5.65669100               35.01938546                0.10550126               -0.11672143                0.06805212                0.09346618               -0.13219815                2.00050783               -2.15810987
               5.94753541                5.45258347               34.91325944                0.00010000               -0.64249898                0.19951031               -0.05904192               -0.51685747                9.36596542               -1.00683030
               6.93616907                5.24819178               34.92556930                0.00010000               -1.04824049                0.20872049               -0.20346435               -0.65124978               14.57684884               -0.16580451
               7.92657060                5.04458519               34.92179873                0.00010000               -0.86068269                0.16305629               -0.41354878               -0.74583765               13.55335979                0.70304334
               8.91895542                4.84202753               34.91128180                0.00010000               -0.65257236                0.07213810               -0.62311785               -0.82095488               13.20104190                1.73921354
               9.91351916                4.64098922               34.89766619                0.00010000               -0.41340985               -0.05466171               -0.83143117               -0.87078401               13.17889048                2.91443515
              10.91068722                4.44139832               34.88340395                0.10788520                0.04175495               -0.23420748               -1.04465929               -0.41321572                7.34241592                4.11803932
              11.91435425                4.25371810               34.74886216                0.52207531                0.37184878                0.20906207               -1.09474995                0.05601999                0.73638978                1.88925304
              12.91812420                4.06511747               34.60109517                0.95332316                0.37699408                0.57485260               -1.45461354               -0.01967759                0.10294385                0.00068463
               3.15124223                7.05779706               35.24726994                0.98954965               -0.08648585               -0.18124726                0.43854721               -0.02884422                0.05654178                0.90154296
               4.15037737                6.85818986               35.09924181                0.52036073               -0.06443097               -0.02812474                0.17491739               -0.02754357                0.29645550               -0.75680658
               5.14995361                6.65775563               34.95594576                0.05306269               -0.29883176                0.13160149               -0.07519929               -0.15082544                4.21711225               -2.48476806
               6.14440073                6.45474847               34.88633469                0.00010000               -0.89110325                0.20892942                0.06009995               -0.73978592               12.46816252                1.03764705
               7.13213154                6.25074438               34.90801125                0.00010000               -1.17075859                0.30213322               -0.23505873               -0.87094831               16.71488323                0.60375415
               8.12098556                6.04673376               34.92094900                0.00010000               -1.03763689                0.27746801               -0.44134422               -1.02023981               16.21575656                1.09480634
               9.11137881                5.84313296               34.92981471                0.00010000               -0.86028304                0.16221993               -0.62155337               -1.16961129               16.11331033                1.90503318
              10.10377990                5.64060497               34.93738602                0.00010000               -0.65712651               -0.00252804               -0.78187302               -1.30319810               16.27415326                2.89856701
              11.09823628                5.43946679               34.94561687                0.12703176               -0.12786204               -0.14443716               -0.92215560               -0.67913850                8.69288009                4.01602955
              12.10122266                5.25571311               34.79723452                0.47965643                0.32585496                0.19924036               -1.01589134                0.07290147                0.47982301                1.74620583
              13.10475338                5.07076486               34.64025091                0.92862299                0.35307142                0.55229071               -1.38508790               -0.00725359                0.07399636               -0.04842696
               3.34979388                8.05629386               35.19974097                0.98179535               -0.04334765               -0.11973661                0.28602729               -0.02633562                0.01933515                0.83046140
               4.34936040                7.85813771               35.04337097                0.47043478               -0.01749736                0.01406669                0.02101856               -0.01587403                0.17060467               -0.78535922
               5.34944393                7.65932303               34.88995012                0.02075021               -0.48047317                0.16493765               -0.24735949               -0.18304164                7.10529507               -2.62228838
               6.33975094                7.45676205               34.87224970                0.00010000               -1.13395628                0.29237056               -0.02120809               -0.66182833               16.03318499                1.10919467
               7.32676481                7.25423444               34.89645252                0.00010000               -1.29868562                0.44058105               -0.29889755               -0.84354999               18.38190955                0.86169224
               8.31377723                7.05013455               34.92310946                0.00010000               -1.25364134                0.45206103               -0.47655959               -1.17611667               18.64492648                1.20014409
               9.30169198                6.84527193               34.94945176                0.00010000               -1.13279347                0.30656310               -0.61109309               -1.50173119               18.85560211                1.89672367
              10.29112136                6.64093866               34.97660770                0.00010000               -0.98478317                0.09409120               -0.70363840               -1.72200071               19.23149079                2.73060105
              11.28199632                6.43850958               35.00632785                0.15928633               -0.33035701               -0.04416215               -0.73022664               -0.95770987                9.95116608                3.67652697
              12.28451422                6.25770291               34.84375911                0.45974753                0.29396508                0.20856285               -0.96408131                0.05066671                0.19596218                1.52174262
              13.28787562                6.07616328               34.67776710                0.91425711                0.33614008                0.52029224               -1.33816288                0.00318667                0.04426544               -0.23428911
               3.54702782                9.05540233               35.15194224                0.97903445                0.00028997               -0.06049472                0.13554655               -0.02444584                0.00397659                0.83268893
               4.54703071                8.85847119               34.98749767                0.47687254                0.03203090                0.05206826               -0.12963518               -0.00532864                0.02604792               -0.76824353
               5.54766843                8.66105438               34.82340653                0.00017635               -0.53889763                0.17514713               -0.40902606               -0.12838704                9.45820969               -2.44639581
               6.53625276                8.46059588               34.84754378                0.00010000               -1.28901933                0.49548235               -0.29423431               -0.39750396               19.61787284                0.24131805
               7.52188805                8.25955600               34.88466461                0.00010000               -1.49135116                0.65537566               -0.41618407               -0.66753291               20.57970524                0.64992140
               8.50642574                8.05577498               34.92510941                0.00010000               -1.56739865                0.70133498               -0.53240268               -1.13766275               21.07501781                0.99467851
               9.49054007                7.84926422               34.96873586                0.00010000               -1.51617478                0.61162567               -0.60948845               -1.67556278               21.49954165                1.63000045
              10.47610224                7.64248680               35.01379915                0.00010000               -1.41111209                0.26995630               -0.64091562               -2.19027811               21.94832952                2.76081880
              11.46231783                7.43858355               35.06208641                0.20338290               -0.57599763                0.05419114               -0.58058380               -1.23696244               11.15438106                3.00392795
              12.46458229                7.25988436               34.88763941                0.45736145                0.27892662                0.23466575               -0.93874584                0.00969083                0.01921087                1.23626845
              13.46789636                7.08117070               34.71283190                0.90660794                0.33140734                0.47779021               -1.32193574                0.01131573                0.01917718               -0.49138678
               3.74316724               10.05508397               35.10441379                0.97866356                0.04345459               -0.00633544               -0.01293689               -0.02345532               -0.01895795                0.73747959
               4.74360178                9.85917908               34.93184542                0.50976830                0.07921364                0.09026868               -0.27734603               -0.00169546                0.05640943               -0.64136666
               5.74475151                9.66282598               34.76068609                0.00010000               -0.51512702                0.18698690               -0.55260420                0.03498399               11.47119245               -1.62776251
               6.73329924                9.46667170               34.81633096                0.00010000               -1.32582321                0.70968282               -0.52351501               -0.11635047               22.83918666               -0.07304277
               7.71823504                9.26734195               34.86944688                0.00010000               -1.59917429                0.82884746               -0.55784333               -0.38097818               22.97485154                0.29956355
               8.70131576                9.06416125               34.92399536                0.00010000               -1.83830655                0.92767170               -0.61542220               -0.74037613               23.50676551                0.55184585
               9.68146891                8.85750444               34.98412209                0.00010000               -2.16596436                0.99471848               -0.64079803               -1.32452438               24.48521746                0.96839514
              10.65799647                8.64633779               35.05471448                0.01629752               -2.08047042                0.87501997               -0.58580591               -2.01385724               24.40008818                2.21385812
              11.63985950                8.43959340               35.10936089                0.26271250               -0.79377926                0.14897751               -0.54265325               -1.49400759               11.99134821                1.74002119
              12.64212088                8.26239622               34.92833671                0.46761258                0.28348752                0.26920536               -0.95062362               -0.02274224                0.10239593                0.83423175
              13.64552926                8.08571909               34.74483761                0.89592468                0.34083724                0.44187678               -1.34262048                0.01359423               -0.00287509               -0.60505577
               3.93836849               11.05527562               35.05463280                0.99050749                0.08863054                0.01916548               -0.15808185                0.02022005                0.40320463                0.63015079
               4.93925479               10.86027657               34.87839769                0.79867132                0.12534995                0.10974917               -0.42226777                0.04122617                0.81937855               -0.52600463
               5.94087549               10.66479412               34.71037786                0.47565319               -0.49225089                0.19681406               -0.69084729                0.33804633               13.40174201               -1.00207589
               6.92940978               10.47478953               34.78569013                0.34006961               -1.20482777                0.81178339               -0.67603471                0.17799517               25.38769540               -0.11904776
               7.91677893               10.27613295               34.85138029                0.32967897               -1.39770255                0.87909964               -0.69382494               -0.16866699               25.17398404                0.11205386
               8.90145573               10.07432842               34.91788926                0.34286664               -1.74529411                1.01671668               -0.72599735               -0.33472099               25.72807475                0.27435031
               9.88187305                9.86915859               34.99094755                0.37858275               -2.38597906                1.16541445               -0.72743122               -0.67664736               27.10497633                0.53594989
              10.85373614                9.65998720               35.08185462                0.53211341               -3.27469032                1.36494093               -0.61565416               -1.80580684               26.47944648                1.54503870
              11.81637924                9.44156310               35.13961789                0.66238313               -1.78671925                0.19697002               -0.62532123               -2.08396246               13.25638788                0.90521993
              12.81800176                9.26526847               34.96391760                0.75160354                0.25716409                0.28722455               -1.00990331                0.01034460                1.05359387                0.59584197
              13.82152253                9.09000824               34.77724895                0.94827050                0.35207659                0.42891519               -1.39292053                0.07330385                0.52496827               -0.56434269
               2.02947785                1.13298131               36.51654788                1.00000000               -0.34643382               -0.37081428                1.28162068               -0.05767103               -0.98198703                0.99337010
               3.02601351                0.91747955               36.40525448                1.00000000               -0.30466556               -0.28659484                1.02731181               -0.03608400               -1.28670027                0.12984003
               4.02338454                0.70153382               36.28788699                1.00000000               -0.21334329               -0.20448840                0.75808389               -0.04208637               -1.26242360               -0.20832537
               5.02174665                0.48525769               36.17707700                0.63197274               -0.00839567               -0.14113463                0.49668756               -0.00258072               -0.45971091               -0.88466848
               6.02321663                0.26969412               36.07577986                0.68659578                0.15733275               -0.09911587                0.19937431               -0.07324234               -0.08260723                0.28685289
               7.02489330                0.05572877               35.97311035                0.75675106                0.17204395                0.00287509               -0.04633122               -0.07011190               -0.30074462                0.16675511
               8.02665750               -0.15689360               35.86693327                0.75113161                0.21207526                0.07782075               -0.28294893               -0.04725753               -0.51521176               -0.06005158
               9.02913481               -0.36861974               35.75929763                0.85270009                0.25926197                0.15073223               -0.50672231               -0.06338760               -0.80954116                0.10722828
              10.03184274               -0.57946465               35.64656808                1.00000000                0.28459193                0.23017171               -0.76419265               -0.05843576               -1.14789175                0.60553526
              11.03482664               -0.78997071               35.53182297                1.00000000                0.32888544                0.31926594               -1.03467557               -0.03839077               -1.12186018                0.00072707
              12.03842045               -1.00073963               35.41956218                1.00000000                0.35938078                0.41952391               -1.31851563               -0.01513358               -0.99956384               -0.98622433
               2.24440289                2.12927316               36.46882153                1.00000000               -0.30264757               -0.35970053                1.14095893               -0.01347330               -0.15851349                1.35467279
               3.24137642                1.91461361               36.35732934                1.00000000               -0.26641416               -0.26689150                0.88908238                0.00856302               -0.19888642                0.18530236
               4.23907461                1.69948893               36.24502310                0.97656619               -0.18678654               -0.17861369                0.61913088               -0.00636304               -0.07322099               -0.49924752
               5.23764069                1.48384634               36.13597047                0.27613481               -0.09129746               -0.11483554                0.34366737                0.01873222                1.55559414               -1.26083934
               6.23724866                1.26870296               36.05603043                0.38920772               -0.00773209               -0.03728726                0.05840301               -0.08253131                2.45637485                0.96795480
               7.23748604                1.05575752               35.96262940                0.47348261                0.05552628                0.04875031               -0.18290791               -0.03369948                1.60643909                0.46333675
               8.23835919                0.84388460               35.86460218                0.39751026                0.11502048                0.12642197               -0.41232858               -0.00636674                1.52163939               -0.26823877
               9.23978645                0.63288758               35.76894318                0.50697304                0.17873410                0.19481804               -0.63815916               -0.04396512                1.56298174                0.49357717
              10.24193387                0.42283707               35.67135498                1.00000000                0.26468854                0.25544866               -0.88302379               -0.03001390                0.81633866                0.84520876
              11.24508022                0.21322195               35.56063553                1.00000000                0.35520837                0.32896113               -1.16312215                0.00483699                0.09588038                0.14856466
              12.24903804                0.00345561               35.44859607                1.00000000                0.39578104                0.44699186               -1.44452697                0.03013803                0.03338985               -1.15395589
               2.45852750                3.12578730               36.42836690                1.00000000               -0.25584974               -0.34126666                1.01033295               -0.00816326                0.04694267                1.71347612
               3.45596900                2.91214172               36.31051706                1.00000000               -0.22514781               -0.23013469                0.75894037                0.01153774                0.23023032                0.17579770
               4.45402454                2.69796154               36.19630723                0.69549598               -0.15308718               -0.12200903                0.50968445               -0.01965537                0.67240872               -1.26033356
               5.45290726                2.48296097               36.08724967                0.01004897               -0.21848632               -0.07809177                0.21388572                0.03917175                4.52794689               -1.97696305
               6.44965482                2.26894838               36.05008973                0.00010000               -0.19347949               -0.04690064               -0.12369025               -0.08476947                5.67974379               -1.11221623
               7.44903767                2.05670378               35.95810356                0.00010000               -0.01273534               -0.04033185               -0.32088166               -0.14309949                2.59538896               -0.04975938
               8.44940011                1.84563484               35.85810619                0.00010000                0.01326859               -0.00980914               -0.53297481               -0.20012009                3.63053919                0.81569789
               9.44930304                1.63527662               35.78633290                0.00010000                0.07539902                0.02629178               -0.78993927               -0.21491940                4.38638611                1.44294149
              10.45090809                1.42564432               35.70093133                0.46642745                0.25008980                0.23380717               -1.01869508               -0.19665310                2.54335071                1.87182605
              11.45430484                1.21660852               35.59244328                1.00000000                0.38238993                0.33228219               -1.28656829               -0.06975007                0.91279082                0.88878081
              12.45855589                1.00820021               35.47434298                1.00000000                0.42510529                0.51033575               -1.56665603                0.01388097                0.44119635               -1.05660443
               2.67153077                4.12244783               36.38788888                1.00000000               -0.20978469               -0.32231960                0.87866609               -0.01497946                0.11868607                1.59241012
               3.66943293                3.91001091               36.26239785                1.00000000               -0.18342600               -0.19029518                0.62749052                0.00256034                0.18408488               -0.00048713
               4.66786225                3.69704875               36.13817587                0.40185054               -0.09978189               -0.06485818                0.39136892               -0.07823612                1.13414425               -1.67600403
               5.66743729                3.48228450               36.03166002                0.00010000               -0.30258910               -0.01601407                0.13374729               -0.11100653                5.22985381               -2.65879601
               6.66181047                3.26776495               35.98928341                0.00010000               -0.47498462               -0.04461741               -0.13650707               -0.26205466                8.06603494               -2.74131324
               7.65793759                3.05495088               35.93743492                0.00010000               -0.30132637               -0.09648407               -0.38027921               -0.38670342                7.30647979               -0.49297296
               8.65578394                2.84368842               35.87729219                0.00010000               -0.12295075               -0.14479701               -0.61457275               -0.49228351                6.88066611                1.74085951
               9.65547858                2.63341341               35.81479170                0.00010000                0.04424823               -0.14529321               -0.86241355               -0.33704461                6.56654454                2.32042603
              10.65666891                2.42751321               35.74610833                0.13305420                0.28253774               -0.06804810               -1.21957145               -0.27563336                4.34875529                3.65354966
              11.66112933                2.21986760               35.63596187                0.79760807                0.47316777                0.27889001               -1.47963596               -0.17127215                1.23179368                1.84596227
              12.66613226                2.01366233               35.50541780                1.00000000                0.50029278                0.59637501               -1.73069132               -0.06950394                0.23231870               -0.34433362
               2.88310175                5.11934090               36.34511327                1.00000000               -0.16824607               -0.29077758                0.73720514               -0.02747873                0.18879806                1.33136318
               3.88141929                4.90833582               36.21204358                0.81253497               -0.14577596               -0.13611946                0.48602223               -0.01872661                0.29223067               -0.30955572
               4.88018623                4.69666438               36.08099731                0.19551204               -0.07241790                0.00181494                0.24499040               -0.13347249                1.35312492               -1.79634513
               5.87997093                4.48264069               35.96913266                0.00010000               -0.42194425                0.11084011                0.00951795               -0.33217763                7.00938491               -2.68864054
               6.87174735                4.26805603               35.95116560                0.00010000               -0.72954003                0.09348636               -0.19680047               -0.53311143               11.33496542               -1.08015498
               7.86538013                4.05477409               35.92397724                0.00010000               -0.53277175                0.03887588               -0.43148338               -0.63085837               10.60688845                0.18916094
               8.86109191                3.84273890               35.88924521                0.00010000               -0.33213844               -0.04118227               -0.67765450               -0.68639423               10.13268361                1.52972941
               9.85873736                3.63237075               35.84996727                0.00010000               -0.10753338               -0.10046392               -0.94480902               -0.66019329               10.00819469                2.82038902
              10.85894124                3.42428336               35.81004155                0.09368748                0.29964574               -0.32890396               -1.21637882               -0.33446204                5.97053276                4.37567056
              11.86473028                3.22218632               35.68651293                0.57858606                0.53175519                0.21945502               -1.38677558               -0.02884423                1.02668796                2.20859833
              12.86957635                3.02012771               35.54545234                0.98209312                0.48460703                0.64314046               -1.72450055               -0.07140633                0.20815588                0.17501179
               3.09299137                6.11663228               36.29952456                1.00000000               -0.12564473               -0.24281079                0.58580132               -0.03256227                0.13027118                1.06920026
               4.09173492                5.90728852               36.15769329                0.62270659               -0.10517176               -0.07423733                0.32369793               -0.03307541                0.35407761               -0.62419713
               5.09088793                5.69708505               36.02028584                0.10133897               -0.11664163                0.08402387                0.08408840               -0.15472812                2.06697319               -2.18080295
               6.08940209                5.48450131               35.91271098                0.00010000               -0.59365446                0.18163088               -0.05280703               -0.65207183                9.47237949               -0.84031344
               7.07901484                5.26963468               35.92341158                0.00010000               -0.93822627                0.19603306               -0.23282311               -0.85805411               14.65379933               -0.07342201
               8.07063756                5.05572840               35.91737730                0.00010000               -0.72777208                0.14277816               -0.47608047               -0.92412042               13.60596466                0.78843412
               9.06445940                4.84286478               35.90461228                0.00010000               -0.49536550                0.04638687               -0.71789662               -0.98254260               13.25989572                1.83619918
              10.06073025                4.63140414               35.88873189                0.00010000               -0.21476478               -0.08571180               -0.96933283               -1.02461822               13.23688654                3.04467579
              11.06016410                4.42093513               35.87202438                0.09657722                0.19889248               -0.28230578               -1.26013387               -0.45516991                7.54054607                4.29348816
              12.06470810                4.22425670               35.73747880                0.49655015                0.43286202                0.19866088               -1.19700129                0.07105510                0.91262028                2.11848899
              13.06882134                4.02652514               35.58617000                0.93293625                0.41132443                0.61151373               -1.53689757               -0.03403020                0.11444037                0.21288829
               3.30113802                7.11448469               36.25160258                0.98887449               -0.08330086               -0.18260693                0.42936666               -0.02942861                0.05400324                0.89250724
               4.30030501                6.90685107               36.10093552                0.51025788               -0.06295662               -0.02101525                0.16324814               -0.03001896                0.30041694               -0.77047484
               5.29987889                6.69834486               35.95513564                0.04855281               -0.29625705                0.15037600               -0.08958911               -0.20461558                4.43253241               -2.51345638
               6.29437987                6.48627331               35.88710275                0.00010000               -0.82598583                0.17084115                0.08977190               -0.87839432               12.65033065                1.17994604
               7.28335917                6.27197669               35.90550641                0.00010000               -1.03561224                0.27732003               -0.27199774               -1.05359654               16.71709831                0.68193400
               8.27366762                6.05762966               35.91620459                0.00010000               -0.87969224                0.24773588               -0.51409667               -1.18690799               16.29033019                1.18458851
               9.26576532                5.84366663               35.92310974                0.00010000               -0.67464901                0.12499666               -0.72900528               -1.31930775               16.21755104                2.02676207
              10.26017464                5.63065652               35.92890749                0.00010000               -0.43900199               -0.04181594               -0.93026553               -1.45536721               16.40936901                3.07654777
              11.25698528                5.41863725               35.93556081                0.11556568                0.01933642               -0.17375930               -1.12117425               -0.74543731                8.92973658                4.29218203
              12.26056137                5.22615953               35.78673400                0.45826254                0.36867880                0.19241015               -1.08882593                0.08212532                0.63776935                1.90808263
              13.26435886                5.03235799               35.62608903                0.91137858                0.37974886                0.56810044               -1.44137588               -0.01099214                0.07531083                0.09614115
               3.50767002                8.11298014               36.20253687                0.98132597               -0.03956519               -0.11890601                0.27425471               -0.02663627                0.01767185                0.82225494
               4.50727437                7.90686822               36.04351706                0.46302785               -0.01483203                0.02074174                0.00756060               -0.01581024                0.16654857               -0.79505988
               5.50737338                7.70009257               35.88739946                0.01647689               -0.45360023                0.17985013               -0.26499028               -0.26396807                7.34639359               -2.64646101
               6.49820237                7.48791813               35.87193253                0.00010000               -1.03934090                0.26971889               -0.05212763               -0.80560571               16.28041196                1.04932934
               7.48658656                7.27518108               35.89323831                0.00010000               -1.14964547                0.41258879               -0.34978185               -1.01155735               18.42775758                0.89888394
               8.47520946                7.06068312               35.91795833                0.00010000               -1.07700894                0.41449420               -0.56122412               -1.34009087               18.76983924                1.28164583
               9.46504638                6.84536471               35.94281975                0.00010000               -0.92785809                0.25803134               -0.72586017               -1.65249591               19.03666296                2.02369461
              10.45665229                6.63056782               35.96895879                0.00010000               -0.76470220                0.04472395               -0.84240188               -1.87065190               19.49092308                2.92014339
              11.44975234                6.41745994               35.99841113                0.14784294               -0.20112147               -0.05628423               -0.87805150               -1.03082474               10.19406580                3.96183481
              12.45262986                6.22810490               35.83382807                0.44065191                0.32261272                0.20810865               -1.02568700                0.05887462                0.27934129                1.64370458
              13.45620459                6.03788715               35.66411631                0.89906513                0.35747300                0.53441663               -1.38974056                0.00107388                0.04611313               -0.13057456
               3.71282914                9.11210657               36.15322188                0.97884054                0.00472354               -0.05779813                0.12119081               -0.02459968                0.00303010                0.82550094
               4.71287637                8.90726591               35.98612948                0.47259398                0.03602372                0.05826451               -0.14495065               -0.00478472                0.01759508               -0.77418936
               5.71354961                8.70194186               35.81923844                0.00010000               -0.48485633                0.18476045               -0.42685470               -0.22166086                9.63363246               -2.45460746
               6.70317925                8.49166769               35.84438776                0.00010000               -1.15932903                0.48211362               -0.34543328               -0.56039563               19.88640658                0.12686466
               7.69036303                8.28022847               35.88018202                0.00010000               -1.32485363                0.62307630               -0.48498390               -0.83488922               20.74358087                0.65351985
               8.67668217                8.06591954               35.91933467                0.00010000               -1.37661623                0.66209547               -0.63037915               -1.29861713               21.27385707                1.05559553
               9.66283071                7.84882726               35.96203739                0.00010000               -1.30079021                0.56580228               -0.74132340               -1.83667884               21.76570772                1.73668057
              10.65066637                7.63155100               36.00679186                0.00010000               -1.19995004                0.22066629               -0.77339464               -2.33459366               22.32198002                2.91205557
              11.63883171                7.41751156               36.05589791                0.19323117               -0.46773539                0.05870400               -0.67042160               -1.30378788               11.39715492                3.20432173
              12.64131166                7.23032171               35.87797043                0.43908413                0.29920684                0.24251377               -0.99768082                0.01309637                0.03420350                1.31962164
              13.64481584                7.04304632               35.69932882                0.89249632                0.35041811                0.49427813               -1.37808087                0.00994518                0.01869922               -0.43147569
               3.91685935               10.11182418               36.10419702                0.97884806                0.04840367               -0.00199198               -0.03003097               -0.02359952               -0.01988370                0.73206758
               4.91734338                9.90803351               35.92899418                0.50804671                0.08395182                0.09596013               -0.29373777               -0.00170387                0.04981764               -0.64337857
               5.91853838                9.70378778               35.75508325                0.00010000               -0.43177690                0.19363629               -0.57065433               -0.07340405               11.60418555               -1.62264838
               6.90870785                9.49756040               35.81086965                0.00010000               -1.14507290                0.66169766               -0.57127207               -0.25620839               23.10103856               -0.12430648
               7.89563693                9.28764260               35.86349563                0.00010000               -1.40347640                0.78672109               -0.63766682               -0.50313770               23.21412310                0.29492007
               8.88063832                9.07392503               35.91731725                0.00010000               -1.64777865                0.89390517               -0.72756098               -0.85318139               23.76973624                0.58411692
               9.86268135                8.85668076               35.97697803                0.00010000               -1.96810986                0.97257279               -0.79899410               -1.45368908               24.82189801                1.02916035
              10.84127612                8.63498114               36.04777671                0.01511712               -1.88877406                0.86684799               -0.82402662               -2.12670789               24.85781479                2.30503809
              11.82490587                8.41863402               36.10367704                0.25665860               -0.69595436                0.16268521               -0.59767284               -1.54744200               12.23970011                1.81097741
              12.82735703                8.23295517               35.91854884                0.44940410                0.30242008                0.28375733               -1.00816974               -0.02281279                0.09211688                0.87249467
              13.83095427                8.04777271               35.73109267                0.88226009                0.35972395                0.46085066               -1.40726210                0.01259454               -0.00461256               -0.58165936
               4.11993849               11.11206673               36.05295447                0.99073045                0.09402060                0.02425507               -0.17688977                0.01975225                0.39948873                0.62583699
               5.12087869               10.90918511               35.87409093                0.79892902                0.13080751                0.11516032               -0.43993433                0.04092374                0.81315510               -0.52570792
               6.12255464               10.70581459               35.70338695                0.47467170               -0.33392195                0.20268050               -0.71056031                0.18745191               13.52740330               -0.99284637
               7.11420025               10.50490164               35.77867016                0.34023442               -0.93094934                0.73412404               -0.73148450                0.05665596               25.65285534               -0.13889170
               8.10393565               10.29596289               35.84402223                0.32982684               -1.18099297                0.83202833               -0.78278513               -0.22532735               25.43678238                0.10545753
               9.09058040               10.08379764               35.91003019                0.34264756               -1.56174202                0.98726169               -0.85279920               -0.39000086               26.01873096                0.28833330
              10.07270081                9.86827872               35.98280825                0.37767782               -2.22007264                1.15979613               -0.91100496               -0.74353870               27.47565217                0.56398239
              11.04617894                9.64888796               36.07421628                0.53286987               -3.13959884                1.39068129               -0.94234904               -1.88539045               26.96453490                1.60578359
              12.00990883                9.42076526               36.13306310                0.66087739               -1.72311103                0.21312399               -0.68716621               -2.14425892               13.52340653                0.90841823
              13.01171672                9.23599685               35.95351088                0.74247335                0.27619155                0.30416782               -1.07027414                0.01087215                1.07252163                0.60867380
              14.01543267                9.05226333               35.76296207                0.94145311                0.37159431                0.44906227               -1.46467936                0.07448705                0.54243529               -0.55608243
               2.13215031                1.19139500               37.52939423                1.00000000               -0.34760128               -0.37359237                1.28984506               -0.05821179               -0.99744980                1.00416518
               3.12867430                0.96742890               37.41552950                1.00000000               -0.30486590               -0.28704155                1.02855588               -0.03563904               -1.31077957                0.13697202
               4.12605300                0.74301308               37.29543119                1.00000000               -0.21255909               -0.20279151                0.74991612               -0.04201693               -1.28925087               -0.20771734
               5.12442312                0.51820080               37.18197344                0.63354309               -0.01997909               -0.13657605                0.48009247               -0.04894159               -0.49865028               -0.90114328
               6.12565341                0.29303044               37.07763946                0.68209640                0.16057950               -0.10896203                0.16476242               -0.06888936               -0.10098721                0.28573248
               7.12763471                0.06857739               36.97249302                0.74749705                0.20687460                0.00240295               -0.08751176               -0.07632073               -0.27456411                0.16518077
               8.12979091               -0.15448356               36.86397113                0.74305304                0.25046241                0.07857123               -0.31938240               -0.05030532               -0.46234006               -0.05927502
               9.13264396               -0.37650358               36.75415742                0.84645341                0.28796015                0.15112299               -0.52913100               -0.06705163               -0.75496813                0.10898556
              10.13555011               -0.59750282               36.63892330                1.00000000                0.29673266                0.23167079               -0.77037336               -0.06278873               -1.11147222                0.62182620
              11.13857861               -0.81806660               36.52153169                1.00000000                0.33103730                0.31963622               -1.03082851               -0.04049954               -1.09842420                0.01072400
              12.14217086               -1.03888622               36.40643075                1.00000000                0.35922446                0.41810398               -1.31399772               -0.01466041               -0.98216328               -0.96174764
               2.35553430                2.18765908               37.48024961                1.00000000               -0.30254264               -0.36308532                1.14658831               -0.01291303               -0.16579954                1.36938321
               3.35250887                1.96455849               37.36621178                1.00000000               -0.26437086               -0.26709473                0.88800822                0.00984122               -0.21621956                0.19604222
               4.35024688                1.74098517               37.25117217                0.98745949               -0.17919229               -0.17660178                0.60967234               -0.00742021               -0.10160157               -0.48386158
               5.34892502                1.51683504               37.13934280                0.28276793               -0.02353274               -0.10843492                0.32825417               -0.04612381                1.51863822               -1.26646076
               6.34977623                1.29194082               37.05646608                0.38976489                0.08517398               -0.05610608                0.02476404               -0.07404023                2.44773977                0.94429386
               7.35062850                1.06860142               36.96062461                0.47112088                0.10260552                0.04634076               -0.22271922               -0.04206515                1.64502247                0.46229447
               8.35182834                0.84630215               36.86031888                0.39923240                0.14272811                0.12937752               -0.44686458               -0.01470763                1.58151270               -0.26261940
               9.35348307                0.62500765               36.76246582                0.50922318                0.19376995                0.19947722               -0.65607496               -0.04289994                1.62193963                0.48873066
              10.35570373                0.40481389               36.66247603                1.00000000                0.26911244                0.25887418               -0.89260574               -0.03505560                0.84713071                0.85539171
              11.35886532                0.18512976               36.54897190                1.00000000                0.35700647                0.33293587               -1.16944594                0.00247968                0.10508462                0.16301042
              12.36284386               -0.03470518               36.43411513                1.00000000                0.39785486                0.44524276               -1.45092282                0.03085335                0.03881141               -1.12406851
               2.57809324                3.18413330               37.43848065                1.00000000               -0.25482024               -0.34593489                1.01424800               -0.00756297                0.04500290                1.73182998
               3.57554504                2.96208701               37.31809103                1.00000000               -0.22325979               -0.22971828                0.75622587                0.01164934                0.22828507                0.18977124
               4.57362804                2.73948105               37.20135395                0.71084404               -0.15000228               -0.11698853                0.49888439               -0.02321348                0.64857478               -1.23368226
               5.57254499                2.51603210               37.08930947                0.01126084               -0.06109073               -0.06918933                0.19657118               -0.05271801                4.45718337               -1.94598151
               6.57240623                2.29190832               37.04865974                0.00010000               -0.00564562               -0.07326145               -0.16613383               -0.26992105                5.68205446               -1.07085763
               7.57243208                2.06950420               36.95469028                0.00010000                0.03421447               -0.04356547               -0.36396136               -0.30176343                2.67922634               -0.01383600
               8.57309052                1.84810399               36.85257249                0.00010000                0.04210677               -0.00803303               -0.56971627               -0.32304269                3.69785303                0.83830062
               9.57327421                1.62748597               36.77836165                0.00010000                0.08181860                0.02142199               -0.79305959               -0.28020935                4.44061187                1.44967530
              10.57472689                1.40767467               36.69066531                0.46501080                0.24365295                0.26382273               -1.02926521               -0.17588763                2.57474721                1.82821502
              11.57814727                1.18859211               36.57942558                1.00000000                0.38654514                0.34500864               -1.30691353               -0.06239626                0.91660064                0.86896107
              12.58245779                0.97001864               36.45855465                1.00000000                0.43105200                0.50619440               -1.58157115                0.01723652                0.43770872               -1.04441840
               2.79947562                4.18074038               37.39667698                1.00000000               -0.20815097               -0.32795584                0.88080468               -0.01503781                0.12144027                1.60438888
               3.79739411                3.95996412               37.26865074                1.00000000               -0.18190479               -0.18859562                0.62329073                0.00209931                0.19381912                0.00753210
               4.79583752                3.73864540               37.14204812                0.40422030               -0.09753565               -0.05616676                0.38148078               -0.08433337                1.14034760               -1.66734454
               5.79544339                3.51545125               37.03291770                0.00010000               -0.24659103               -0.00488012                0.11489629               -0.22283704                5.21637073               -2.62253221
               6.79090570                3.29047559               36.98774829                0.00010000               -0.35229122               -0.05348134               -0.17376293               -0.55571882                8.06835891               -2.64366140
               7.78839757                3.06773011               36.93339084                0.00010000               -0.17599911               -0.10953616               -0.43117419               -0.64849741                7.34158930               -0.42236632
               8.78738572                2.84614149               36.87084934                0.00010000               -0.00446858               -0.15696430               -0.67486336               -0.72594776                6.92263451                1.78314865
               9.78830820                2.62543609               36.80576092                0.00010000                0.18470583               -0.16600843               -0.93875592               -0.46957179                6.56236614                2.34886818
              10.79107983                2.41009035               36.73360787                0.11654388                0.34826109               -0.09631835               -1.23116453               -0.30192924                4.31122617                3.60995600
              11.79527342                2.19202993               36.62085699                0.75489248                0.46278552                0.27973942               -1.51067385               -0.19372611                1.25759246                1.90415842
              12.80033554                1.97541871               36.48788199                1.00000000                0.50621253                0.59985996               -1.74938937               -0.07251386                0.24640949               -0.28925243
               3.01934500                5.17757418               37.35247495                1.00000000               -0.16629974               -0.29634393                0.73681450               -0.02847252                0.19555713                1.33249377
               4.01768201                4.95831510               37.21687199                0.80268471               -0.14453781               -0.13198991                0.47995547               -0.02102265                0.30379998               -0.31761797
               5.01645425                4.73835771               37.08340045                0.19206762               -0.07119751                0.01456077                0.23470221               -0.14386474                1.37303420               -1.80964095
               6.01625806                4.51593450               36.96915925                0.00010000               -0.37206270                0.11779300               -0.00836967               -0.45525807                7.04366090               -2.63777191
               7.00901299                4.29083869               36.94902747                0.00010000               -0.62309110                0.09534671               -0.23431429               -0.74739898               11.37437666               -0.99657164
               8.00379624                4.06731348               36.91937697                0.00010000               -0.40737079                0.01982097               -0.49218227               -0.83911783               10.63320101                0.26290018
               9.00086558                3.84496470               36.88205782                0.00010000               -0.19311580               -0.06272514               -0.76295440               -0.88673330               10.14956798                1.58882428
               9.99993392                3.62416580               36.83996540                0.00010000                0.06144434               -0.12467890               -1.05817597               -0.83399084               10.00773728                2.86617638
              11.00209447                3.40574830               36.79685805                0.08023193                0.45052338               -0.41707617               -1.42767371               -0.41537489                6.05608765                4.44118963
              12.00894439                3.19418690               36.67175291                0.54047771                0.60677455                0.19184367               -1.51790298               -0.02724229                1.09359897                2.47142211
              13.01422996                2.98201584               36.52762000                0.95666303                0.52855700                0.66599118               -1.79611589               -0.08235373                0.17388381                0.37550598
               3.23742434                6.17481350               37.30535879                1.00000000               -0.12342145               -0.24696392                0.58259899               -0.03334727                0.12856475                1.06191792
               4.23619012                5.95732432               37.16088012                0.61034021               -0.10417547               -0.06792531                0.31354821               -0.03531247                0.36397826               -0.64169027
               5.23534083                5.73893661               37.02106723                0.09643134               -0.11664342                0.10075791                0.07037218               -0.17672180                2.14563584               -2.20806404
               6.23385725                5.51780711               36.91220329                0.00010000               -0.53810447                0.15956706               -0.05237101               -0.78877859                9.57584572               -0.65379874
               7.22457874                5.29238253               36.92091283                0.00010000               -0.81840238                0.18588214               -0.27120357               -1.06609537               14.69961643                0.02046973
               8.21748921                5.06812653               36.91227712                0.00010000               -0.58900018                0.12655108               -0.54857795               -1.10514690               13.62620907                0.87085814
               9.21279873                4.84488698               36.89692387                0.00010000               -0.33222127                0.02480121               -0.82529993               -1.15113347               13.27492640                1.92422750
              10.21084478                4.62294251               36.87827953                0.00010000               -0.00237508               -0.11283847               -1.13013383               -1.17779344               13.21605233                3.15421103
              11.21275123                4.40174882               36.85820127                0.08421564                0.38081284               -0.34123067               -1.52712703               -0.50828389                7.73228437                4.46760318
              12.21846104                4.19586681               36.72492214                0.47040492                0.51396836                0.16692918               -1.31142937                0.07475759                1.12846898                2.40195056
              13.22303060                3.98873853               36.57035721                0.91434142                0.45695622                0.63627696               -1.61208928               -0.04684842                0.10728897                0.45294453
               3.45365642                7.17263490               37.25585727                0.98829839               -0.08037721               -0.18469216                0.42303995               -0.02970161                0.05109144                0.88256799
               4.45285265                6.95695659               37.10250677                0.49959582               -0.06096969               -0.01408876                0.15054780               -0.03116863                0.30374389               -0.78408607
               5.45243703                6.74037287               36.95415398                0.04339220               -0.29080377                0.16771992               -0.11003288               -0.26076198                4.67164021               -2.54702237
               6.44703657                6.51912584               36.88813013                0.00010000               -0.75326784                0.13282593                0.10922095               -1.00767275               12.82621068                1.30311405
               7.43737167                6.29455634               36.90257130                0.00010000               -0.89238673                0.25769920               -0.32070958               -1.22829579               16.67022929                0.75732303
               8.42918884                6.06984450               36.91066707                0.00010000               -0.71723737                0.22554267               -0.59938704               -1.34961223               16.32775415                1.27289741
               9.42302692                5.84546072               36.91523460                0.00010000               -0.48363136                0.09655967               -0.85418316               -1.46547152               16.27262077                2.14821758
              10.41951621                5.62190903               36.91878071                0.00010000               -0.20112131               -0.07426771               -1.10992903               -1.60166861               16.47041713                3.26411308
              11.41900450                5.39892369               36.92319338                0.10302963                0.19668080               -0.21698258               -1.38716254               -0.80632103                9.18197256                4.62232100
              12.42344983                5.19752549               36.77545800                0.43658660                0.42725162                0.17368821               -1.16937219                0.08762580                0.85867278                2.09922039
              13.42754953                4.99474138               36.61142339                0.89534844                0.40997015                0.57867371               -1.48876489               -0.01887004                0.07518218                0.25127597
               3.66818693                8.17111966               37.20522606                0.98091484               -0.03581492               -0.11913557                0.26476614               -0.02687172                0.01601938                0.81302764
               4.66782878                7.95704255               37.04352218                0.45540576               -0.01152945                0.02768465               -0.00713704               -0.01576229                0.16132070               -0.80442533
               5.66795634                7.74229101               36.88465032                0.01371731               -0.41542228                0.19527833               -0.28672136               -0.34665720                7.57765501               -2.67198159
               6.65952033                7.52046363               36.87120715                0.00010000               -0.93310913                0.25351080               -0.09978092               -0.93768816               16.51035113                0.95376627
               7.64929416                7.29753651               36.88945688                0.00010000               -0.99638809                0.39063710               -0.41288914               -1.16925852               18.44935916                0.93146684
               8.63959257                7.07263738               36.91188498                0.00010000               -0.89346910                0.38417359               -0.66049134               -1.49298274               18.85988913                1.36433982
               9.63142478                6.84681818               36.93493455                0.00010000               -0.71220640                0.21894139               -0.86125725               -1.79050507               19.17892642                2.15559422
              10.62534844                6.62145716               36.95975967                0.00010000               -0.52082108                0.00004804               -1.01509110               -2.01219499               19.70942793                3.13871362
              11.62100835                6.39740917               36.98876682                0.13494727               -0.04762905               -0.07598110               -1.08531255               -1.10193649               10.46165401                4.32884133
              12.62439586                6.19934057               36.82324537                0.42126274                0.36065312                0.20152719               -1.09401161                0.06442343                0.40826268                1.77753645
              13.62822142                6.00031201               36.64997229                0.88461425                0.38255527                0.54117233               -1.43688334               -0.00265318                0.04693781               -0.03611975
               3.88127321                9.17025219               37.15436605                0.97868037                0.00928404               -0.05634703                0.10851932               -0.02477531                0.00191251                0.81700173
               4.88136605                8.95751028               36.98459866                0.46834099                0.04047961                0.06537514               -0.16216077               -0.00453152                0.00844930               -0.77927366
               5.88208280                8.74427844               36.81486943                0.00010000               -0.41643697                0.19667433               -0.44916745               -0.31554061                9.78988179               -2.46109330
               6.87303731                8.52419605               36.84063511                0.00010000               -1.01350279                0.47197728               -0.40860571               -0.72610285               20.12808139                0.01440879
               7.86181275                8.30236908               36.87496494                0.00010000               -1.14948981                0.59318211               -0.56418141               -0.99461690               20.88712748                0.65442233
               8.85004752                8.07752797               36.91250183                0.00010000               -1.17078528                0.62553451               -0.74339756               -1.44470090               21.44098806                1.12061272
               9.83839704                7.84983955               36.95390940                0.00010000               -1.06830991                0.52493053               -0.89374000               -1.97976740               22.01111772                1.84644153
              10.82868132                7.62190999               36.99833125                0.00010000               -0.96573425                0.17784836               -0.93306381               -2.46650910               22.70662397                3.03962119
              11.81908236                7.39740407               37.04867798                0.18113895               -0.34229294                0.06192965               -0.79390001               -1.37404661               11.67383538                3.47800545
              12.82183546                7.20155603               36.86768579                0.42054068                0.32356143                0.24825508               -1.06321029                0.01562432                0.06711234                1.41147273
              13.82555359                7.00556482               36.68527028                0.87880928                0.37181266                0.50703151               -1.43457631                0.00727553                0.01874647               -0.38479099
               4.09317524               10.16999272               37.10381317                0.97666037                0.05366632                0.00126348               -0.04650883               -0.02366020               -0.01980876                0.72603520
               5.09371190                9.95835005               36.92597066                0.50641247                0.08922594                0.10293152               -0.31253607               -0.00244280                0.04298079               -0.64409182
               6.09495976                9.74622450               36.74927301                0.00010000               -0.34021322                0.20256789               -0.59409561               -0.18426757               11.72272653               -1.61561212
               7.08690764                9.52990317               36.80490552                0.00010000               -0.94449290                0.61073133               -0.62597356               -0.40150246               23.33463269               -0.16885775
               8.07606990                9.30940015               36.85669354                0.00010000               -1.18397791                0.74099147               -0.72815866               -0.62066547               23.42475217                0.29159355
               9.06322808                9.08514807               36.90944414                0.00010000               -1.43112446                0.85706127               -0.85362199               -0.95432799               23.99957948                0.62075622
              10.04744741                8.85731679               36.96814221                0.00010000               -1.73871656                0.94691207               -0.97487446               -1.56654904               25.10079025                1.09078342
              11.02845375                8.62501413               37.03823394                0.01127339               -1.67830149                0.86568700               -1.09112882               -2.22891721               25.38147152                2.32399897
              12.01388138                8.39864777               37.09740743                0.24789854               -0.59530783                0.17776469               -0.66373502               -1.61190178               12.59220971                1.91885268
              13.01654759                8.20430567               36.90817331                0.43109829                0.32339791                0.29809167               -1.07017537               -0.02386858                0.08299605                0.91857012
              14.02034934                8.01045264               36.71669237                0.86875899                0.38017470                0.47914795               -1.47540102                0.01045967               -0.00761381               -0.57018214
               4.30408535               11.17027746               37.05109500                0.99098154                0.10000720                0.02847404               -0.19522883                0.02015587                0.39583184                0.62195563
               5.30508542               10.95956891               36.86959900                0.79909204                0.13794922                0.12188621               -0.46122113                0.03996825                0.80557557               -0.52384166
               6.30684433               10.74832980               36.69616665                0.47356297               -0.16269039                0.21052974               -0.73669265                0.03054546               13.63416105               -0.98205106
               7.30183161               10.53641068               36.77106044                0.34034824               -0.63448941                0.65075060               -0.79468414               -0.06464733               25.88443997               -0.16044041
               8.29415454               10.31718891               36.83572458                0.32995815               -0.93936448                0.77887546               -0.88193156               -0.27860994               25.66658259                0.10076511
               9.28304432               10.09466920               36.90083328                0.34242877               -1.34772684                0.95211278               -0.99230278               -0.43893169               26.26901096                0.30364397
              10.26720000                9.86877779               36.97272745                0.37678272               -2.01361613                1.14610047               -1.10887356               -0.79701405               27.75306312                0.58702895
              11.24277200                9.63922373               37.06300764                0.53194364               -2.98236137                1.42096026               -1.30445367               -1.95909684               27.53755285                1.59274559
              12.20755278                9.40095936               37.12587457                0.65771128               -1.66093920                0.23115945               -0.75649285               -2.21815368               13.95329264                0.92650474
              13.20955321                9.20751786               36.94251212                0.73334730                0.29580326                0.32121923               -1.13058728                0.00998326                1.10202878                0.62904898
              14.21346884                9.01514778               36.74795537                0.93458504                0.39156292                0.46951434               -1.53873077                0.07494226                0.56320814               -0.55670755
               2.23725832                1.25135386               38.54234478                1.00000000               -0.34973498               -0.37794463                1.30367199               -0.05951598               -1.01607121                1.01640113
               3.23376097                1.01885445               38.42582560                1.00000000               -0.30513670               -0.28815199                1.03208745               -0.03596877               -1.34007433                0.14443604
               4.23115558                0.78589750               38.30288531                1.00000000               -0.20978011               -0.20085610                0.74025297               -0.04232022               -1.32277582               -0.20741169
               5.22956537                0.55249610               38.18667885                0.63637580               -0.02391405               -0.13150086                0.45810718               -0.09167935               -0.55098087               -0.91801968
               6.23067730                0.31775554               38.07907510                0.67951099                0.17524918               -0.11869799                0.11424277               -0.06191016               -0.13454920                0.28149572
               7.23307035                0.08276921               37.97136012                0.74040695                0.25344984                0.00369432               -0.14972254               -0.08017229               -0.24872380                0.15922713
               8.23574630               -0.15077459               37.86054562                0.73669399                0.30064616                0.08054536               -0.37533931               -0.05110900               -0.39521558               -0.06253216
               9.23908327               -0.38305683               37.74871501                0.84202825                0.32463651                0.15147901               -0.56449514               -0.06946848               -0.67622376                0.11168784
              10.24223903               -0.61413359               37.63116062                1.00000000                0.31337195                0.23364853               -0.78654273               -0.06585389               -1.05418927                0.63497824
              11.24535071               -0.84463665               37.51120640                1.00000000                0.33700201                0.32249229               -1.03973894               -0.04127693               -1.06278627                0.02024717
              12.24897907               -1.07534334               37.39328222                1.00000000                0.36283584                0.41936832               -1.32079603               -0.01579662               -0.95629583               -0.93196305
               2.46916257                2.24757441               38.49175330                1.00000000               -0.30331080               -0.36786678                1.15709882               -0.01272402               -0.17487523                1.38543845
               3.46612946                2.01597293               38.37508951                1.00000000               -0.26255075               -0.26781310                0.88848977                0.01074779               -0.23678514                0.20726977
               4.46391155                1.78388894               38.25721655                0.99888527               -0.17049565               -0.17427736                0.59779743               -0.00849124               -0.13304516               -0.46843258
               5.46271955                1.55118109               38.14253555                0.28982523                0.05050465               -0.10148276                0.30646314               -0.10702980                1.47412954               -1.27273010
               6.46492165                1.31656856               38.05652571                0.39085612                0.19070727               -0.07532680               -0.01839511               -0.05685715                2.42943560                0.91226168
               7.46653369                1.08280615               37.95817502                0.46966407                0.16132896                0.04458056               -0.27362358               -0.04493008                1.68606773                0.45364736
               8.46814823                0.85003086               37.85566489                0.40307074                0.17671967                0.13224876               -0.48852372               -0.02043448                1.65679900               -0.26306057
               9.47006809                0.61845796               37.75582168                0.51497839                0.21110866                0.20159255               -0.67307747               -0.04443919                1.69431642                0.48929335
              10.47237040                0.38820289               37.65350286                1.00000000                0.27373653                0.26051890               -0.90046530               -0.03848021                0.88219018                0.86211060
              11.47554282                0.15858828               37.53724661                1.00000000                0.35787002                0.33696500               -1.17409008                0.00221199                0.11560552                0.17415497
              12.47952780               -0.07114966               37.41957761                1.00000000                0.39849824                0.44441659               -1.45445501                0.02984832                0.04514412               -1.08861008
               2.70020681                3.24399652               38.44865186                1.00000000               -0.25454065               -0.35165529                1.02258964               -0.00735912                0.04194955                1.75161681
               3.69766140                3.01349819               38.32564157                1.00000000               -0.22146071               -0.22961677                0.75437636                0.01120654                0.22438180                0.20458487
               4.69577759                2.78241195               38.20628492                0.72598699               -0.14581300               -0.11167864                0.48583480               -0.02705245                0.62339731               -1.20585458
               5.69474514                2.55046645               38.09118109                0.01242454                0.10687537               -0.05985049                0.17443371               -0.14089792                4.37663885               -1.91665750
               6.69791510                2.31624901               38.04676706                0.00010000                0.19821540               -0.10222864               -0.21685662               -0.45113865                5.66953382               -1.03753338
               7.69870945                2.08366082               37.95082433                0.00010000                0.08853483               -0.04946410               -0.41288111               -0.46219929                2.76653921                0.00851454
               8.69968580                1.85187038               37.84671186                0.00010000                0.06565035               -0.00824024               -0.60449032               -0.44837324                3.78381664                0.84130119
               9.70002246                1.62097502               37.77047171                0.00010000                0.08266567                0.01645338               -0.78647390               -0.34471556                4.49252966                1.41468537
              10.70133911                1.39107679               37.68034603                0.46237018                0.23625243                0.26583451               -1.02852110               -0.17227025                2.58932412                1.80190282
              11.70474751                1.16210265               37.56630501                1.00000000                0.38563991                0.35175790               -1.30781273               -0.05337748                0.91256787                0.84723636
              12.70905191                0.93354499               37.44271155                1.00000000                0.43044044                0.49807952               -1.57749380                0.01836575                0.43190613               -1.02205787
               2.93001206                4.24054131               38.40550497                1.00000000               -0.20738962               -0.33437773                0.88710965               -0.01547092                0.12373232                1.61708005
               3.92793817                4.01138059               38.27486366                1.00000000               -0.18049090               -0.18720540                0.61965466                0.00112205                0.20317816                0.01633643
               4.92640225                3.78165536               38.14580548                0.40555590               -0.09368177               -0.04797462                0.36822565               -0.09072249                1.14515871               -1.65659213
               5.92606453                3.54998408               38.03395795                0.00010000               -0.18488718                0.00666063                0.08872283               -0.33296914                5.19641921               -2.58649116
               6.92270450                3.31452399               37.98580815                0.00010000               -0.21980996               -0.06444758               -0.21890342               -0.85325769                8.06146482               -2.54303075
               7.92166833                3.08181687               37.92881143                0.00010000               -0.04189723               -0.12575010               -0.48824804               -0.91767932                7.36792312               -0.36211561
               8.92186656                2.84986606               37.86379492                0.00010000                0.11495202               -0.17147648               -0.73653238               -0.96103999                6.94953390                1.79895896
               9.92396737                2.61878703               37.79601659                0.00010000                0.29654037               -0.18996784               -0.99941497               -0.61385264                6.58451289                2.31391907
              10.92779736                2.39351958               37.72148504                0.10116945                0.40198468               -0.12815166               -1.19065605               -0.31136090                4.27957818                3.45534570
              11.93200707                2.16562343               37.60574840                0.71703808                0.46065406                0.27234757               -1.49494003               -0.18074260                1.24181775                1.91799540
              12.93701045                1.93881193               37.47043001                1.00000000                0.50033793                0.58088085               -1.72727117               -0.06775453                0.25380581               -0.23950050
               3.15821882                5.23730897               38.35984956                1.00000000               -0.16490325               -0.30264934                0.74027196               -0.03009231                0.20303603                1.33366115
               4.15656979                5.00975408               38.22164269                0.79242298               -0.14295833               -0.12803286                0.47400640               -0.02443150                0.31679428               -0.32638179
               5.15535965                4.78145246               38.08569135                0.18799513               -0.06763285                0.02574405                0.22105312               -0.15395946                1.39295330               -1.82339054
               6.15521713                4.55059966               37.96896527                0.00010000               -0.31712460                0.12351846               -0.03510665               -0.57417698                7.06940454               -2.57316293
               7.14901716                4.31496006               37.94647932                0.00010000               -0.51016667                0.09881283               -0.27945771               -0.96125024               11.39950598               -0.91086077
               8.14501380                4.08114582               37.91413359                0.00010000               -0.27611624                0.00192959               -0.55964968               -1.05184152               10.63979169                0.32957437
               9.14349484                3.84844085               37.87398612                0.00010000               -0.04609603               -0.08467538               -0.85210443               -1.09405943               10.13885268                1.62786283
              10.14409188                3.61717567               37.82880375                0.00010000                0.23903260               -0.15569920               -1.17122872               -1.00602891                9.93107589                2.86996972
              11.14827549                3.38851375               37.78148808                0.06675324                0.58742152               -0.47838585               -1.61762845               -0.46281202                6.10972708                4.34411541
              12.15584031                3.16754960               37.65615487                0.50505213                0.65221694                0.14835909               -1.55518667               -0.01183391                1.20457706                2.67141379
              13.16131983                2.94516261               37.50953002                0.93471864                0.54795208                0.64843544               -1.78782546               -0.08437369                0.15162366                0.55676351
               3.38452000                6.23448832               38.31117654                1.00000000               -0.12139507               -0.25200940                0.58280055               -0.03473737                0.12631056                1.05434089
               4.38330605                6.00881993               38.16396425                0.59707021               -0.10212624               -0.06133928                0.30283223               -0.04023444                0.37500215               -0.66033249
               5.38247748                5.78217024               38.02169328                0.09088872               -0.11163282                0.11844316                0.05103737               -0.20184024                2.23663482               -2.24062104
               6.38107339                5.55245445               37.91166356                0.00010000               -0.47720683                0.13660407               -0.05800372               -0.92001808                9.67655558               -0.44760901
               7.37293334                5.31650025               37.91798751                0.00010000               -0.69613443                0.18095224               -0.31770463               -1.26946700               14.71606857                0.11314263
               8.36715070                5.08185546               37.90640574                0.00010000               -0.44889100                0.11669669               -0.62917640               -1.28910473               13.61568160                0.94685768
               9.36395552                4.84817255               37.88810628                0.00010000               -0.16884048                0.00897247               -0.94071578               -1.32865762               13.24337012                1.99723766
              10.36377390                4.61567305               37.86612922                0.00010000                0.21058335               -0.13585106               -1.30078638               -1.33441768               13.09862467                3.23231244
              11.36816719                4.38395187               37.84148184                0.07130422                0.56738206               -0.39978171               -1.81397434               -0.57052357                7.92225612                4.61067951
              12.37512154                4.16859062               37.71125022                0.44424119                0.59648924                0.11355522               -1.39490013                0.07466409                1.40778029                2.68498367
              13.38009697                3.95178064               37.55392822                0.89720467                0.49754347                0.63029125               -1.64753734               -0.05040349                0.08787083                0.68631197
               3.60886084                7.23226878               38.26006338                0.98782847               -0.07776678               -0.18782066                0.41965158               -0.03024076                0.04790685                0.87186204
               4.60808318                7.00852729               38.10394647                0.48909272               -0.05862559               -0.00660547                0.13715653               -0.03384912                0.30562286               -0.79732983
               5.60768833                6.78382132               37.95293498                0.03763583               -0.27982053                0.18836204               -0.13579194               -0.32157543                4.93170418               -2.58255355
               6.60248677                6.55333174               37.88928716                0.00010000               -0.67307594                0.10170086                0.11158774               -1.13563956               12.99791361                1.40465599
               7.59422681                6.31857910               37.89909222                0.00010000               -0.74636824                0.24582637               -0.37982459               -1.39447075               16.57926157                0.82716286
               8.58755940                6.08347975               37.90421685                0.00010000               -0.55613571                0.21398462               -0.69508271               -1.50899663               16.32885093                1.35574907
               9.58310410                5.84862030               37.90602608                0.00010000               -0.29675976                0.08146251               -0.99273031               -1.61131986               16.27251553                2.26278406
              10.58162421                5.61445865               37.90670891                0.00010000                0.04216742               -0.09407512               -1.31351507               -1.74337453               16.43238998                3.44992931
              11.58394745                5.38051812               37.90781756                0.08966897                0.39403057               -0.26998480               -1.71519930               -0.86527025                9.45410380                4.99477330
              12.58950482                5.16982071               37.76334656                0.41474274                0.49921325                0.14186086               -1.24637184                0.08592110                1.16578243                2.30967804
              13.59393171                4.95776843               37.59631374                0.88031470                0.44268957                0.57686133               -1.52556181               -0.02560082                0.06919100                0.40205894
               3.83139816                8.23073191               38.20783219                0.98056255               -0.03216347               -0.12046450                0.25770726               -0.02734101                0.01455724                0.80277348
               4.83107653                8.00868783               38.04337432                0.44801027               -0.00783221                0.03523336               -0.02312490               -0.01678095                0.15554687               -0.81300621
               5.83124152                7.78593748               37.88166504                0.01078252               -0.37368537                0.21379914               -0.31216560               -0.42884481                7.79597394               -2.69344918
               6.82360282                7.55448847               37.86993691                0.00010000               -0.81728030                0.24628760               -0.16080248               -1.06810508               16.72306568                0.82648219
               7.81489591                7.32141677               37.88498053                0.00010000               -0.83366258                0.37505770               -0.48859074               -1.31706330               18.45067082                0.95862992
               8.80692957                7.08613515               37.90474850                0.00010000               -0.70728432                0.36464442               -0.77225845               -1.63084500               18.91372713                1.44465587
               9.80075023                6.84980180               37.92559460                0.00010000               -0.49604907                0.19640652               -1.01491223               -1.91120349               19.27270198                2.28774576
              10.79700859                6.61379154               37.94865697                0.00010000               -0.26252548               -0.02947521               -1.22236685               -2.14217851               19.85938535                3.38360089
              11.79549972                6.37855217               37.97670487                0.12077672                0.12905292               -0.10435306               -1.36938086               -1.16786402               10.75842606                4.79428466
              12.79958965                6.17142783               37.81194784                0.40167488                0.40948976                0.19012546               -1.16655724                0.06612459                0.60883042                1.91898877
              13.80368951                5.96331787               37.63537864                0.87080785                0.40998655                0.54309922               -1.48127056               -0.00649241                0.04632987                0.03776463
               4.05240219                9.22985949               38.15539226                0.97855643                0.01397928               -0.05579873                0.09757788               -0.02525146                0.00053412                0.80714520
               5.05254198                9.00923196               37.98288626                0.46393666                0.04543025                0.07317517               -0.18131462               -0.00477757               -0.00100494               -0.78346295
               6.05331079                8.78809730               37.81025509                0.00010000               -0.34483033                0.21204186               -0.47615662               -0.40789651                9.92813660               -2.46389785
               7.04564537                8.55825749               37.83621564                0.00010000               -0.85359642                0.46347227               -0.47384023               -0.88199512               20.33861023               -0.09342267
               8.03623886                8.32608025               37.86889839                0.00010000               -0.95439488                0.56490269               -0.65570474               -1.13937069               21.00773759                0.65245741
               9.02655748                8.09077264               37.90446672                0.00010000               -0.95076126                0.59367759               -0.86974063               -1.56400760               21.57317246                1.18752554
              10.01722364                7.85254843               37.94416259                0.00010000               -0.82636061                0.49382850               -1.06259460               -2.08731869               22.22682200                1.95905090
              11.01003026                7.61386914               37.98813058                0.00010000               -0.71348806                0.14965951               -1.12299434               -2.57428152               23.08677041                3.15383262
              12.00295388                7.37843106               38.04001991                0.16699618               -0.19843250                0.06311613               -0.96875527               -1.44674703               11.98798909                3.85450778
              13.00606161                7.17362322               37.85670623                0.40187415                0.35339614                0.25362081               -1.13718317                0.01708608                0.13144985                1.50902950
              14.01002180                6.96863041               37.67063729                0.86555577                0.39601863                0.51830559               -1.49490344                0.00443776                0.01940909               -0.36309181
               4.27214820               10.22961593               38.10326685                0.97241832                0.05949680                0.00413428               -0.06237097               -0.02421285               -0.01848799                0.71983858
               5.27274317               10.01015133               37.92274346                0.50451707                0.09549292                0.11098208               -0.33478637               -0.00305159                0.03659091               -0.64468106
               6.27405806                9.79017832               37.74320134                0.00010000               -0.23815996                0.21444867               -0.62362460               -0.29638961               11.82782928               -1.60673472
               7.26797997                9.56375791               37.79835017                0.00010000               -0.72323520                0.55627454               -0.68973546               -0.53888720               23.54040267               -0.20738526
               8.25959335                9.33271483               37.84893246                0.00010000               -0.93993639                0.69179252               -0.82913517               -0.72468020               23.60491404                0.28863979
               9.24918124                9.09800870               37.90024481                0.00010000               -1.18430008                0.81598006               -0.99226738               -1.03180935               24.19422137                0.66094795
              10.23590735                8.85967837               37.95748054                0.00010000               -1.47704527                0.91501907               -1.16014931               -1.64299498               25.31970261                1.15610066
              11.21964033                8.61678473               38.02595414                0.00428519               -1.45483259                0.86631646               -1.34935739               -2.30556279               25.96499746                2.27766360
              12.20681070                8.37981449               38.09040234                0.23594069               -0.49541611                0.19650123               -0.75094240               -1.68840752               13.05028899                2.08059980
              13.20973201                8.17650025               37.89714533                0.41280218                0.34765880                0.31384996               -1.14100231               -0.02578153                0.07844036                0.97306905
              14.21376387                7.97368398               37.70158465                0.85547162                0.40318638                0.49863891               -1.55103650                0.00779943               -0.01178730               -0.57802724
               4.49084714               11.22994218               38.04904990                0.99127655                0.10714218                0.03262443               -0.21457547                0.02083634                0.39261410                0.61955595
               5.49191856               11.01145160               37.86486651                0.79934525                0.14646383                0.13002720               -0.48794267                0.03974427                0.79859511               -0.52283194
               6.49377641               10.79238628               37.68865310                0.47235434                0.02062816                0.22079546               -0.77017804               -0.13159517               13.72451805               -0.97008688
               7.49233112               10.56938298               37.76277647                0.34046727               -0.31409722                0.56250681               -0.86639921               -0.18839300               26.08299085               -0.18335528
               8.48749447               10.33991610               37.82638359                0.33009778               -0.66866873                0.72012768               -0.99148320               -0.32442544               25.86297397                0.09753103
               9.47895775               10.10709224               37.89018414                0.34218921               -1.09533800                0.90835354               -1.14263007               -0.47571365               26.47976194                0.32026007
              10.46558771                9.87084881               37.96063078                0.37587134               -1.75874321                1.11704454               -1.30893273               -0.82680263               27.93840620                0.60912786
              11.44378288                9.63119547               38.04812721                0.52891880               -2.80587493                1.44107365               -1.63700404               -2.01013164               28.19377632                1.50081692
              12.40947021                9.38236108               38.11793324                0.65252606               -1.60531923                0.25465888               -0.84344767               -2.29881146               14.55311865                0.96660565
              13.41167650                9.17990022               37.93089913                0.72421943                0.31700609                0.33999682               -1.19647538                0.00655428                1.14851419                0.65956090
              14.41581033                8.97860319               37.73218746                0.92779580                0.41338338                0.49192155               -1.62010172                0.07494326                0.58841421               -0.57067530
               2.34486726                1.31290600               39.55546767                1.00000000               -0.35349770               -0.38452262                1.32554817               -0.06190931               -1.03809544                1.03017455
               3.34133228                1.07178980               39.43617125                1.00000000               -0.30615161               -0.29018933                1.03903255               -0.03741824               -1.37489548                0.15238426
               4.33874423                0.83020237               39.31023625                1.00000000               -0.20592864               -0.19854650                0.72957223               -0.04357004               -1.36375373               -0.20732770
               5.33721371                0.58812699               39.19113558                0.64050313               -0.02315332               -0.12487989                0.43039798               -0.13368710               -0.62126997               -0.93537559
               6.33828116                0.34375914               39.07992432                0.67927961                0.19880039               -0.12650393                0.04758055               -0.05531161               -0.19289623                0.27513885
               7.34118972                0.09813213               38.96949857                0.73599974                0.31252706                0.00780198               -0.23335776               -0.08449720               -0.22846481                0.14862844
               8.34453170               -0.14597274               38.85646434                0.73212035                0.36573836                0.08474308               -0.45144602               -0.05216929               -0.31236411               -0.07109518
               9.34850449               -0.38848316               38.74286752                0.83896107                0.37216143                0.15199775               -0.61078997               -0.07305731               -0.57093750                0.11299801
              10.35197493               -0.62948775               38.62319245                1.00000000                0.33483981                0.23584373               -0.81104707               -0.06817930               -0.97808587                0.64417939
              11.35520128               -0.86974209               38.50073691                1.00000000                0.34591847                0.32563402               -1.05740086               -0.04128574               -1.01782311                0.02896207
              12.35889330               -1.11011626               38.38001483                1.00000000                0.36920190                0.42095459               -1.33549519               -0.01827181               -0.92407004               -0.89882610
               2.58536437                2.30906077               39.50339159                1.00000000               -0.30544539               -0.37460206                1.17472131               -0.01300962               -0.18599537                1.40294506
               3.58230991                2.06888790               39.38398157                1.00000000               -0.26122174               -0.26926237                0.89132307                0.01117324               -0.26132226                0.21910255
               4.58013993                1.82821691               39.26312812                1.00000000               -0.16057286               -0.17136743                0.58295334               -0.00987341               -0.16869358               -0.45256496
               5.57909846                1.58687819               39.14547206                0.29778710                0.12927718               -0.09252174                0.27685922               -0.16704417                1.42133059               -1.27889287
               6.58272548                1.34249410               39.05609817                0.39338463                0.30561152               -0.09419632               -0.07394313               -0.03977685                2.40115817                0.87243082
               7.58521069                1.09821015               38.95515214                0.47012987                0.22960895                0.04529723               -0.33993563               -0.04955356                1.73013312                0.43645212
               8.58731765                0.85487469               38.85054840                0.40916427                0.21603651                0.13863546               -0.54344292               -0.02927807                1.75259853               -0.27228703
               9.58953142                0.61303682               38.74900427                0.52208118                0.23024736                0.20339626               -0.69424806               -0.05089225                1.78627841                0.48888812
              10.59192260                0.37287069               38.64446673                1.00000000                0.27856320                0.26091479               -0.90508108               -0.04087094                0.92349025                0.86428080
              11.59510268                0.13351425               38.52549010                1.00000000                0.35810763                0.33885717               -1.17513059                0.00272110                0.12753915                0.18321655
              12.59908475               -0.10590671               38.40502603                1.00000000                0.39820742                0.44206678               -1.45313227                0.02737931                0.05231203               -1.04915218
               2.82495280                3.30541396               39.45893244                1.00000000               -0.25531902               -0.35882457                1.03720144               -0.00751482                0.03738604                1.77307476
               3.82239961                3.06640455               39.33317855                1.00000000               -0.21981637               -0.22990831                0.75371206                0.01041580                0.21787398                0.22056737
               4.82055647                2.82677503               39.21107065                0.74026946               -0.14019886               -0.10548913                0.46867868               -0.03107574                0.59658816               -1.17627681
               5.81959563                2.58627656               39.09279815                0.01363456                0.27985962               -0.04704698                0.14319709               -0.23145762                4.28778584               -1.88938729
               6.82615367                2.34187522               39.04432261                0.00010000                0.41112114               -0.12956934               -0.27834465               -0.63412233                5.64421391               -1.01417542
               7.82781806                2.09903807               38.94643266                0.00010000                0.14829035               -0.05158090               -0.47403723               -0.62583366                2.86192632                0.01402780
               8.82911947                1.85679997               38.84048268                0.00010000                0.08362927               -0.00141424               -0.65279306               -0.57998585                3.89746224                0.81914294
               9.82949064                1.61558477               38.76263217                0.00010000                0.07803019                0.01728081               -0.78845930               -0.41462482                4.56448141                1.34463041
              10.83068008                1.37573055               38.67009489                0.45628292                0.22712324                0.25922596               -1.01495898               -0.17663625                2.59945796                1.78319065
              11.83403311                1.13703506               38.55326932                1.00000000                0.38013711                0.35128618               -1.29179030               -0.04716759                0.90532451                0.82860177
              12.83828282                0.89872508               38.42700478                1.00000000                0.42497123                0.48584742               -1.55606579                0.01718579                0.42590368               -0.99103370
               3.06323288                4.30188428               39.41441918                1.00000000               -0.20757214               -0.34190613                0.89872888               -0.01612017                0.12558753                1.63089027
               4.06115716                4.06428974               39.28104383                1.00000000               -0.17932347               -0.18588394                0.61658230               -0.00003300                0.21207337                0.02619985
               5.05964641                3.82610713               39.14941264                0.40475854               -0.08940236               -0.03864590                0.35082843               -0.09591126                1.14804288               -1.64355388
               6.05936911                3.58593725               39.03469215                0.00010000               -0.11824515                0.02445367                0.05221069               -0.44709313                5.17310195               -2.55274016
               7.05728151                3.33990272               38.98337022                0.00010000               -0.07999282               -0.07165510               -0.27458602               -1.15387995                8.05060907               -2.44022915
               8.05776926                3.09717853               38.92362588                0.00010000                0.09448682               -0.13637050               -0.55470985               -1.18945493                7.39268518               -0.31502241
               9.05917125                2.85484641               38.85611869                0.00010000                0.22695421               -0.17946832               -0.80114442               -1.19715458                6.97982929                1.78397544
              10.06230834                2.61338243               38.78577262                0.00010000                0.38841698               -0.20661030               -1.04648678               -0.76141798                6.65166820                2.21234913
              11.06693959                2.37805521               38.70979475                0.08643991                0.44282296               -0.15483709               -1.14424463               -0.32923227                4.29279402                3.22159540
              12.07116480                2.14053998               38.59095818                0.67945913                0.45544219                0.25391517               -1.45380465               -0.16420453                1.20957909                1.91895444
              13.07604843                1.90381024               38.45333656                1.00000000                0.48836292                0.54639128               -1.68219375               -0.06150874                0.25600746               -0.18380840
               3.29981948                5.29857583               39.36728039                1.00000000               -0.16433754               -0.30988864                0.74838889               -0.03178383                0.21080970                1.33506555
               4.29817610                5.06268687               39.22635212                0.78051369               -0.14143723               -0.12379250                0.46785669               -0.02787289                0.33076690               -0.33542421
               5.29699074                4.82600211               39.08782151                0.18311901               -0.06589616                0.03867187                0.20263815               -0.15967175                1.41182153               -1.83675043
               6.29685818                4.58676563               38.96845712                0.00010000               -0.25779746                0.12978892               -0.07173783               -0.69174880                7.09276763               -2.49728368
               7.29183479                4.34044211               38.94343832                0.00010000               -0.38864582                0.10648799               -0.33360958               -1.17892729               11.41616459               -0.82099487
               8.28908526                4.09631066               38.90818397                0.00010000               -0.14311539               -0.00990519               -0.63378608               -1.26583451               10.63398274                0.38810079
               9.28897248                3.85321060               38.86501574                0.00010000                0.09841072               -0.10273131               -0.94154591               -1.30433470               10.11051778                1.64251426
              10.29105348                3.61145256               38.81654082                0.00010000                0.39827047               -0.18494175               -1.27199913               -1.17217140                9.80673488                2.81677258
              11.29693789                3.37263381               38.76450549                0.05364402                0.69702551               -0.52111393               -1.74709259               -0.51017140                6.18240166                4.08056585
              12.30499399                3.14211336               38.64064917                0.47159223                0.67871195                0.09174042               -1.52087179                0.00122804                1.38451487                2.81217560
              13.31051213                2.90965290               38.49186349                0.91368372                0.55181373                0.59354098               -1.72890943               -0.07686674                0.14010149                0.71686003
               3.53437513                6.29568651               39.31701480                1.00000000               -0.12016998               -0.25796680                0.58711164               -0.03581728                0.12303905                1.04634078
               4.53317343                6.06181389               39.16693677                0.58413461               -0.10004543               -0.05434729                0.29125396               -0.04442730                0.38522554               -0.67873631
               5.53237422                5.82688056               39.02208797                0.08457004               -0.10396491                0.13739688                0.02364370               -0.22705886                2.33955956               -2.27132549
               6.53109413                5.58853303               38.91104322                0.00010000               -0.41081464                0.10899877               -0.06736290               -1.04343323                9.76934852               -0.22440128
               7.52415793                5.34203248               38.91455874                0.00010000               -0.57050281                0.18322338               -0.37296895               -1.46800836               14.70431914                0.20410930
               8.51968407                5.09698043               38.89969360                0.00010000               -0.31076358                0.11530262               -0.71579184               -1.47469790               13.58081436                1.01485247
               9.51794266                4.85279178               38.87810955                0.00010000               -0.01211827                0.00087363               -1.05769923               -1.51420692               13.17331680                2.05029118
              10.51944171                4.60968360               38.85226381                0.00010000                0.40663502               -0.15363502               -1.46418945               -1.49199006               12.89485053                3.26730857
              11.52607536                4.36763293               38.82192178                0.05835136                0.73642778               -0.45188442               -2.06619878               -0.63988885                8.14082198                4.66434189
              12.53417026                4.14237479               38.69702414                0.41816889                0.66783264                0.04540296               -1.41913729                0.06617182                1.77989856                2.92018121
              13.53943201                3.91568106               38.53740647                0.88052657                0.52617441                0.58396153               -1.63399600               -0.04502970                0.06872169                0.88533324
               3.76684837                7.29341650               39.26425030                0.98747589               -0.07548691               -0.19201307                0.41937617               -0.03072302                0.04473464                0.86057693
               4.76609350                7.06159993               39.10524990                0.47869422               -0.05589772                0.00143715                0.12318759               -0.03665055                0.30622462               -0.80930267
               5.76573042                6.82875004               38.95143814                0.03189573               -0.26279487                0.21106774               -0.16426185               -0.38576556                5.20615369               -2.61447011
               6.76083760                6.58894560               38.89036188                0.00010000               -0.58515982                0.07658814                0.09291161               -1.25357184               13.16547941                1.48278878
               7.75402722                6.34410658               38.89497480                0.00010000               -0.60028022                0.24352305               -0.44748091               -1.54954172               16.45327372                0.88744598
               8.74883200                6.09861672               38.89676541                0.00010000               -0.40210261                0.21500958               -0.79794622               -1.66547710               16.29884951                1.42960377
               9.74598517                5.85322808               38.89538000                0.00010000               -0.12297364                0.08224017               -1.13742856               -1.76045838               16.22003709                2.36262715
              10.74637253                5.60837986               38.89251041                0.00010000                0.27318777               -0.09880481               -1.52630081               -1.88238927               16.28306867                3.61601179
              11.75144892                5.36359612               38.88888940                0.07582783                0.59483870               -0.32702087               -2.07454174               -0.92738953                9.76639668                5.36275620
              12.75826930                5.14302142               38.75053056                0.39275702                0.57750348                0.09929447               -1.30143656                0.07322282                1.59336858                2.50760792
              13.76299899                4.92133213               38.58091216                0.86578696                0.47296919                0.55313466               -1.54438442               -0.02620820                0.05871685                0.52716708
               3.99739381                8.29184625               39.21038021                0.98027345               -0.02869407               -0.12280297                0.25319975               -0.02798544                0.01323369                0.79186295
               4.99710687                8.06184263               39.04305969                0.44029860               -0.00402905                0.04359780               -0.04066816               -0.01773532                0.14997488               -0.82053247
               5.99731323                7.83110192               38.87840700                0.00729761               -0.32203568                0.23570651               -0.34225965               -0.50960502                7.99970150               -2.70967721
               6.99066616                7.59006479               38.86799110                0.00010000               -0.69086254                0.24843650               -0.23834400               -1.19351863               16.92815163                0.67851888
               7.98349598                7.34690294               38.87968507                0.00010000               -0.67065609                0.36798577               -0.57288566               -1.45474866               18.43830110                0.97612376
               8.97725304                7.10128062               38.89643981                0.00010000               -0.52628174                0.35827288               -0.89273618               -1.75257897               18.93359193                1.51695437
               9.97297035                6.85443659               38.91463631                0.00010000               -0.29135773                0.19532792               -1.18124881               -2.01443318               19.31165287                2.41255354
              10.97142588                6.60770750               38.93531233                0.00010000               -0.00421701               -0.03451917               -1.45871116               -2.25785990               19.91087085                3.64158516
              11.97288601                6.36109251               38.96137920                0.10563196                0.32364126               -0.13996831               -1.74203963               -1.22646281               11.09763228                5.35519689
              12.97789871                6.14436068               38.79991422                0.38198761                0.47002058                0.17588549               -1.23768185                0.06145068                0.91990743                2.05564177
              13.98228642                5.92674375               38.62034688                0.85752980                0.43877102                0.53824213               -1.52552094               -0.00766008                0.04392790                0.08017054
               4.22629589                9.29096044               39.15631761                0.97847056                0.01872325               -0.05571935                0.08842451               -0.02593388               -0.00074009                0.79611674
               5.22648312                9.06247188               38.98097236                0.45935752                0.05101321                0.08167767               -0.20264243               -0.00469551               -0.01005474               -0.78678277
               6.22731616                8.83346417               38.80534630                0.00010000               -0.26584546                0.22949398               -0.50890085               -0.49805733               10.05479161               -2.46308449
               7.22116621                8.59391433               38.83115831                0.00010000               -0.67998676                0.45649235               -0.53963082               -1.03397288               20.52907492               -0.19532750
               8.21371642                8.35146630               38.86185084                0.00010000               -0.74597210                0.53924063               -0.75743005               -1.26772980               21.10341041                0.64700617
               9.20624677                8.10578217               38.89510702                0.00010000               -0.72233995                0.56844972               -1.00610907               -1.65101364               21.67007705                1.25024855
              10.19926962                7.85713464               38.93265750                0.00010000               -0.58436860                0.47670126               -1.24236540               -2.14654531               22.40088697                2.07067235
              11.19455940                7.60768948               38.97587137                0.00010000               -0.45015629                0.14316351               -1.34628060               -2.64659346               23.43559524                3.27825026
              12.19026650                7.36079675               39.02930288                0.15099507               -0.03561600                0.06269608               -1.21955508               -1.51701926               12.34615626                4.36433981
              13.19384708                7.14653913               38.84494213                0.38321593                0.39065748                0.26067349               -1.22011528                0.01678041                0.25236531                1.60675073
              14.19807964                6.93209698               38.65537221                0.85280339                0.42325648                0.52990876               -1.56405510                0.00321156                0.02113499               -0.37430086
               4.45385225               10.29073186               39.10256575                0.96824939                0.06569777                0.00710212               -0.07711367               -0.02514187               -0.01653626                0.71233789
               5.45450922               10.06347619               38.91927493                0.50260202                0.10286927                0.11971500               -0.36039630               -0.00345337                0.03052707               -0.64509797
               6.45590963                9.83569180               38.73680052                0.00010000               -0.12623231                0.22801859               -0.65981475               -0.40864870               11.91988912               -1.59568065
               7.45198458                9.59919464               38.79111081                0.00010000               -0.48180443                0.49883211               -0.76202045               -0.67046663               23.71788162               -0.24459985
               8.44627354                9.35768775               38.84011084                0.00010000               -0.67100775                0.63854770               -0.93905017               -0.81275451               23.75346450                0.28601756
               9.43856442                9.11264961               38.88959879                0.00010000               -0.90707033                0.77067851               -1.14146931               -1.07857684               24.35094596                0.70077650
              10.42813214                8.86397061               38.94493922                0.00010000               -1.18662646                0.87626177               -1.34864053               -1.66617018               25.48806636                1.22501578
              11.41483189                8.61057077               39.01124680                0.00010000               -1.22180855                0.86022232               -1.56313285               -2.34192551               26.58273156                2.20512848
              12.40369597                8.36234644               39.08238858                0.22052862               -0.39489015                0.22164640               -0.87482868               -1.77099489               13.59110069                2.31843259
              13.40693409                8.14957415               38.88535327                0.39462689                0.37694942                0.33311728               -1.22558390               -0.02911574                0.08630948                1.03530459
              14.41123495                7.93734192               38.68567164                0.84259819                0.43008631                0.52158419               -1.64016820                0.00581951               -0.01620785               -0.61030754
               4.68030440               11.29110248               39.04680350                0.99160331                0.11497158                0.03706219               -0.23460860                0.02158554                0.38847571                0.61597265
               5.68145412               11.06486618               38.85984014                0.79956178                0.15601628                0.13899970               -0.51879504                0.04059250                0.79076248               -0.52242920
               6.68342473               10.83802455               38.68076309                0.47098054                0.21534070                0.23327486               -0.81163323               -0.29725087               13.79923556               -0.95658274
               7.68576093               10.60389098               38.75373246                0.34055326                0.02908143                0.46963365               -0.94612461               -0.31172958               26.25015122               -0.20649644
               8.68400636               10.36423725               38.81589492                0.33022352               -0.36842786                0.65495015               -1.11000617               -0.36148042               26.02420691                0.09433364
               9.67839237               10.12119574               38.87798068                0.34195489               -0.79906486                0.85461305               -1.30215530               -0.49607395               26.65044894                0.33736788
              10.66802506                9.87465987               38.94654880                0.37495185               -1.45236547                1.06892606               -1.50536953               -0.82579902               28.05661850                0.63561655
              11.64934506                9.62489392               39.03026756                0.52349231               -2.60909163                1.43231492               -1.86922732               -2.02019247               28.90065258                1.35956869
              12.61584323                9.36522968               39.10900561                0.64502484               -1.55378939                0.28832455               -0.96176790               -2.36989644               15.28653827                1.03760488
              13.61826928                9.15320148               38.91858261                0.71518277                0.34086260                0.36273301               -1.27548358               -0.00153252                1.21989732                0.70217687
              14.62266048                8.94252866               38.71555333                0.92112866                0.43912007                0.51867360               -1.71663721                0.07527076                0.61833292               -0.60094631
               2.45508925                1.37610953               40.56885574                1.00000000               -0.35947678               -0.39409797                1.35791045               -0.06545943               -1.06354207                1.04560659
               3.45149449                1.12628149               40.44660625                1.00000000               -0.30865386               -0.29338149                1.05044999               -0.03991732               -1.41485505                0.16084705
               4.44891618                0.87596719               40.31747676                1.00000000               -0.20212953               -0.19639566                0.71783056               -0.04519151               -1.41171658               -0.20753630
               5.44745190                0.62511563               40.19528681                0.64569977               -0.02298917               -0.11749589                0.39461459               -0.18040775               -0.71289927               -0.95296467
               6.44845639                0.37091061               40.08002672                0.68142477                0.22545649               -0.12917172               -0.03519110               -0.05321511               -0.28270925                0.26770089
               7.45196103                0.11443464               39.96669296                0.73448197                0.38368360                0.01664647               -0.33902253               -0.09125044               -0.21660081                0.13317661
               8.45613007               -0.14036461               39.85151670                0.72930889                0.44876973                0.09313943               -0.55034589               -0.05345081               -0.21041812               -0.08689374
               9.46093642               -0.39307037               39.73649921                0.83619108                0.43389264                0.15414403               -0.67046577               -0.07780706               -0.43471627                0.10997380
              10.46480792               -0.64379857               39.61493968                1.00000000                0.36177230                0.23846362               -0.84292429               -0.07002474               -0.88237826                0.65192599
              11.46817187               -0.89356378               39.49005838                1.00000000                0.35669586                0.32839776               -1.08012452               -0.04094225               -0.96421905                0.03739974
              12.47194184               -1.14334227               39.36657232                1.00000000                0.37699695                0.42196195               -1.35418017               -0.02181531               -0.88639811               -0.86223927
               2.70426269                2.37216855               40.51524772                1.00000000               -0.30962117               -0.38395479                1.20181099               -0.01343400               -0.19926993                1.42195393
               3.70116648                2.12334768               40.39291597                1.00000000               -0.26077501               -0.27171106                0.89760891                0.01104382               -0.28994087                0.23114031
               4.69904719                1.87400323               40.26887562                1.00000000               -0.14951856               -0.16826452                0.56532949               -0.01167090               -0.20831287               -0.43562249
               5.69817611                1.62394067               40.14807274                0.30717010                0.21087728               -0.08285121                0.24153908               -0.22936689                1.35964406               -1.28188413
               6.70326474                1.36961889               40.05504685                0.39818244                0.42550097               -0.11085797               -0.14453914               -0.03155453                2.36214923                0.82547088
               7.70668613                1.11460111               39.95137630                0.47344404                0.30416624                0.05164929               -0.42706420               -0.06126135                1.77817408                0.41004676
               8.70934806                0.86056679               39.84479603                0.41774698                0.25945997                0.15237787               -0.61983057               -0.04122879                1.87592978               -0.29604875
               9.71187533                0.60847107               39.74193672                0.52931636                0.25031564                0.20848258               -0.72625005               -0.06086292                1.90914328                0.48019439
              10.71435438                0.35858607               39.63540124                1.00000000                0.28294839                0.26055719               -0.90644808               -0.04338339                0.97699027                0.86399258
              11.71753430                0.10972020               39.51374400                1.00000000                0.35738999                0.33851915               -1.17177230                0.00317580                0.14151548                0.19191900
              12.72150218               -0.13912265               39.39051497                1.00000000                0.39678791                0.43780268               -1.44606529                0.02357666                0.06066431               -1.00495888
               2.95246231                3.36843043               40.46939589                1.00000000               -0.25816347               -0.36786904                1.06005688               -0.00772541                0.03093326                1.79583264
               3.94988068                3.12084727               40.34071581                1.00000000               -0.21862730               -0.23083258                0.75548181                0.00955820                0.20792982                0.23719508
               4.94808976                2.87260190               40.21565850                0.75563882               -0.13158869               -0.09849071                0.44418479               -0.03605373                0.56573931               -1.14315715
               5.94724890                2.62345861               40.09404503                0.01482710                0.45375531               -0.03351815                0.09700997               -0.32577895                4.18830045               -1.85761799
               6.95716487                2.36869345               40.04120016                0.00010000                0.62695008               -0.15075965               -0.35604923               -0.82363820                5.61009634               -0.99970464
               7.95978790                2.11546763               39.94134359                0.00010000                0.21353273               -0.04180010               -0.55921790               -0.79615302                2.96839677                0.00433197
               8.96143552                1.86268295               39.83365600                0.00010000                0.09559874                0.02228617               -0.73139436               -0.72000004                4.04955352                0.77293045
               9.96169988                1.61109928               39.75470252                0.00010000                0.06277989                0.03271453               -0.80773404               -0.49105096                4.67959372                1.24108752
              10.96269112                1.36141258               39.66004685                0.44668227                0.21221131                0.24774115               -0.98812096               -0.18896862                2.62004928                1.76448915
              11.96594410                1.11320660               39.54046920                1.00000000                0.37039740                0.34512366               -1.26196210               -0.04381290                0.89652884                0.81278688
              12.97009907                0.86541378               39.41159024                1.00000000                0.41549665                0.46998488               -1.52012385                0.01430075                0.42002144               -0.95307581
               3.19927450                4.36481116               40.42347955                1.00000000               -0.20883256               -0.35078890                0.91715351               -0.01655112                0.12664240                1.64526651
               4.19718617                4.11873103               40.28719531                1.00000000               -0.17798595               -0.18473067                0.61397311               -0.00072095                0.21997995                0.03716487
               5.19571478                3.87203342               40.15282205                0.40285258               -0.08085963               -0.02798949                0.32890244               -0.10296978                1.14762532               -1.62695409
               6.19556898                3.62327031               40.03500216                0.00010000               -0.04659134                0.04221558                0.00449772               -0.56114710                5.14599467               -2.51548669
               7.19478295                3.36660370               39.98031643                0.00010000                0.06022925               -0.06709028               -0.34411248               -1.45282397                8.04015867               -2.33373090
               8.19677357                3.11376510               39.91771724                0.00010000                0.22667259               -0.13137541               -0.63625366               -1.46315289                7.42501269               -0.27660573
               9.19931641                2.86101251               39.84777204                0.00010000                0.32755567               -0.16913355               -0.87520516               -1.43634634                7.02922403                1.74689337
              10.20332468                2.60912536               39.77508685                0.00010000                0.45756371               -0.20396749               -1.09119390               -0.92173348                6.77753231                2.05849674
              11.20846768                2.36354089               39.69860015                0.07180350                0.46660763               -0.17072709               -1.08771970               -0.36893188                4.34678907                2.90615796
              12.21265683                2.11662267               39.57667230                0.64030547                0.44530767                0.22602807               -1.39533094               -0.15176776                1.17108656                1.91813882
              13.21737383                1.87027705               39.43678614                1.00000000                0.47170009                0.50080606               -1.61890900               -0.05485545                0.25382170               -0.12247566
               3.44429156                5.36141465               40.37481734                1.00000000               -0.16475631               -0.31829693                0.76184532               -0.03308161                0.21879375                1.33679432
               4.44264400                5.11715266               40.23099982                0.76597384               -0.14002403               -0.11918013                0.46168577               -0.03106627                0.34596741               -0.34501373
               5.44149108                4.87204211               40.08974411                0.17714560               -0.05941602                0.05468441                0.17772037               -0.17011530                1.43058973               -1.85329085
               6.44145568                4.62430292               39.96753051                0.00010000               -0.19387437                0.13956747               -0.11940215               -0.81349263                7.11977791               -2.40571384
               7.43761360                4.36735164               39.93980713                0.00010000               -0.26698242                0.12211243               -0.39784488               -1.39382051               11.43211900               -0.72481022
               8.43611603                4.11284012               39.90145787                0.00010000               -0.01326284               -0.00970183               -0.71639428               -1.48043765               10.62689326                0.44223728
               9.43734834                3.85930028               39.85515520                0.00010000                0.23103957               -0.10991982               -1.03061670               -1.51424733               10.08407011                1.63583487
              10.44073682                3.60701993               39.80336376                0.00010000                0.52334170               -0.20378637               -1.35197102               -1.33841238                9.67621512                2.70868340
              11.44781517                3.35799804               39.74654623                0.04100757                0.77178857               -0.53430495               -1.82017011               -0.57685757                6.31532372                3.66822034
              12.45617260                3.11772717               39.62573743                0.43898992                0.69390201                0.02450902               -1.44839782                0.00049295                1.63369984                2.91268160
              13.46169321                2.87542990               39.47495183                0.89229170                0.55206184                0.50807978               -1.64293874               -0.06308092                0.13427324                0.85559057
               3.68713685                6.35844523               40.32291878                1.00000000               -0.11994636               -0.26498667                0.59573057               -0.03654171                0.11838185                1.03786939
               4.68593739                6.11634742               40.16978933                0.57189113               -0.09873201               -0.04671688                0.27949402               -0.04711464                0.39374904               -0.69705154
               5.68516221                5.87312711               40.02216615                0.07740195               -0.09738969                0.15853888               -0.00912906               -0.25387120                2.46128420               -2.30473220
               6.68398960                5.62606166               39.91031630                0.00010000               -0.33964348                0.08683597               -0.08125428               -1.16385765                9.86355601                0.00871784
               7.67836934                5.36904595               39.91052813                0.00010000               -0.43867094                0.19250249               -0.43862623               -1.66077169               14.67041730                0.29701681
               8.67521618                5.11357107               39.89208990                0.00010000               -0.17588493                0.12427466               -0.80714589               -1.66083332               13.53487196                1.07673580
               9.67485165                4.85881411               39.86695229                0.00010000                0.13212485                0.00229070               -1.17037267               -1.70549628               13.08470716                2.08297068
              10.67785868                4.60504963               39.83684543                0.00010000                0.56858247               -0.16447874               -1.60379935               -1.64599825               12.64653824                3.24916766
              11.68622330                4.35285479               39.80015787                0.04560082                0.86880745               -0.48411042               -2.23708227               -0.72483636                8.42645337                4.58659192
              12.69523482                4.11711285               39.68286747                0.39195356                0.72417224               -0.03221939               -1.39031475                0.03803399                2.25180273                3.09204385
              13.70070674                3.88043864               39.52124830                0.86350069                0.54719161                0.49707288               -1.58289842               -0.03493899                0.05469111                1.03611487
               3.92775634                7.35611492               40.26845090                0.98724522               -0.07365084               -0.19716864                0.42259988               -0.03130862                0.04202195                0.84842817
               4.92701983                7.11621832               40.10641022                0.46825524               -0.05284559                0.01036448                0.10799842               -0.03950970                0.30752531               -0.81962663
               5.92669942                6.87521289               39.94964974                0.02734230               -0.23800688                0.23543354               -0.19700584               -0.45183790                5.48816467               -2.64020643
               6.92225969                6.62603964               39.89114540                0.00010000               -0.49053345                0.06003808                0.05526625               -1.35565013               13.32347999                1.53072431
               7.91688876                6.37120169               39.89014260                0.00010000               -0.45642454                0.25086332               -0.52479455               -1.69350753               16.30639273                0.94282246
               8.91313120                6.11532561               39.88825792                0.00010000               -0.25644538                0.22807846               -0.90405191               -1.82108047               16.24936533                1.49381992
               9.91175985                5.85934609               39.88327751                0.00010000                0.03224894                0.09806241               -1.27963218               -1.91680672               16.13029922                2.44163882
              10.91377618                5.60373036               39.87618289                0.00010000                0.47476904               -0.08936737               -1.72877171               -2.02029133               16.03710756                3.74176791
              11.92125523                5.34831583               39.86632673                0.06190419                0.77866249               -0.38060832               -2.40750023               -1.00102041               10.15174246                5.64416548
              12.92934943                5.11708278               39.73731783                0.37059376                0.65438142                0.05081240               -1.32535042                0.04204134                2.16701053                2.66151899
              13.93434286                4.88537136               39.56542605                0.85124877                0.49934288                0.50112909               -1.54519910               -0.02134051                0.04803025                0.60425962
               4.16630388                8.35450185               40.21289618                0.98004757               -0.02546494               -0.12593196                0.25140595               -0.02863666                0.01197612                0.78046149
               5.16604923                8.11655471               40.04256096                0.43227871                0.00001306                0.05313681               -0.06024459               -0.01868538                0.14477877               -0.82691372
               6.16630414                7.87783578               39.87481984                0.00310500               -0.25807190                0.26146072               -0.37859426               -0.58855183                8.18440246               -2.72193415
               7.16088779                7.62726242               39.86517003                0.00010000               -0.55454587                0.25957951               -0.32543028               -1.31549619               17.11319740                0.51910326
               8.15521322                7.37406321               39.87352281                0.00010000               -0.51188104                0.36964583               -0.66310474               -1.58300891               18.42104580                0.98309086
               9.15065017                7.11813264               39.88689378                0.00010000               -0.35512275                0.36465100               -1.01674108               -1.86333483               18.92539605                1.57715382
              10.14811077                6.86077536               39.90196963                0.00010000               -0.10835278                0.21564361               -1.35139377               -2.10765845               19.29851897                2.52124345
              11.14848311                6.60326229               39.91948275                0.00010000                0.23698504               -0.01153394               -1.71011587               -2.36060579               19.83842190                3.88813085
              12.15285047                6.34524263               39.94186408                0.08984230                0.52685020               -0.18036772               -2.19600705               -1.27910863               11.50450863                5.97118598
              13.15902012                6.11812910               39.78719420                0.36234364                0.54261485                0.16182072               -1.30166647                0.04543777                1.39348579                2.16717207
              14.16370276                5.89046122               39.60486822                0.84457798                0.46826466                0.52241356               -1.57291423               -0.00471371                0.04092809                0.07800555
               4.40307788                9.35359628               40.15716075                0.97842296                0.02343115               -0.05625231                0.08107427               -0.02676039               -0.00170407                0.78397551
               5.40331220                9.11728106               39.97883342                0.45428425                0.05713980                0.09134372               -0.22622565               -0.00422299               -0.01844015               -0.78883449
               6.40422068                8.88044210               39.80007708                0.00010000               -0.17949314                0.25060709               -0.54860149               -0.58670022               10.17344738               -2.45825608
               7.39972233                8.63123123               39.82542303                0.00010000               -0.49311592                0.45146723               -0.61174856               -1.18540031               20.70153822               -0.28543235
               8.39435836                8.37859461               39.85374979                0.00010000               -0.52849894                0.51639447               -0.86403938               -1.38255774               21.17571343                0.63325464
               9.38915235                8.12261863               39.88434454                0.00010000               -0.49406666                0.55089698               -1.14684684               -1.71070208               21.73409917                1.30151945
              10.38447703                7.86365896               39.91931528                0.00010000               -0.35277790                0.47560162               -1.42669265               -2.16045244               22.52235048                2.17352882
              11.38209680                7.60349968               39.96120497                0.00010000               -0.18353933                0.16144113               -1.60307482               -2.67939983               23.71550003                3.43873794
              12.38080624                7.34470847               40.01562881                0.13343227                0.14713959                0.06188905               -1.57991228               -1.57523548               12.76140966                5.03239072
              13.38503959                7.12031919               39.83230392                0.36471639                0.43890478                0.27183788               -1.31180333                0.01330906                0.47193289                1.69447107
              14.38958434                6.89581963               39.63935619                0.84057117                0.45447497                0.54177403               -1.64921509                0.00505396                0.02471482               -0.42448319
               4.63839911               10.35337681               40.10172457                0.96429435                0.07198317                0.00949330               -0.08995247               -0.02624854               -0.01441289                0.70286788
               5.63911894               10.11838159               39.91553554                0.50034849                0.11104243                0.12957674               -0.38912044               -0.00334345                0.02492704               -0.64430718
               6.64061996                9.88284792               39.73000505                0.00010000               -0.00458342                0.24436843               -0.70360547               -0.52208457               12.00072224               -1.58111943
               7.63902728                9.63629177               39.78310977                0.00010000               -0.22226494                0.43892621               -0.84117489               -0.79884167               23.87090273               -0.28208222
               8.63617466                9.38439110               39.83015145                0.00010000               -0.38277524                0.58200027               -1.05413038               -0.88845799               23.87133179                0.28101370
               9.63137177                9.12915058               39.87741543                0.00010000               -0.60769965                0.72285947               -1.29626345               -1.09716059               24.46807901                0.73363818
              10.62402067                8.87028739               39.93050773                0.00010000               -0.87630820                0.83415187               -1.53766269               -1.63516500               25.62336000                1.29190067
              11.61384561                8.60649111               39.99469148                0.00010000               -0.97472133                0.84228174               -1.73149196               -2.32823317               27.19356793                2.17401391
              12.60452624                8.34648041               40.07290577                0.20186788               -0.28352345                0.25853205               -1.05915270               -1.84227832               14.17679320                2.65960675
              13.60817514                8.12356586               39.87263365                0.37685848                0.41383597                0.35829354               -1.32871917               -0.03482825                0.12290487                1.10183243
              14.61280296                7.90129670               39.66878129                0.83029374                0.46278242                0.55006277               -1.75130165                0.00564517               -0.01937261               -0.66943462
               4.87254335               11.35378614               40.04435772                0.99195362                0.12308612                0.04093376               -0.25393162                0.02306857                0.38279194                0.60996585
               5.87377421               11.11987259               39.85449061                0.79960717                0.16627291                0.14910042               -0.55331679                0.04269312                0.78108636               -0.52080653
               6.87586881               10.88532947               39.67242043                0.46945226                0.42140521                0.24815504               -0.86118850               -0.46825709               13.85956765               -0.94034238
               7.88220232               10.64000975               39.74385398                0.34062287                0.39307902                0.37179877               -1.03174139               -0.43723872               26.38993837               -0.22952758
               8.88373039               10.39023461               39.80418347                0.33034124               -0.04447338                0.58435127               -1.23313297               -0.39112384               26.15074982                0.08990769
               9.88131285               10.13707582               39.86414103                0.34173276               -0.46485982                0.79252454               -1.46648310               -0.50052281               26.77824730                0.35241633
              10.87443319                9.88034200               39.93052339                0.37401562               -1.09868665                1.00546083               -1.70009511               -0.79527297               28.14980836                0.66844242
              11.85933912                9.62034531               40.01074266                0.51560880               -2.37736341                1.38542041               -1.98316722               -1.97379348               29.60151478                1.24330846
              12.82688593                9.34987911               40.09869788                0.63520356               -1.49061951                0.33987052               -1.13036488               -2.40704426               16.08157348                1.15105103
              13.82952673                9.12748506               39.90538946                0.70638796                0.36748114                0.39192049               -1.37507119               -0.01775249                1.32717148                0.75642363
              14.83423555                8.90682089               39.69785471                0.91474188                0.47088222                0.55241839               -1.83784520                0.07684107                0.65188692               -0.64837121
               2.56809541                1.44103417               41.58262588                1.00000000               -0.36812443               -0.40744682                1.40328060               -0.06998239               -1.09267519                1.06285426
               3.56441417                1.18238729               41.45718025                1.00000000               -0.31330388               -0.29861503                1.06776150               -0.04210945               -1.46056571                0.16964921
               4.56182934                0.92325393               41.32459286                1.00000000               -0.20042013               -0.19312055                0.70428141               -0.04581596               -1.46935427               -0.21015372
               5.56040577                0.66349583               41.19902788                0.65194935               -0.03042568               -0.10135509                0.34778054               -0.23761782               -0.82874011               -0.96849147
               6.56122082                0.39907289               41.07922049                0.68602792                0.24809757               -0.12428208               -0.13309084               -0.05893558               -0.40448386                0.25828674
               7.56536772                0.13142898               40.96271812                0.73623197                0.46481349                0.03314828               -0.46682372               -0.10138083               -0.21520260                0.11261052
               8.57051709               -0.13426927               40.84545743                0.72874284                0.55097329                0.10836823               -0.67501878               -0.05350927               -0.08662891               -0.11237092
               9.57638718               -0.39715870               40.72945820                0.83294052                0.51255493                0.15960899               -0.74706176               -0.08296647               -0.26123253                0.09947502
              10.58076819               -0.65737236               40.60633396                1.00000000                0.39485377                0.24157290               -0.88065847               -0.07163853               -0.76366461                0.66164709
              11.58428426               -0.91636533               40.47913442                1.00000000                0.36846414                0.33071469               -1.10565333               -0.04019818               -0.90214409                0.04619695
              12.58813747               -1.17524634               40.35293123                1.00000000                0.38532144                0.42225295               -1.37455432               -0.02623711               -0.84396084               -0.82207865
               2.82604247                2.43695971               41.52742781                1.00000000               -0.31592724               -0.39676973                1.24076679               -0.01404648               -0.21428127                1.44232437
               3.82288320                2.17940114               41.40193375                1.00000000               -0.26127828               -0.27590904                0.90827195                0.01222223               -0.32220330                0.24361472
               4.82081691                1.92132272               41.27443471                1.00000000               -0.13815468               -0.16442391                0.54769441               -0.01030765               -0.24908370               -0.42296136
               5.82012010                1.66248228               41.15030284                0.31882187                0.29239945               -0.06505305                0.20310876               -0.30392209                1.28960905               -1.29223815
               6.82666489                1.39783007               41.05320739                0.40613939                0.54524422               -0.12306745               -0.23361335               -0.04428029                2.30680635                0.76990989
               7.83102499                1.13176046               40.94661085                0.48072684                0.38054711                0.06774010               -0.54068793               -0.08266111                1.82915626                0.37166304
               8.83427584                0.86681441               40.83815179                0.42976573                0.30420379                0.17759196               -0.72582154               -0.05442772                2.03421769               -0.34162025
               9.83710907                0.60443739               40.73447927                0.53634057                0.26896418                0.22075404               -0.77509501               -0.07332807                2.07807690                0.45634597
              10.83965512                0.34504337               40.62633777                1.00000000                0.28551008                0.25968950               -0.90443756               -0.04746892                1.05113599                0.86437090
              11.84281927                0.08694182               40.50205465                1.00000000                0.35504973                0.33639103               -1.16344671                0.00344287                0.15769116                0.20105617
              12.84675611               -0.17102381               40.37610473                1.00000000                0.39368481                0.43193641               -1.43284217                0.01862181                0.07011819               -0.95579555
               3.08293161                3.43309878               41.48013358                1.00000000               -0.26360118               -0.37957747                1.09293479               -0.00837980                0.02404709                1.81924626
               4.08029560                3.17686911               41.34828819                1.00000000               -0.21947844               -0.23260556                0.76054958                0.00988635                0.19345268                0.25356834
               5.07854204                2.91996545               41.21995434                0.77137973               -0.12378128               -0.09201480                0.41384451               -0.03495885                0.52936323               -1.10884250
               6.07781997                2.66219477               41.09473835                0.01643165                0.62574984               -0.01701210                0.03741855               -0.43396901                4.08260823               -1.83279255
               7.09105704                2.39661154               41.03720162                0.00010000                0.84550895               -0.16044686               -0.45814171               -1.03531410                5.56751554               -0.99127764
               8.09473015                2.13278378               40.93524830                0.00010000                0.28472833               -0.01141647               -0.68207970               -0.97700294                3.08344001               -0.01603446
               9.09675161                1.86928257               40.82585479                0.00010000                0.09807578                0.07353296               -0.85501857               -0.87085594                4.25128939                0.70814920
              10.09669167                1.60725638               40.74647749                0.00010000                0.02813900                0.07268676               -0.85318171               -0.57696656                4.86569087                1.10733728
              11.09731439                1.34782143               40.65033247                0.43377547                0.18643134                0.23178116               -0.94819706               -0.21295501                2.66734382                1.74395073
              12.10042030                1.09036249               40.52803008                1.00000000                0.35633922                0.33463517               -1.21987243               -0.04238848                0.88573689                0.79821796
              13.10444117                0.83339239               40.39660230                1.00000000                0.40208746                0.45114712               -1.47109060                0.01004347                0.41392860               -0.90959272
               3.33833421                4.42936816               41.43276225                1.00000000               -0.21199531               -0.36131427                0.94363034               -0.01697326                0.12669841                1.65904618
               4.33621426                4.17474903               41.29332330                1.00000000               -0.17710717               -0.18382685                0.61227290               -0.00063265                0.22800162                0.04820950
               5.33479207                3.91948242               41.15599068                0.40020391               -0.07098140               -0.01866297                0.30095172               -0.10385958                1.14467398               -1.60558587
               6.33479463                3.66214204               41.03478211                0.00010000                0.02887691                0.05712210               -0.05526900               -0.67452685                5.11134488               -2.47058090
               7.33536961                3.39462113               40.97648797                0.00010000                0.20096365               -0.04386703               -0.43300843               -1.75585730                8.02946084               -2.21606009
               8.33881390                3.13153213               40.91090081                0.00010000                0.35082543               -0.10005161               -0.74063625               -1.73955804                7.47149491               -0.23425063
               9.34238611                2.86828507               40.83861459                0.00010000                0.41084867               -0.12677625               -0.96851513               -1.68223108                7.11191351                1.70756917
              10.34703088                2.60589113               40.76394874                0.00010000                0.49518983               -0.16943670               -1.14061149               -1.10554965                6.97880003                1.87320818
              11.35228991                2.34967899               40.68804036                0.05706918                0.46848311               -0.16904664               -1.01620540               -0.43501473                4.44657154                2.51609713
              12.35640054                2.09363452               40.56305157                0.59874032                0.43036418                0.19046678               -1.32056729               -0.14188851                1.12765257                1.91418215
              13.36089719                1.83799913               40.42095838                1.00000000                0.44966561                0.44550839               -1.53720420               -0.04715792                0.24746988               -0.05938986
               3.59183040                5.42587249               41.38251730                1.00000000               -0.16617183               -0.32789112                0.78151754               -0.03461976                0.22712519                1.33746591
               4.59016868                5.17319258               41.23558583                0.75360719               -0.13792781               -0.11432884                0.45487213               -0.03467655                0.36109714               -0.35390015
               5.58907184                4.91959219               41.09137592                0.16991200               -0.04889758                0.06989324                0.14343073               -0.17872444                1.44833039               -1.86827631
               6.58919073                4.66333722               40.96606907                0.00010000               -0.12610189                0.14752286               -0.17927272               -0.93246730                7.14372223               -2.28276615
               7.58654980                4.39573420               40.93548142                0.00010000               -0.14578372                0.15081000               -0.47535949               -1.60657011               11.45275544               -0.61951101
               8.58627505                4.13078275               40.89385609                0.00010000                0.10990922                0.00914818               -0.81109084               -1.69218514               10.63012428                0.50199038
               9.58874799                3.86674705               40.84440340                0.00010000                0.34558524               -0.09780909               -1.12200046               -1.72099706               10.08291116                1.62068262
              10.59318676                3.60386765               40.78950140                0.00010000                0.60613541               -0.20216522               -1.41084024               -1.50852625                9.57558999                2.56009220
              11.60087070                3.34444050               40.72810208                0.02874808                0.80378136               -0.50473600               -1.84455618               -0.67016748                6.52821245                3.14527561
              12.60926238                3.09417183               40.61168122                0.40645702                0.69490490               -0.04996279               -1.35252985               -0.02112965                1.94420393                2.97912276
              13.61476879                2.84230256               40.45900472                0.86984587                0.55064091                0.39650018               -1.53634641               -0.04357838                0.12931092                0.96645626
               3.84300165                6.42281033               41.32892942                1.00000000               -0.12006217               -0.27324207                0.60882016               -0.03779953                0.11349630                1.02862603
               4.84180103                6.17246245               41.17252665                0.55898009               -0.09643579               -0.03784035                0.26744709               -0.05267794                0.40188657               -0.71459706
               5.84107294                5.92088029               41.02190539                0.06935738               -0.08988816                0.18500190               -0.04551516               -0.28416303                2.60237069               -2.33506345
               6.84000327                5.66509250               40.90941813                0.00010000               -0.26401339                0.06845722               -0.10206882               -1.28096686                9.96721972                0.25279871
               7.83579267                5.39763733               40.90578622                0.00010000               -0.30229567                0.21170746               -0.51574571               -1.84423277               14.62486002                0.39253338
               8.83395736                5.13171509               40.88355068                0.00010000               -0.04556998                0.14532445               -0.90318150               -1.84495459               13.49533464                1.14046010
               9.83488127                4.86632889               40.85470210                0.00010000                0.26047722                0.01482355               -1.27552803               -1.89745397               13.00546440                2.10226595
              10.83916690                4.60184782               40.82018782                0.00010000                0.68505555               -0.16448761               -1.70820941               -1.79329594               12.41203917                3.17783032
              11.84858238                4.33958427               40.77718014                0.03317190                0.94744925               -0.48336421               -2.30263200               -0.83672062                8.80642289                4.37412816
              12.85811589                4.09263527               40.66921784                0.36546240                0.75908952               -0.11233820               -1.32602446               -0.02036646                2.80279442                3.19669763
              13.86376417                3.84592914               40.50574850                0.84572184                0.56482868                0.37474241               -1.50846089               -0.02189499                0.04436904                1.12247873
               4.09177017                7.42040765               41.27270230                0.98714458               -0.07250016               -0.20323553                0.42966568               -0.03208181                0.03922967                0.83581292
               5.09104517                7.17243577               41.10740987                0.45709238               -0.05058152                0.02093552                0.09085183               -0.04188355                0.30913863               -0.82855310
               6.09075854                6.92329223               40.94749802                0.02186465               -0.21154100                0.26778076               -0.23794956               -0.52050689                5.77629988               -2.66119843
               7.08681435                6.66470636               40.89146721                0.00010000               -0.38579926                0.05383644               -0.01381117               -1.45500044               13.50087544                1.55636398
               8.08304255                6.39996835               40.88447891                0.00010000               -0.30649709                0.26601148               -0.60790484               -1.83083238               16.15885107                0.99767880
               9.08068440                6.13368924               40.87868438                0.00010000               -0.11881857                0.25109903               -1.01031132               -1.97840250               16.20052985                1.55341714
              10.08066618                5.86704352               40.86978735                0.00010000                0.16905278                0.12473955               -1.41164504               -2.08204278               16.02956854                2.50045774
              11.08406546                5.60057790               40.85793497                0.00010000                0.63413300               -0.06998904               -1.90059169               -2.15686700               15.74310503                3.81164152
              12.09334884                5.33477321               40.84073939                0.04811390                0.92223662               -0.41850607               -2.64623201               -1.09852467               10.64342052                5.74878533
              13.10251019                5.09192506               40.72402355                0.34824257                0.71971587                0.00413779               -1.32321953               -0.01637053                2.88116399                2.75092026
              14.10774316                4.84979740               40.55000817                0.83647611                0.52329658                0.42222931               -1.53723626               -0.01312741                0.03961318                0.61030827
               4.33830379                8.41874562               41.21540832                0.97988792               -0.02250001               -0.12980467                0.25263951               -0.02913000                0.01056279                0.76854401
               5.33807879                8.17288117               41.04185479                0.42357124                0.00442104                0.06424223               -0.08244070               -0.01784432                0.14009569               -0.83153712
               6.33839221                7.92623590               40.87083512                0.00010000               -0.19258264                0.29108109               -0.42249320               -0.66374916                8.35671191               -2.72950909
               7.33422714                7.66616923               40.86148249                0.00010000               -0.40995316                0.27797954               -0.40840079               -1.42842129               17.28806024                0.35330645
               8.33019315                7.40295756               40.86642297                0.00010000               -0.34564974                0.37671988               -0.76012090               -1.70827643               18.40967713                0.98727309
               9.32731414                7.13673708               40.87610499                0.00010000               -0.19206956                0.38008402               -1.13845835               -1.97275072               18.90627302                1.62616325
              10.32635175                6.86882368               40.88760843                0.00010000                0.04928623                0.25117974               -1.51471823               -2.20495061               19.24967729                2.60892734
              11.32829987                6.60044804               40.90111001                0.00010000                0.44564835                0.03388031               -1.95573841               -2.45595616               19.63649107                4.09412381
              12.33526472                6.33121415               40.91745906                0.07386790                0.72322088               -0.21851657               -2.68062867               -1.33415604               12.01570998                6.54489109
              13.34276428                6.09271802               40.77388090                0.34283773                0.62461119                0.15320191               -1.35831700                0.01038715                2.07774536                2.23348080
              14.34775695                5.85437372               40.58888859                0.83185444                0.49926623                0.49484217               -1.63159814                0.00188260                0.03953090                0.01512593
               4.58291648                9.41781156               41.15793910                0.97618721                0.02815135               -0.05766895                0.07561140               -0.02718104               -0.00149413                0.77150821
               5.58319800                9.17372061               40.97644785                0.44838427                0.06395030                0.10258417               -0.25257086               -0.00246044               -0.02579358               -0.78951911
               6.58419549                8.92911385               40.79437427                0.00010000               -0.08368690                0.27450728               -0.59667558               -0.67485113               10.28627803               -2.44991722
               7.58152426                8.67026595               40.81892334                0.00010000               -0.29431583                0.44764073               -0.69269153               -1.32910031               20.86466382               -0.36578945
               8.57830917                8.40750275               40.84457005                0.00010000               -0.30804950                0.49583909               -0.97062691               -1.48868298               21.23619839                0.61380823
               9.57536327                8.14129092               40.87217008                0.00010000               -0.27264869                0.53944058               -1.28481608               -1.75900257               21.77704376                1.33839154
              10.57285620                7.87206711               40.90412365                0.00010000               -0.14037008                0.48884159               -1.60873299               -2.15319429               22.59081059                2.26035978
              11.57255587                7.60125550               40.94380987                0.00010000                0.07697691                0.20326593               -1.88466624               -2.68294421               23.88039955                3.64174555
              12.57439574                7.33040288               40.99770463                0.11475734                0.35012470                0.06276762               -2.08513387               -1.61207329               13.25628265                5.85796270
              13.57955836                7.09498910               40.81870606                0.34672708                0.50368365                0.29036155               -1.41231852                0.00218773                0.85695851                1.75832163
              14.58446941                6.85969425               40.62238791                0.82888159                0.49110491                0.55404915               -1.75990758                0.01027896                0.03120314               -0.51998374
               4.82594206               10.41759225               41.10076670                0.95999015                0.07852293                0.01119680               -0.10050879               -0.02704034               -0.01260673                0.69262869
               5.82672729               10.17493285               40.91149252                0.49733206                0.12038936                0.14096479               -0.42227440               -0.00255295                0.01973128               -0.64300973
               6.82834985                9.93172605               40.72272841                0.00010000                0.12644686                0.26365386               -0.75665406               -0.63767949               12.07483214               -1.56442454
               7.82925623                9.67512204               40.77428731                0.00010000                0.05223353                0.37730214               -0.92505972               -0.92896516               24.00903851               -0.31787007
               8.82939452                9.41287435               40.81902823                0.00010000               -0.08432507                0.52343087               -1.16865922               -0.95855147               23.96778266                0.27288182
               9.82756973                9.14752589               40.86367352                0.00010000               -0.30356187                0.67509695               -1.44830282               -1.10098496               24.55285328                0.75505167
              10.82332328                8.87860051               40.91418597                0.00010000               -0.56322573                0.79651439               -1.72577293               -1.57245657               25.74359573                1.34846313
              11.81630521                8.60451336               40.97661696                0.00010000               -0.70168127                0.82011111               -1.90397672               -2.27430062               27.75830447                2.24474197
              12.80928966                8.33246950               41.06120553                0.18042954               -0.13942706                0.31317995               -1.34284508               -1.87779751               14.78320868                3.13977700
              13.81351667                8.09852525               40.85877888                0.35978296                0.46312894                0.39146138               -1.45373408               -0.04586440                0.22023532                1.16609929
              14.81855224                7.86545470               40.65064561                0.81871664                0.50355643                0.58600668               -1.89479680                0.00786007               -0.01917927               -0.75542710
               5.06769447               11.41803550               41.04172486                0.99215240                0.13186626                0.04432506               -0.27223466                0.02568222                0.37634939                0.60245442
               6.06901313               11.17653991               40.84877381                0.79951442                0.17791179                0.16070600               -0.59302198                0.04615578                0.77126748               -0.51871154
               7.07125271               10.93438693               40.66353932                0.46771898                0.63917638                0.26608752               -0.92061304               -0.64610994               13.91248211               -0.92200826
               8.08179666               10.67781199               40.73309763                0.34067064                0.77407962                0.26899510               -1.11997443               -0.56673463               26.51319106               -0.25140051
               9.08673430               10.41797137               40.79123226                0.33047078                0.29103701                0.50970210               -1.35448885               -0.41697883               26.25162483                0.08352989
              10.08761740               10.15479286               40.84865101                0.34150016               -0.11573525                0.72669690               -1.62710270               -0.49393087               26.86715130                0.36286899
              11.08441959                9.88799740               40.91254689                0.37304393               -0.72082668                0.93968852               -1.89454352               -0.74712524               28.25823237                0.70349589
              12.07320087                9.61765773               40.99060422                0.50562397               -2.07958496                1.31443649               -2.05938511               -1.87698042               30.24503195                1.23551124
              13.04282790                9.33666648               41.08639832                0.62352614               -1.37724981                0.41969774               -1.37762316               -2.38814590               16.87840012                1.32574112
              14.04565587                9.10281833               40.89108119                0.69806213                0.39699080                0.42930765               -1.50144369               -0.04868485                1.49011966                0.81957765
              15.05076771                8.87141438               40.67879643                0.90869950                0.51118395                0.59596764               -1.99476280                0.08115267                0.68740227               -0.71090818
               2.68412701                1.50776276               42.59692136                1.00000000               -0.38108160               -0.42554285                1.46461489               -0.07571170               -1.12462563                1.08156527
               3.68031620                1.24016748               42.46796148                1.00000000               -0.32227731               -0.30554455                1.09266198               -0.04418681               -1.51227317                0.17733635
               4.67768147                0.97208041               42.33156238                1.00000000               -0.20333708               -0.18978872                0.69051982               -0.04708512               -1.53831967               -0.21187675
               5.67624946                0.70319587               42.20224242                0.65937563               -0.05024967               -0.08104254                0.29275590               -0.30427718               -0.96706704               -0.97596059
               6.67667647                0.42810255               42.07736490                0.69323673                0.25852927               -0.10665894               -0.24190062               -0.07308585               -0.55511982                0.24515151
               7.68142004                0.14890138               41.95735649                0.74168702                0.54904630                0.06028037               -0.61363041               -0.11468378               -0.22785481                0.08680831
               8.68765740               -0.12800075               41.83801632                0.73135816                0.67075967                0.13377677               -0.82689847               -0.05055930                0.05866253               -0.15059803
               9.69483524               -0.40112300               41.72155797                0.82937881                0.61005035                0.17017013               -0.84343211               -0.08705873               -0.04297716                0.07775169
              10.69985841               -0.67057323               41.59732651                1.00000000                0.43482418                0.24482171               -0.92126571               -0.07353477               -0.61645207                0.67637055
              11.70353172               -0.93848030               41.46794532                1.00000000                0.38053019                0.33259676               -1.13255166               -0.03893648               -0.83258577                0.05567461
              12.70746901               -1.20613084               41.33908123                1.00000000                0.39372926                0.42212082               -1.39640823               -0.03151620               -0.79822758               -0.77895753
               2.95096518                2.50350734               42.54006306                1.00000000               -0.32496717               -0.41409247                1.29395054               -0.01417901               -0.23121242                1.46323610
               3.94771551                2.23711204               42.41108141                1.00000000               -0.26343783               -0.28191938                0.92451090                0.01439746               -0.35568133                0.25584637
               4.94569642                1.97018252               42.27982951                1.00000000               -0.12599483               -0.16056644                0.53001949               -0.00905954               -0.28736300               -0.41590899
               5.94519561                1.70238544               42.15213491                0.33351570                0.36982165               -0.04361869                0.15496483               -0.38711126                1.20804857               -1.31341336
               6.95309286                1.42703596               42.05037458                0.41814070                0.65646214               -0.12576198               -0.34401404               -0.07762496                2.22660840                0.70346692
               7.95832486                1.14950419               41.94056254                0.49341927                0.45355708                0.09777981               -0.68606372               -0.11577273                1.88012213                0.31747588
               8.96216400                0.87333702               41.83027960                0.44703938                0.34630170                0.21919424               -0.87035360               -0.06753841                2.23525163               -0.41716980
               9.96525089                0.60057870               41.72643482                0.54375887                0.28188560                0.24497775               -0.84683126               -0.08806243                2.31298190                0.40848597
              10.96780171                0.33187498               41.61731249                1.00000000                0.28351348                0.25811192               -0.89732287               -0.05530158                1.15716659                0.86826321
              11.97092116                0.06484567               41.49047507                1.00000000                0.35013410                0.33271770               -1.14924698                0.00363353                0.17554582                0.21062412
              12.97480439               -0.20190964               41.36185812                1.00000000                0.38832339                0.42495578               -1.41379261                0.01267914                0.07995732               -0.90220733
               3.21663404                3.49948091               42.49125458                1.00000000               -0.27050710               -0.39494820                1.13734142               -0.00912270                0.01692086                1.84195757
               4.21392896                3.23452909               42.35592681                1.00000000               -0.22035817               -0.23572305                0.76862518                0.00952111                0.17603757                0.26952594
               5.21222687                2.96886908               42.22393539                0.78630984               -0.11375876               -0.08411970                0.38168081               -0.03762890                0.49130769               -1.07877927
               6.21165379                2.70232349               42.09479340                0.01892864                0.78891784                0.00712624               -0.02958565               -0.55893947                3.96975639               -1.82699205
               7.22800523                2.42558731               42.03203733                0.00010000                1.05748719               -0.15166314               -0.59147338               -1.26529496                5.50508090               -0.98315323
               8.23280353                2.15085698               41.92770199                0.00010000                0.36134442                0.04840578               -0.85526798               -1.17260917                3.20028192               -0.03874879
               9.23523212                1.87638313               41.81655563                0.00010000                0.08662436                0.16391340               -1.04061818               -1.03688387                4.51419820                0.63499316
              10.23453602                1.60377656               41.73763889                0.00126243               -0.03733527                0.14934560               -0.94142730               -0.67850514                5.16069860                0.94995020
              11.23448541                1.33458900               41.64108291                0.41769691                0.14264941                0.21091188               -0.89384979               -0.25539628                2.76245189                1.72088927
              12.23738901                1.06817405               41.51607175                1.00000000                0.33738939                0.32047565               -1.16543691               -0.04250178                0.87136920                0.78307349
              13.24123320                0.80236827               41.38216843                1.00000000                0.38441914                0.42982336               -1.40972914                0.00468185                0.40685397               -0.86161713
               3.48068637                4.49560837               42.44235216                1.00000000               -0.21686019               -0.37420575                0.97891229               -0.01793149                0.12621184                1.67108167
               4.47851777                4.23239757               42.29944077                1.00000000               -0.17684617               -0.18288955                0.61175949               -0.00149460                0.23611979                0.05857868
               5.47714945                3.96850012               42.15884109                0.39588871               -0.06095896               -0.00536010                0.26391706               -0.10610153                1.14029566               -1.58212814
               6.47729859                3.70252796               42.03389678                0.00010000                0.10520115                0.08440396               -0.13122064               -0.79632931                5.07442350               -2.42703166
               7.47925347                3.42400270               41.97165626                0.00010000                0.33891303                0.00379351               -0.54640576               -2.05895998                8.02005359               -2.07579739
               8.48407685                3.15047230               41.90290451                0.00010000                0.46266373               -0.03134608               -0.87609198               -2.01972058                7.53712684               -0.16677715
               9.48850674                2.87661528               41.82840173                0.00010000                0.46990328               -0.03783562               -1.09235583               -1.93887802                7.24133223                1.69559120
              10.49347492                2.60356561               41.75227462                0.00010000                0.48947716               -0.08969277               -1.20395955               -1.32540707                7.27859102                1.68534415
              11.49829629                2.33609322               41.67827604                0.04217931                0.44084700               -0.14126192               -0.92814271               -0.52981178                4.60242062                2.06071476
              12.50229186                2.07125518               41.55026096                0.55402158                0.41066525                0.14846471               -1.22900646               -0.13206794                1.07843841                1.90323452
              13.50650959                1.80668683               41.40604206                0.99859593                0.42177375                0.38003221               -1.43664297               -0.03687352                0.23731215                0.00191862
               3.74269700                5.49199680               42.39044769                1.00000000               -0.16896818               -0.33878130                0.80798237               -0.03625255                0.23478693                1.33602261
               4.74100732                5.23087130               42.24009726                0.74119683               -0.13612753               -0.10830651                0.44694620               -0.03767741                0.37469650               -0.36168391
               5.73997445                4.96876188               42.09261273                0.16122907               -0.03913451                0.09018059                0.09989271               -0.18455180                1.46583118               -1.87801648
               6.74022463                4.70401157               41.96394505                0.00010000               -0.05463794                0.15957670               -0.25584040               -1.04720575                7.17261573               -2.13163478
               7.73888169                4.42566318               41.93029994                0.00010000               -0.02140466                0.19482104               -0.57103564               -1.81504914               11.48536377               -0.49444418
               8.73979654                4.15023006               41.88523606                0.00010000                0.22397767                0.05398385               -0.92233041               -1.89533122               10.65553083                0.58451856
               9.74336125                3.87562642               41.83271520                0.00010000                0.43767032               -0.05699009               -1.22110846               -1.92151538               10.12915908                1.61889987
              10.74854994                3.60198270               41.77514696                0.00010000                0.64191829               -0.16964712               -1.45468862               -1.68580753                9.53866052                2.39582191
              11.75619961                3.33176376               41.70965511                0.01684275                0.78020480               -0.41965852               -1.81697795               -0.79069548                6.83100257                2.55453437
              12.76415404                3.07114335               41.59868683                0.37328720                0.67164074               -0.12753546               -1.23711744               -0.06821762                2.30162224                3.00989634
              13.76963243                2.80996892               41.44422490                0.84598921                0.54783874                0.25989654               -1.41086251               -0.01628262                0.12371819                1.03891819
               4.00221232                6.48883275               42.33509518                1.00000000               -0.12131704               -0.28222662                0.62704447               -0.03869089                0.10838793                1.01814459
               5.00099915                6.23023144               42.17513827                0.54498468               -0.09470867               -0.02760944                0.25377977               -0.05647273                0.41039233               -0.73017105
               6.00031814                5.97030374               42.02125585                0.06270065               -0.07729883                0.21486587               -0.08950379               -0.31591558                2.76493387               -2.35802489
               6.99945317                5.70571950               41.90827492                0.00010000               -0.17920708                0.05454954               -0.13292500               -1.36664683               10.08128944                0.48974747
               7.99673400                5.42789912               41.90021322                0.00010000               -0.16230911                0.24276646               -0.60709490               -2.01003021               14.57603984                0.50521720
               8.99620699                5.15155198               41.87402627                0.00010000                0.07948970                0.18047935               -1.00486827               -2.01934079               13.47957292                1.22000203
               9.99832379                4.87547548               41.84144173                0.00010000                0.37072170                0.04112474               -1.37331628               -2.08199660               12.96504145                2.12344181
              11.00362142                4.60017267               41.80268124                0.00010000                0.74989685               -0.14708525               -1.77399826               -1.93195679               12.25025400                3.06589298
              12.01332173                4.32770005               41.75410523                0.02121934                0.95504663               -0.43755754               -2.26123429               -0.98163762                9.28801002                4.05731366
              13.02272235                4.06870447               41.65634698                0.33861733                0.76055362               -0.18526091               -1.24169020               -0.11327007                3.39534751                3.23145544
              14.02853280                3.81188476               41.49107908                0.82712885                0.58104511                0.22342587               -1.42420957               -0.00529837                0.03575906                1.12346962
               4.25912579                7.48635227               42.27704421                0.98719085               -0.07189132               -0.20984063                0.44085784               -0.03282148                0.03607615                0.82316400
               5.25840687                7.23031911               42.10822726                0.44482469               -0.04788518                0.03272727                0.07136284               -0.04339365                0.31042440               -0.83580556
               6.25816808                6.97305919               41.94489075                0.01528093               -0.15552822                0.30328057               -0.28768748               -0.58620070                6.05590188               -2.67977527
               7.25529631                6.70510256               41.89086917                0.00010000               -0.26597383                0.05764607               -0.11444417               -1.54663555               13.68262209                1.56740323
               8.25284861                6.43051851               41.87798451                0.00010000               -0.17314761                0.29092069               -0.69454540               -1.96063260               16.03650651                1.05830374
               9.25183336                6.15383964               41.86805169                0.00010000                0.01260070                0.28091086               -1.11563374               -2.13432055               16.17029700                1.62038549
              10.25310062                5.87644891               41.85504461                0.00010000                0.29264407                0.15710632               -1.52878889               -2.25115774               15.95150359                2.54926441
              11.25768624                5.59904100               41.83817106                0.00010000                0.74672195               -0.04514030               -2.02604333               -2.28477065               15.47362795                3.82228432
              12.26803506                5.32301261               41.81340209                0.03479559                1.00088429               -0.42624198               -2.73765376               -1.22654078               11.25518853                5.61612282
              13.27770392                5.06743813               41.71085344                0.32592588                0.75654073               -0.02941313               -1.30750309               -0.10760222                3.69267271                2.76421531
              14.28316587                4.81443743               41.53468132                0.82152249                0.54619501                0.32496237               -1.53598165               -0.00281052                0.03484218                0.52015471
               4.51362219                8.48463593               42.21794897                0.97980886               -0.01978477               -0.13421016                0.25726003               -0.02975895                0.00877080                0.75636518
               5.51342435                8.23088599               42.04091214                0.41376938                0.00942424                0.07669159               -0.10767794               -0.01561553                0.13608761               -0.83400479
               6.51381068                7.97636935               41.86636998                0.00010000               -0.11816036                0.32456391               -0.47581633               -0.73554492                8.52793017               -2.73413652
               7.51106114                7.70687242               41.85700201                0.00010000               -0.25132070                0.30040288               -0.49515831               -1.55641486               17.47812399                0.20090239
               8.50878427                7.43371753               41.85832039                0.00010000               -0.17354846                0.38735033               -0.86055643               -1.83576233               18.41707965                0.99295928
               9.50759017                7.15717020               41.86412461                0.00010000               -0.03424881                0.39891438               -1.25410888               -2.08968255               18.90154516                1.67325801
              10.50809929                6.87861761               41.87167526                0.00010000                0.18860687                0.29198536               -1.66212306               -2.31737512               19.19468533                2.67945589
              11.51136231                6.59926987               41.88036798                0.00010000                0.61472466                0.08933246               -2.17315779               -2.55024154               19.33986804                4.23801482
              12.52039378                6.31917521               41.88825151                0.05811125                0.88915911               -0.24456775               -3.09276545               -1.40765071               12.66731258                6.92618437
              13.52914549                6.06811621               41.76002786                0.32382177                0.70421016                0.15747549               -1.41355681               -0.04998219                2.98383619                2.24053750
              14.53447799                5.81838401               41.57223626                0.81945676                0.53324956                0.46127544               -1.71494587                0.01072183                0.04168099               -0.12601435
               4.76603050                9.48366806               42.15867298                0.97117189                0.03306527               -0.05961586                0.07273920               -0.02785479                0.00045578                0.75979602
               5.76636115                9.23185294               41.97378200                0.44164466                0.07201289                0.11547224               -0.28318954                0.00049637               -0.03193858               -0.78958899
               6.76747075                8.97955047               41.78814356                0.00010000                0.02293392                0.30125167               -0.65443148               -0.76155940               10.39645324               -2.43905830
               7.76681983                8.71111062               41.81156920                0.00010000               -0.08175849                0.44438241               -0.78163978               -1.47189356               21.03107579               -0.43818047
               8.76583558                8.43826552               41.83433726                0.00010000               -0.08400980                0.47344994               -1.07401681               -1.59664221               21.30727238                0.59811724
               9.76513963                8.16181793               41.85864822                0.00010000               -0.05910672                0.53002397               -1.41376057               -1.81479840               21.82203832                1.36649021
              10.76465345                7.88228862               41.88714062                0.00010000                0.04920876                0.51079027               -1.78168107               -2.15702149               22.62531530                2.33109728
              11.76612381                7.60082764               41.92351165                0.00010000                0.31911270                0.26608688               -2.17080375               -2.67687652               23.88606728                3.85741724
              12.77103570                7.31812126               41.97392613                0.09559333                0.56858375                0.07035271               -2.73670677               -1.63026482               13.86683901                6.77382754
              13.77749548                7.07058764               41.80405755                0.32956706                0.59045019                0.31982556               -1.52332971               -0.02320230                1.49502599                1.78530794
              14.78284471                6.82366294               41.60415804                0.81785911                0.53492262                0.56978164               -1.90800080                0.01792709                0.04174746               -0.66733996
               5.01669534               10.48344362               42.09971440                0.95583613                0.08565303                0.01254249               -0.10933507               -0.02772064               -0.01220817                0.68272452
               6.01755187               10.23319543               41.90709005                0.49349349                0.13132395                0.15414227               -0.46097990               -0.00126392                0.01545022               -0.64216533
               7.01932182                9.98239438               41.71487197                0.00010000                0.26781771                0.28585026               -0.81969180               -0.75557451               12.14938476               -1.54596423
               8.02290822                9.71576007               41.76460857                0.00010000                0.34111457                0.31252414               -1.01169907               -1.06272388               24.14901302               -0.34708926
               9.02614411                9.44318653               41.80677827                0.00010000                0.21814375                0.46158175               -1.27733642               -1.03077360               24.06407700                0.26454464
              10.02727110                9.16777068               41.84844937                0.00010000               -0.00974805                0.62801394               -1.58915023               -1.10757536               24.62865555                0.76738963
              11.02594915                8.88883341               41.89599227                0.00010000               -0.26394783                0.77007251               -1.91089490               -1.50939418               25.85999685                1.39299526
              12.02199214                8.60459160               41.95661195                0.00010000               -0.39603277                0.81266869               -2.14381892               -2.19933114               28.25378972                2.41392157
              13.01802849                8.32058226               42.04604887                0.15724240                0.05738108                0.39435489               -1.78410179               -1.85688152               15.43134367                3.78867554
              14.02313976                8.07451272               41.84355897                0.34392592                0.53287149                0.43421834               -1.60132296               -0.06835477                0.43908126                1.21845252
              15.02868592                7.82977964               41.63088535                0.80800870                0.55461597                0.63190733               -2.08239915                0.01211261               -0.01301089               -0.86796084
               5.26597245               11.48391891               42.03891303                0.99049748                0.14126578                0.04752981               -0.28932351                0.02939855                0.36982993                0.59334298
               6.26738511               11.23493579               41.84263017                0.79883470                0.19110910                0.17403561               -0.63829085                0.05075179                0.76255724               -0.51613128
               7.26979463               10.98526748               41.65400817                0.46578115                0.86940469                0.28730946               -0.99129699               -0.83145315               13.96700120               -0.90266255
               8.28477320               10.71736110               41.72145449                0.34070149                1.17074376                0.16010336               -1.20872758               -0.70201853               26.63876094               -0.27031184
               9.29320950               10.44749715               41.77709369                0.33057736                0.62840215                0.43106201               -1.46866627               -0.44260494               26.34904295                0.07608099
              10.29734124               10.17437821               41.83159898                0.34128048                0.22175673                0.66075350               -1.77513035               -0.48333950               26.94118208                0.36786095
              11.29764464                9.89769007               41.89263252                0.37207216               -0.34764544                0.88566586               -2.08588369               -0.69531046               28.39782937                0.73505751
              12.29038833                9.61708102               41.96955496                0.49393434               -1.68338406                1.24894152               -2.22494202               -1.74446650               30.82715303                1.35278109
              13.26397696                9.32600836               42.07114542                0.61059564               -1.17286625                0.54260930               -1.74508184               -2.29560405               17.68610705                1.58967650
              14.26693101                9.07927201               41.87536059                0.69042852                0.42880776                0.47592868               -1.65704084               -0.10623886                1.74692816                0.88412262
              15.27255311                8.83630109               41.65795946                0.90316784                0.56221050                0.65214460               -2.19830902                0.08962738                0.72357216               -0.78641842
               2.80352266                1.57638208               43.61191818                1.00000000               -0.39949831               -0.44908767                1.54469664               -0.08290619               -1.15706367                1.09959257
               3.79952768                1.29969416               43.47903349                1.00000000               -0.33703290               -0.31414155                1.12638112               -0.04745171               -1.56561954                0.18386155
               4.79678200                1.02248215               43.33840325                1.00000000               -0.21328821               -0.18506089                0.67881457               -0.05171230               -1.61179928               -0.21208978
               5.79526191                0.74419163               43.20488299                0.66801488               -0.08888223               -0.05286001                0.23249723               -0.37887083               -1.11907299               -0.97707156
               6.79500436                0.45795656               43.07438248                0.70317118                0.24486422               -0.07295769               -0.35263536               -0.09542266               -0.72915206                0.22948576
               7.80015920                0.16675303               42.95044551                0.75110793                0.62422494                0.10114453               -0.77075380               -0.13189430               -0.25889077                0.05615880
               8.80748886               -0.12180777               42.82891946                0.73803478                0.80291306                0.17394840               -1.00515393               -0.04354453                0.22065498               -0.20530137
               9.81621746               -0.40535735               42.71258956                0.82607435                0.72814750                0.18835452               -0.96290122               -0.08862240                0.22794598                0.03923880
              10.82205181               -0.68381692               42.58790865                1.00000000                0.48301807                0.24691505               -0.95954018               -0.07705998               -0.43260040                0.69831881
              11.82587782               -0.96031134               42.45648339                1.00000000                0.39246456                0.33392055               -1.15964335               -0.03744425               -0.75778770                0.06590072
              12.82990110               -1.23637927               42.32500306                1.00000000                0.40232774                0.42241207               -1.42192995               -0.03798791               -0.75150487               -0.73406555
               3.07938152                2.57189120               43.55330682                1.00000000               -0.33783961               -0.43666231                1.36351401               -0.01369996               -0.24900270                1.48239564
               4.07600312                2.29655274               43.42042397                1.00000000               -0.26826893               -0.28969418                0.94754320                0.01741060               -0.38925467                0.26670154
               5.07401614                2.02063154               43.28503510                1.00000000               -0.11335614               -0.15519335                0.50876414               -0.00850556               -0.32443744               -0.41017632
               6.07373600                1.74366303               43.15340214                0.35139242                0.43766452               -0.01492828                0.08894539               -0.47766583                1.11354198               -1.33210764
               7.08276943                1.45722698               43.04632711                0.43523576                0.74932088               -0.11448775               -0.47506663               -0.13264227                2.11958452                0.62733170
               8.08872242                1.16776447               42.93288958                0.51332184                0.51695834                0.14569041               -0.86595511               -0.16184877                1.92628303                0.24558333
               9.09310860                0.87993171               42.82074472                0.47234282                0.38066947                0.28340352               -1.06478658               -0.08142295                2.48825314               -0.53064265
              10.09633581                0.59652620               42.71754264                0.55351962                0.28248010                0.28864662               -0.95165825               -0.10592882                2.64196729                0.32205726
              11.09875820                0.31865223               42.60839131                1.00000000                0.27243728                0.25462944               -0.88019569               -0.07097862                1.31108951                0.87763189
              12.10178455                0.04302787               42.47906971                1.00000000                0.34154772                0.32747046               -1.12793820                0.00384802                0.19382325                0.22003733
              13.10558915               -0.23215515               42.34782888                1.00000000                0.38046014                0.41776930               -1.39088688                0.00588790                0.08883543               -0.84506432
               3.35392558                3.56764883               43.50288041                1.00000000               -0.27900332               -0.41472594                1.19452311               -0.00987058                0.00893845                1.86173646
               4.35113555                3.29390027               43.36366069                1.00000000               -0.22119911               -0.24012954                0.77997210                0.00870262                0.15664664                0.28424802
               5.34950160                3.01937828               43.22758796                0.79907210               -0.10111957               -0.07345112                0.34657170               -0.04406900                0.45282902               -1.05067457
               6.34911316                2.74389306               43.09414663                0.02212245                0.93742344                0.03933631               -0.10542296               -0.69897779                3.83819140               -1.82438227
               7.36825007                2.45566680               43.02537215                0.00010000                1.25521661               -0.11922000               -0.75622362               -1.51163571                5.40761312               -0.96365716
               8.37421749                2.16966684               42.91814294                0.00010000                0.44243021                0.14490258               -1.08630369               -1.38589781                3.30754533               -0.04810817
               9.37709867                1.88386030               42.80504243                0.00010000                0.05804365                0.30528115               -1.30842829               -1.22585991                4.84725339                0.57195214
              10.37537836                1.60041558               42.72764895                0.01109706               -0.14840556                0.27818712               -1.10605470               -0.80960228                5.61683942                0.78105155
              11.37413056                1.32127567               42.63245547                0.39848400                0.06918998                0.18344306               -0.82052457               -0.32918640                2.93825712                1.69287971
              12.37676216                1.04623807               42.50472134                1.00000000                0.31271685                0.30281305               -1.09767020               -0.04404093                0.85091887                0.76499009
              13.38038490                0.77197611               42.36840772                1.00000000                0.36227364                0.40680908               -1.33773165               -0.00159148                0.39760243               -0.80956436
               3.62668123                4.56359668               43.45234049                1.00000000               -0.22335019               -0.38994533                1.02365431               -0.01958267                0.12492584                1.67993080
               4.62444772                4.29175015               43.30555848                1.00000000               -0.17696294               -0.18194405                0.61228885               -0.00360708                0.24224069                0.06853599
               5.62314197                4.01916252               43.16126903                0.38946726               -0.04898992                0.01194064                0.21694468               -0.11306599                1.13266699               -1.55629156
               6.62346793                3.74444976               43.03215770                0.00010000                0.18104889                0.12166571               -0.22546692               -0.92386314                5.03743192               -2.38384015
               7.62676295                3.45484258               42.96555986                0.00010000                0.46715198                0.08107789               -0.68610590               -2.35356112                8.01382764               -1.89825780
               8.63281097                3.17066252               42.89337897                0.00010000                0.55398532                0.08422625               -1.04818994               -2.30261618                7.62421737               -0.04466584
               9.63784265                2.88603733               42.81676747                0.00010000                0.49587126                0.11123744               -1.25864567               -2.21254969                7.43044849                1.75297911
              10.64272839                2.60208994               42.73986955                0.00010000                0.42546660                0.04809417               -1.29453882               -1.60372737                7.70843512                1.53753324
              11.64635198                2.32232109               42.66947750                0.02701853                0.37374494               -0.07868352               -0.82426710               -0.65927491                4.83349349                1.55378397
              12.65020329                2.04908413               42.53847144                0.50546451                0.38646307                0.10228310               -1.11997347               -0.11885958                1.02250586                1.87995575
              13.65408125                1.77598103               42.39222553                0.95955134                0.38779553                0.30338908               -1.31792259               -0.02120394                0.22346101                0.05769949
               3.89722699                5.55984992               43.39867694                1.00000000               -0.17294230               -0.35099894                0.84141800               -0.03875348                0.24149899                1.33202412
               4.89549757                5.29026139               43.24452475                0.72849210               -0.13431609               -0.10105565                0.43793485               -0.04161727                0.38703067               -0.36841127
               5.89454067                5.01961710               43.09337378                0.15185843               -0.02708687                0.11396248                0.04789400               -0.19210054                1.48186772               -1.88201936
               6.89495583                4.74632638               42.96095226                0.00010000                0.02127027                0.17567859               -0.35464674               -1.15624874                7.21373427               -1.95041408
               7.89496608                4.45728836               42.92406071                0.00010000                0.10072886                0.26072647               -0.68741601               -2.00879222               11.53986118               -0.33835701
               8.89697041                4.17135136               42.87540948                0.00010000                0.32270932                0.13184855               -1.05382981               -2.08469875               10.71351091                0.71290219
               9.90142026                3.88608505               42.81998123                0.00010000                0.50248235                0.02154913               -1.33419342               -2.11447074               10.24228498                1.66054757
              10.90702006                3.60137747               42.76040763                0.00010000                0.62653044               -0.09741786               -1.49249879               -1.88014762                9.60336662                2.24947910
              11.91395087                3.31970200               42.69176252                0.00531556                0.68524872               -0.26687642               -1.73534593               -0.93844375                7.23269937                1.93451610
              12.92072503                3.04828373               42.58693887                0.33940107                0.61080746               -0.19931784               -1.10476014               -0.14062065                2.68653701                2.99802186
              13.92616702                2.77804389               42.43078747                0.82098349                0.54419896                0.09805390               -1.27135515                0.02271128                0.11677173                1.05617777
               4.16508322                6.55657670               43.34147031                1.00000000               -0.12350158               -0.29163933                0.65072796               -0.03983641                0.10275397                1.00645312
               5.16384821                6.28972904               43.17760224                0.53029251               -0.09241280               -0.01578018                0.23755928               -0.06126961                0.41910748               -0.74333506
               6.16323497                6.02144177               43.02011532                0.05493378               -0.05882603                0.24827486               -0.14461562               -0.35358601                2.95230285               -2.37506766
               7.16267169                5.74796333               42.90675963                0.00010000               -0.08364250                0.05004768               -0.18923292               -1.44837301               10.22796143                0.71977154
               8.16156212                5.46005711               42.89364432                0.00010000               -0.01756923                0.28694468               -0.71058084               -2.15198750               14.53389955                0.64939387
               9.16232030                5.17329950               42.86345331                0.00010000                0.19825059                0.23236218               -1.11516228               -2.17644798               13.50456710                1.33362316
              10.16552713                4.88646832               42.82723577                0.00010000                0.45940917                0.08551135               -1.46644569               -2.25006460               12.99058288                2.16780236
              11.17150849                4.60014158               42.78470785                0.00010000                0.75748558               -0.10203123               -1.80534128               -2.06621373               12.21188378                2.93673388
              12.18067684                4.31698356               42.73195545                0.00987162                0.87702466               -0.33763063               -2.13490777               -1.16122243                9.86413795                3.68776036
              13.18904898                4.04509777               42.64438404                0.31154595                0.71691550               -0.23776241               -1.14924545               -0.23410393                3.99068816                3.19270864
              14.19501515                3.77794211               42.47726431                0.80807481                0.59661719                0.04997134               -1.34600089                0.01529365                0.02813472                1.01303048
               4.43012560                7.55401714               43.28151945                0.98739949               -0.07184855               -0.21662710                0.45641540               -0.03365297                0.03265415                0.81069689
               5.42940711                7.28994579               43.10883713                0.43156878               -0.04454701                0.04586472                0.04913319               -0.04516090                0.31186672               -0.84045219
               6.42923466                7.02458259               42.94174427                0.00762926               -0.10170408                0.34292981               -0.34730426               -0.64962399                6.32540945               -2.69311320
               7.42737303                6.74732733               42.88917832                0.00010000               -0.13222498                0.07619616               -0.22226261               -1.61939147               13.86688193                1.56377687
               8.42659016                6.46302725               42.87058801                0.00010000               -0.01713948                0.32034465               -0.79400019               -2.07393533               15.95575903                1.14158952
               9.42703024                6.17599860               42.85637170                0.00010000                0.14933626                0.31531070               -1.22088610               -2.27810540               16.17975678                1.71066979
              10.42957689                5.88779527               42.83921157                0.00010000                0.40751471                0.19242359               -1.63043996               -2.40933999               15.93078211                2.60550260
              11.43518054                5.59933684               42.81741411                0.00010000                0.80966742               -0.01369151               -2.09761705               -2.39166967               15.30861285                3.78297689
              12.44577023                5.31294938               42.78598632                0.02220160                0.99519361               -0.38848858               -2.67520390               -1.37670550               11.97610587                5.25649910
              13.45508441                5.04352849               42.69787349                0.30400422                0.75069972               -0.03865574               -1.29282630               -0.22493934                4.53380674                2.69838371
              14.46078423                4.77904332               42.51928854                0.80666208                0.56998186                0.22173081               -1.56223626                0.00941472                0.03510655                0.31100364
               4.69255287                8.55224416               43.22055353                0.97982830               -0.01733305               -0.13875404                0.26545900               -0.03068477                0.00694392                0.74466245
               5.69237954                8.29064633               43.03970124                0.40295349                0.01540382                0.09025700               -0.13614076               -0.01311340                0.13274456               -0.83424984
               6.69286094                8.02830036               42.86131879                0.00010000               -0.02701685                0.36240510               -0.53974280               -0.80281911                8.69892797               -2.73425463
               7.69183920                7.74948725               42.85157932                0.00010000               -0.07244018                0.32842250               -0.60028345               -1.66286557               17.68891005                0.07277009
               8.69141214                7.46646400               42.84921185                0.00010000                0.00754878                0.39899846               -0.96268877               -1.95480518               18.46378043                1.01241794
               9.69199017                7.17960571               42.85102281                0.00010000                0.12949764                0.41486797               -1.36375443               -2.20883922               18.93773572                1.73456892
              10.69400209                6.89031679               42.85436597                0.00010000                0.32654032                0.32883892               -1.78920369               -2.44078820               19.17108234                2.74561092
              11.69852098                6.59986775               42.85764686                0.00010000                0.74744981                0.14115201               -2.34311590               -2.63959179               19.03352211                4.31461858
              12.70895109                6.30921379               42.85560375                0.04298179                0.99676380               -0.24336559               -3.31543636               -1.50633567               13.47572249                6.95973031
              13.71845626                6.04432466               42.74560976                0.30560524                0.76113444                0.18178340               -1.47679785               -0.13472482                4.05905448                2.18273142
              14.72417378                5.78237672               42.55458968                0.80760232                0.57175202                0.43275175               -1.83960030                0.02116471                0.04948948               -0.35979984
               4.95270757                9.55124206               43.15939388                0.96616863                0.03810778               -0.06187380                0.07327043               -0.02942659                0.00303845                0.74864546
               5.95308864                9.29175093               42.97078406                0.43368211                0.08148951                0.12975202               -0.31850649                0.00439136               -0.03642773               -0.78873221
               6.95433736                9.03183069               42.78128564                0.00010000                0.14317201                0.33208960               -0.72258387               -0.84485327               10.50956199               -2.42463278
               7.95595208                8.75389578               42.80329054                0.00010000                0.15191210                0.44038549               -0.87767105               -1.61662427               21.21820692               -0.49254519
               8.95737560                8.47100722               42.82308972                0.00010000                0.15242941                0.44723994               -1.17485867               -1.70883484               21.41465300                0.59670668
               9.95900067                8.18429596               42.84389487                0.00010000                0.15617404                0.51586057               -1.53133464               -1.88482546               21.89979024                1.39997052
              10.96049908                7.89437205               42.86849003                0.00010000                0.22455135                0.53258665               -1.93923901               -2.18887657               22.66290438                2.39270876
              11.96349170                7.60215988               42.90039380                0.00010000                0.53437675                0.34403636               -2.43619102               -2.67432751               23.71680250                4.03334299
              12.97118661                7.30808207               42.94297050                0.07672872                0.78676409                0.09049699               -3.43901378               -1.64886570               14.64096911                7.60895709
              13.97922698                7.04716415               42.78823947                0.31362778                0.69583896                0.36333047               -1.64864863               -0.06890807                2.46363455                1.76782886
              14.98510339                6.78769836               42.58422789                0.80767811                0.58764123                0.59586710               -2.10592679                0.02669425                0.05721843               -0.87232389
               5.21094660               10.55100669               43.09858000                0.95145106                0.09321312                0.01315154               -0.11659002               -0.02907001               -0.01287628                0.67301687
               6.21187873               10.29324137               42.90227293                0.48844136                0.14362135                0.16930579               -0.50447193                0.00079815                0.01322932               -0.64058046
               7.21381902               10.03494216               42.70633457                0.00010000                0.42257304                0.31152830               -0.89415086               -0.87576790               12.23286220               -1.52589099
               8.22033019                9.75829496               42.75405333                0.00010000                0.65081195                0.24090652               -1.10059831               -1.19995399               24.31172157               -0.36407133
               9.22683526                9.47540880               42.79348150                0.00010000                0.52993241                0.39274566               -1.37879167               -1.10884832               24.19030220                0.26315550
              10.23092884                9.18992292               42.83189051                0.00010000                0.27626903                0.57774455               -1.71484228               -1.12693662               24.73042917                0.77963761
              11.23236064                8.90096852               42.87596807                0.00010000                0.01977868                0.75230013               -2.08953535               -1.46266607               25.97745488                1.42941592
              12.23132441                8.60674848               42.93374058                0.00010000               -0.06955692                0.83337171               -2.46096888               -2.11027302               28.64875115                2.60602372
              13.23096950                8.31102373               43.02552349                0.13339947                0.30687019                0.50924189               -2.44809113               -1.77997087               16.18773671                4.58980113
              14.23746181                8.05159127               42.82675242                0.32971571                0.63348780                0.48666976               -1.77000345               -0.10881264                0.88012579                1.25102382
              15.24363926                7.79429406               42.60899763                0.79847079                0.61774466                0.69197207               -2.32525900                0.01718077                0.00012814               -1.00629564
               5.46765679               11.55150509               43.03593839                0.98876822                0.15123419                0.04984026               -0.30489705                0.03421542                0.36330995                0.58368158
               6.46916914               11.29513704               42.83600799                0.79769261                0.20558066                0.18956719               -0.68943971                0.05684961                0.75540608               -0.51194068
               7.47176841               11.03806126               42.64371338                0.46364548                1.11586118                0.31191046               -1.07404561               -1.02621796               14.03276864               -0.88291958
               8.49148636               10.75871391               42.70892308                0.34074608                1.59011321                0.04189514               -1.29904707               -0.84433903               26.78982919               -0.28425026
               9.50357067               10.47886213               42.76185893                0.33068731                0.97079294                0.34533342               -1.57500621               -0.46961182               26.47531336                0.06993675
              10.51090222               10.19585086               42.81314841                0.34104228                0.54247640                0.59279337               -1.90668267               -0.47486571               27.04127060                0.36931257
              11.51442020                9.90941805               42.87082922                0.37111905                0.01644054                0.84495326               -2.27163317               -0.64522109               28.55846868                0.75777070
              12.51123103                9.61882732               42.94610538                0.48100397               -1.18378957                1.20788383               -2.53040335               -1.56689512               31.35626937                1.52510492
              13.49074441                9.31826691               43.05149668                0.59699564               -0.87253179                0.72431805               -2.28914136               -2.11899791               18.57934729                1.97613700
              14.49378039                9.05689755               42.85794037                0.68382092                0.46485030                0.53062819               -1.83949310               -0.20459761                2.16826509                0.94225131
              15.50004141                8.80153780               42.63483025                0.89828940                0.62610209                0.72437325               -2.45806289                0.10424025                0.76162955               -0.87214549
               2.92675512                1.64697734               44.62781529                1.00000000               -0.42363863               -0.47843227                1.64488077               -0.09178797               -1.18633005                1.11422859
               3.92251873                1.36106376               44.49048910                1.00000000               -0.35795703               -0.32448938                1.16925947               -0.05178183               -1.61436480                0.18936714
               4.91959598                1.07457491               44.34513868                1.00000000               -0.23149831               -0.17806288                0.66874091               -0.05902867               -1.68107321               -0.21126530
               5.91788877                0.78661614               44.20689236                0.67750300               -0.15325313               -0.01364917                0.16608873               -0.46002754               -1.26611521               -0.97247048
               6.91653092                0.48880301               44.07031219                0.71563043                0.19082418               -0.02100876               -0.45262306               -0.12736651               -0.90563175                0.21282288
               7.92170525                0.18513642               43.94194141                0.76427686                0.66977649                0.15820018               -0.92298646               -0.15524990               -0.30768883                0.02358946
               8.92992645               -0.11575730               43.81791324                0.74925872                0.93498566                0.23584913               -1.20534104               -0.03408582                0.39195505               -0.27902329
               9.94040496               -0.41024439               43.70229995                0.82253300                0.86930622                0.22048501               -1.11587535               -0.08687629                0.56047702               -0.02532049
              10.94731257               -0.69757218               43.57813570                1.00000000                0.54382923                0.24529786               -0.98815700               -0.08614154               -0.19734092                0.72999432
              11.95128155               -0.98233494               43.44475245                1.00000000                0.40434987                0.33433975               -1.18566545               -0.03672905               -0.68063643                0.07627632
              12.95539957               -1.26646378               43.31064263                1.00000000                0.41180196                0.42482023               -1.45583782               -0.04656340               -0.70637284               -0.68880481
               3.21175083                2.64219302               44.56733334                1.00000000               -0.35486952               -0.46476871                1.45091675               -0.01255976               -0.26620186                1.49672383
               4.20820213                2.35781886               44.43003227                1.00000000               -0.27606617               -0.29921112                0.97747509                0.02184375               -0.42157867                0.27576086
               5.20622950                2.07279429               44.29000479                1.00000000               -0.10138432               -0.14766261                0.48358734               -0.00688420               -0.36062309               -0.40342046
               6.20617444                1.78647965               44.15391382                0.37266706                0.48838042                0.02320751                0.00619249               -0.57283531                1.01064579               -1.34090567
               7.21599711                1.48859292               44.04087325                0.45838122                0.81292319               -0.08607966               -0.62083782               -0.20654777                1.98912077                0.54813789
               8.22243291                1.18671843               43.92324344                0.54241854                0.56394418                0.21344997               -1.07682805               -0.22064094                1.96165208                0.16049366
               9.22727599                0.88660119               43.80898386                0.50948437                0.40053676                0.37783596               -1.32180538               -0.10066170                2.80363592               -0.68532985
              10.23044364                0.59196046               43.70740165                0.56862032                0.26102181                0.36575338               -1.11400420               -0.13327977                3.11249716                0.17222667
              11.23249643                0.30488080               43.59970858                1.00000000                0.24582073                0.24662942               -0.84472947               -0.10432068                1.54112236                0.89389856
              12.23536006                0.02100846               43.46791630                1.00000000                0.32831747                0.32035344               -1.09799482                0.00386075                0.21058750                0.22792539
              13.23906278               -0.26221558               43.33404038                1.00000000                0.37027221                0.41220574               -1.36847675               -0.00175775                0.09526890               -0.78535489
               3.49525224                3.63768197               44.51514505                1.00000000               -0.28978926               -0.43912843                1.26555906               -0.01033950                0.00003152                1.87544262
               4.49235434                3.35507954               44.37152625                1.00000000               -0.22273626               -0.24573167                0.79507301                0.00858054                0.13594767                0.29707149
               5.49079751                3.07162166               44.23086682                0.80915464               -0.08604605               -0.06029035                0.30633027               -0.05125863                0.41597797               -1.02217116
               6.49063342                2.78708029               44.09268494                0.02604018                1.06818368                0.07829407               -0.19421524               -0.84791472                3.68532566               -1.81698262
               7.51216119                2.48708142               44.01691286                0.00010000                1.43253706               -0.06219664               -0.94537942               -1.76816150                5.26710196               -0.91484490
               8.51928416                2.18940542               43.90597592                0.00010000                0.52549950                0.27970102               -1.37033989               -1.61806616                3.39077067               -0.01913824
               9.52267118                1.89179942               43.79038707                0.01573975                0.00878001                0.50674353               -1.67383425               -1.44928013                5.24950375                0.54946804
              10.51945977                1.59707068               43.71551779                0.02727517               -0.32465083                0.47985656               -1.41822349               -0.99745336                6.32097305                0.63030813
              11.51617816                1.30736041               43.62467242                0.37711759               -0.05023132                0.14905253               -0.72008260               -0.45653529                3.25418195                1.65181914
              12.51845514                1.02407213               43.49411835                1.00000000                0.28171676                0.28141535               -1.01518198               -0.04730903                0.82080654                0.74051017
              13.52181249                0.74178033               43.35541379                1.00000000                0.33573556                0.38383241               -1.25914057               -0.00878714                0.38469455               -0.75300267
               3.77674890                4.63341045               44.46282524                1.00000000               -0.23148531               -0.40872502                1.07851531               -0.02166595                0.12245765                1.68359423
               4.77443405                4.35290423               44.31168654                1.00000000               -0.17726631               -0.18101094                0.61378030               -0.00626090                0.24503565                0.07795605
               5.77320358                4.07158848               44.16317998                0.38086263               -0.03388274                0.03267673                0.16047870               -0.12359592                1.12068946               -1.52638052
               6.77375639                3.78804553               44.02938744                0.00010000                0.25525866                0.16605304               -0.33749885               -1.05302635                4.99860246               -2.33844289
               7.77830875                3.48734899               43.95793414                0.00010000                0.57985947                0.18650824               -0.85140881               -2.63362845                8.00993627               -1.66654668
               8.78535358                3.19231245               43.88194071                0.00010000                0.61581928                0.25041679               -1.25736847               -2.58754330                7.73282503                0.16617093
               9.79062513                2.89673606               43.80322882                0.00010000                0.47900033                0.32848256               -1.47649062               -2.51086181                7.69187078                1.93356138
              10.79493359                2.60155759               43.72638384                0.00010000                0.28695690                0.25316499               -1.42638776               -1.97489991                8.30924802                1.50230399
              11.79636427                2.30786185               43.66179070                0.01164021                0.25301795                0.03078651               -0.70535186               -0.83883110                5.17221763                1.00621776
              12.79999395                2.02663677               43.52786149                0.45289788                0.35531816                0.05595258               -0.99231276               -0.09980410                0.96086436                1.83570622
              13.80347064                1.74546107               43.37968360                0.91740879                0.34766864                0.21366774               -1.18362291                0.00533820                0.20554831                0.10273432
               4.05583136                5.62950747               44.40727605                1.00000000               -0.17802594               -0.36455773                0.88209288               -0.04208433                0.24673520                1.32470029
               5.05405110                5.35145932               44.24885596                0.71432994               -0.13235325               -0.09259299                0.42763206               -0.04650190                0.39782417               -0.37378157
               6.05318430                5.07227520               44.09357061                0.14384820               -0.01193582                0.14217034               -0.01302907               -0.20273666                1.49282984               -1.87763038
               7.05381238                4.79040135               43.95685212                0.00010000                0.10187031                0.19216702               -0.47667775               -1.23683058                7.26935211               -1.74367403
               8.05522170                4.49081158               43.91655162                0.00010000                0.21669216                0.35053534               -0.82521474               -2.17890146               11.61987237               -0.12938411
               9.05814623                4.19441376               43.86415946                0.00010000                0.39935449                0.24748869               -1.20877990               -2.25446122               10.81307588                0.91028569
              10.06320879                3.89836907               43.80603133                0.00010000                0.53448776                0.14325627               -1.46603414               -2.30120000               10.44175009                1.78160819
              11.06883598                3.60213398               43.74529698                0.00010000                0.55567858                0.01716400               -1.53227186               -2.10935536                9.81318473                2.16311414
              12.07432236                3.30797614               43.67494819                0.00010000                0.50119254               -0.03151908               -1.60938691               -1.11893801                7.74817119                1.31289228
              13.07885983                3.02519118               43.57659163                0.30471143                0.49741468               -0.25063742               -0.95932709               -0.23445669                3.08247006                2.93479603
              14.08427066                2.74605369               43.41879780                0.79525317                0.54108228               -0.09083852               -1.12882372                0.07946646                0.10791564                0.99366889
               4.33200352                6.62611930               44.34810974                1.00000000               -0.12672350               -0.30122419                0.68002760               -0.04108422                0.09584512                0.99363552
               5.33073628                6.35105237               44.17988946                0.51451944               -0.08983547               -0.00241198                0.21829498               -0.06595624                0.42678510               -0.75297332
               6.33020681                6.07443189               44.01836354                0.04612267               -0.01264433                0.28591282               -0.21251925               -0.40063606                3.15306685               -2.38196717
               7.33048340                5.79188887               43.90449026                0.00010000                0.02557519                0.05785287               -0.26850554               -1.50471773               10.37435072                0.98101213
               8.33071831                5.49435970               43.88600160                0.00010000                0.11117375                0.34855955               -0.82819699               -2.25389716               14.51069600                0.82943146
               9.33270687                5.19726222               43.85172302                0.00010000                0.30813002                0.30348922               -1.23837720               -2.30499067               13.58221037                1.50002229
              10.33688091                4.89960119               43.81211282                0.00010000                0.52162733                0.15298502               -1.55974492               -2.39481392               13.10919705                2.25841421
              11.34313942                4.60190087               43.76657441                0.00010000                0.70236974               -0.01862245               -1.81275054               -2.20609761               12.33721204                2.82074943
              12.35092831                4.30723146               43.71140707                0.00010000                0.70439221               -0.17409180               -1.96374948               -1.37507111               10.53282846                3.31627830
              13.35722726                4.02162402               43.63336207                0.28477662                0.62033243               -0.25055520               -1.05944878               -0.36845823                4.56820399                3.07697714
              14.36333496                3.74364430               43.46415906                0.78894636                0.61076942               -0.13607757               -1.29629591                0.04039023                0.02309584                0.75987072
               4.60514353                7.62348299               44.28617252                0.98779193               -0.07241395               -0.22322715                0.47686455               -0.03408394                0.02903905                0.79884409
               5.60441939                7.35141108               44.10920992                0.41731865               -0.04042266                0.06008435                0.02355027               -0.04559220                0.31305190               -0.84123958
               6.60433507                7.07799345               43.93794467                0.00010000               -0.03145856                0.38555008               -0.41921760               -0.70741643                6.59539049               -2.69714067
               7.60379022                6.79155841               43.88642392                0.00010000                0.02176673                0.11633671               -0.34445238               -1.68738939               14.09621621                1.56426448
               8.60477041                6.49778277               43.86210450                0.00010000                0.15073533                0.35522408               -0.90786535               -2.15883954               15.92922545                1.25581695
               9.60680492                6.20048354               43.84363397                0.00010000                0.29517242                0.35380939               -1.33059737               -2.39350574               16.25261625                1.84106099
              10.61067386                5.90142877               43.82243581                0.00010000                0.51394145                0.23250915               -1.71980715               -2.53530163               16.00134596                2.68775884
              11.61708375                5.60176153               43.79621872                0.00010000                0.82119682                0.03408369               -2.11952327               -2.46394587               15.31232639                3.71166502
              12.62709779                5.30449430               43.75989801                0.01070422                0.89970406               -0.29229142               -2.50652176               -1.52822146               12.78457705                4.75969211
              13.63507783                5.02018008               43.68499691                0.28299636                0.69700542               -0.01095809               -1.29317339               -0.35243853                5.34823033                2.55537136
              14.64103790                4.74333214               43.50343660                0.79227292                0.59600682                0.13021816               -1.64066369                0.02385496                0.04249950               -0.03412696
               4.87546565                8.62165475               44.22325815                0.97970835               -0.01516828               -0.14342442                0.27675569               -0.03170054                0.00560239                0.73379863
               5.87531397                8.35225406               44.03818933                0.39113191                0.02227477                0.10477660               -0.16723840               -0.00952118                0.13036236               -0.83121903
               6.87591115                8.08214289               43.85557512                0.00010000                0.08161585                0.40242924               -0.61496084               -0.86090080                8.86798367               -2.72765624
               7.87694629                7.79421560               43.84499634                0.00010000                0.13526191                0.36136507               -0.72363499               -1.75445172               17.92691706               -0.02816278
               8.87861639                7.50146418               43.83906662                0.00010000                0.21222356                0.40736103               -1.07154638               -2.05616460               18.57371815                1.06602796
               9.88119076                7.20433841               43.83684952                0.00010000                0.31402523                0.42330482               -1.47094839               -2.31413046               19.03996416                1.82728624
              10.88489689                6.90425137               43.83589119                0.00010000                0.48021062                0.35559628               -1.89699608               -2.55085530               19.21783513                2.82452187
              11.89079497                6.60258255               43.83350566                0.00010000                0.85242184                0.18196252               -2.45128757               -2.69850485               18.83345776                4.33057483
              12.90194533                6.30138564               43.82194278                0.02903698                1.02728412               -0.20568198               -3.29760444               -1.61330345               14.42066919                6.58848064
              13.91134065                6.02140486               43.73049191                0.28869811                0.77813065                0.23107358               -1.55795910               -0.23520156                5.19586029                2.06312002
              14.91750794                5.74624866               43.53544425                0.79654461                0.61672880                0.42381877               -2.02196344                0.03309669                0.06418736               -0.68995675
               5.14331091                9.62061450               44.16013839                0.96139422                0.04299231               -0.06476560                0.07776313               -0.03147313                0.00558750                0.73743111
               6.14374083                9.35350661               43.96741187                0.42456442                0.09223012                0.14529169               -0.35806260                0.00877284               -0.03911449               -0.78521606
               7.14515551                9.08604204               43.77369189                0.00010000                0.28195287                0.36529686               -0.80228643               -0.92166962               10.63188397               -2.40671035
               8.14937989                8.79878571               43.79401578                0.00010000                0.41844014                0.43152489               -0.98133718               -1.75313048               21.44203745               -0.51556776
               9.15352432                8.50592999               43.81084008                0.00010000                0.41776165                0.41081229               -1.27721511               -1.81697454               21.58177927                0.62227238
              10.15773512                8.20894964               43.82802153                0.00010000                0.39441478                0.48857416               -1.64049227               -1.95934734               22.04119178                1.45635173
              11.16141261                7.90854070               43.84835584                0.00010000                0.41221333                0.54155859               -2.07626964               -2.23987842               22.74583088                2.45558041
              12.16597939                7.60540078               43.87478783                0.00010000                0.72984019                0.42089746               -2.65971259               -2.67716316               23.42965694                4.13346499
              13.17600941                7.30038066               43.90514586                0.05881505                0.97656933                0.12332335               -3.97886187               -1.68865881               15.61714535                8.10869480
              14.18551078                7.02480155               43.77108458                0.29938168                0.80014067                0.42137167               -1.79189673               -0.13223295                3.75966034                1.70592499
              15.19201223                6.75180851               43.56203950                0.79854477                0.65014511                0.64013553               -2.36002815                0.03520281                0.07689730               -1.13529473
               5.40905197               10.62035944               44.09738260                0.94698720                0.10099220                0.01306340               -0.12148064               -0.03052820               -0.01347594                0.66327441
               6.41006189               10.35515989               43.89700061                0.48220766                0.15733459                0.18601170               -0.55234725                0.00333933                0.01297419               -0.63791848
               7.41219866               10.08944882               43.69698895                0.00010000                0.59669176                0.34047124               -0.98090627               -0.99671941               12.33364517               -1.50437850
               8.42199572                9.80284610               43.74259660                0.00010000                0.99571555                0.15754433               -1.19422051               -1.33620303               24.51863486               -0.36354062
               9.43211297                9.50968042               43.77920243                0.00010000                0.86986940                0.31055134               -1.47743933               -1.18850417               24.37609513                0.27774382
              10.43939311                9.21410989               43.81415252                0.00010000                0.57676069                0.51495190               -1.82749067               -1.15683187               24.89372287                0.80429968
              11.44364818                8.91508254               43.85420156                0.00010000                0.30093174                0.72912472               -2.25350577               -1.43324803               26.10986981                1.46106470
              12.44541174                8.61100050               43.90739257                0.00010000                0.25616003                0.87263694               -2.79388218               -2.01817842               28.87643380                2.73656618
              13.44877138                8.30385210               43.99708705                0.10999606                0.59281986                0.66020300               -3.34600597               -1.67243552               17.13468215                5.41381178
              14.45726814                8.02983229               43.80815890                0.31781523                0.77133473                0.54697918               -1.95647945               -0.16743828                1.67990944                1.26065844
              15.46419808                7.75905137               43.58438017                0.79027431                0.69299345                0.76922118               -2.62542007                0.02159424                0.01674255               -1.17058508
               5.67309945               11.62087576               44.03281509                0.98669765                0.16187914                0.05163218               -0.31881307                0.03985617                0.35604605                0.57410653
               6.67471824               11.35722684               43.82884137                0.79572242                0.22177333                0.20669517               -0.74669290                0.06442010                0.75000437               -0.50739943
               7.67753491               11.09285146               43.63252726                0.46134662                1.38529950                0.34026389               -1.16960860               -1.23088661               14.11924588               -0.86221468
               8.70242423               10.80193660               43.69547355                0.34071461                2.04777651               -0.09095059               -1.39566825               -0.99267142               26.98830326               -0.29200713
               9.71849044               10.51214102               43.74559357                0.33081198                1.33860701                0.24605959               -1.67919219               -0.49664831               26.66296048                0.06883474
              10.72919637               10.21924868               43.79346533                0.34080358                0.86832997                0.51387868               -2.02508460               -0.47056561               27.20936286                0.37205602
              11.73585704                9.92312319               43.84719985                0.37012253                0.38249460                0.80406486               -2.44411791               -0.59887161               28.73442695                0.76660610
              12.73684626                9.62285352               43.91894689                0.46732269               -0.60640670                1.18530233               -2.91124829               -1.33347194               31.78350319                1.65524354
              13.72372891                9.31358472               44.02536259                0.58354160               -0.49417596                0.97326166               -3.05971513               -1.85986646               19.63612067                2.49335273
              14.72696274                9.03574114               43.83857073                0.67856664                0.51385203                0.59088440               -2.04315311               -0.35012921                2.86696644                0.98920011
              15.73400595                8.76719294               43.60879820                0.89421831                0.70432084                0.81415633               -2.77501291                0.12596743                0.80160086               -0.97017608
               3.05444844                1.71963055               45.64481580                1.00000000               -0.45314453               -0.51346313                1.76466705               -0.10242279               -1.20861017                1.12297622
               4.04991699                1.42439515               45.50241868                1.00000000               -0.38455820               -0.33643431                1.22048022               -0.05698606               -1.65249544                0.19329859
               5.04675727                1.12852462               45.35177807                1.00000000               -0.25754497               -0.16896306                0.65906397               -0.06830672               -1.73704124               -0.20976622
               6.04476609                0.83069930               45.20820477                0.68764358               -0.24573004                0.03530325                0.09375595               -0.54024982               -1.38038670               -0.96153889
               7.04184267                0.52109090               45.06533002                0.72989583                0.08191366                0.04981733               -0.53066310               -0.16597222               -1.04341228                0.19583443
               8.04640437                0.20462075               44.93198578                0.78034276                0.65633722                0.23190855               -1.05091035               -0.18697092               -0.35845087               -0.00444272
               9.05496942               -0.10952948               44.80481264                0.76508632                1.04000872                0.32807710               -1.41511752               -0.02902672                0.56640336               -0.36797252
              10.06720454               -0.41606716               44.69027206                0.81925377                1.03415341                0.28200464               -1.32439241               -0.07601572                0.96713218               -0.13067259
              11.07565249               -0.71236279               44.56814551                1.00000000                0.62768106                0.23562710               -0.99693000               -0.11096701                0.12083659                0.77397703
              12.07975816               -1.00511352               44.43277008                1.00000000                0.41703965                0.33339983               -1.20913386               -0.03877105               -0.60318673                0.08525455
              13.08399328               -1.29695088               44.29588631                1.00000000                0.42351171                0.43174633               -1.50469298               -0.05842643               -0.66481493               -0.64461385
               3.34865961                2.71449592               45.58232515                1.00000000               -0.37595128               -0.49823873                1.55619461               -0.01074292               -0.28137187                1.50328700
               4.34490010                2.42103081               45.43997347                1.00000000               -0.28687404               -0.31038605                1.01380223                0.02774016               -0.45010653                0.28244237
               5.34292213                2.12683499               45.29470685                1.00000000               -0.09098214               -0.13824756                0.45524645               -0.00366413               -0.39324877               -0.39536514
               6.34308046                1.83105234               45.15352599                0.39748204                0.51500474                0.06902444               -0.09028443               -0.66191890                0.90932261               -1.33767096
               7.35322223                1.52158907               45.03391035                0.48821127                0.83821945               -0.03909435               -0.77074113               -0.28270177                1.84499111                0.47368189
               8.35984484                1.20693984               44.91135302                0.58276128                0.59004412                0.29830233               -1.30498900               -0.28417247                1.97938271                0.07640183
               9.36502311                0.89375129               44.79430861                0.56340935                0.40080962                0.50670900               -1.64722670               -0.13047506                3.18452168               -0.87064706
              10.36786104                0.58675289               44.69526256                0.59714251                0.20214431                0.50533582               -1.38343986               -0.17249384                3.80403291               -0.08878924
              11.36906599                0.28999349               44.59149672                1.00000000                0.19017297                0.22963586               -0.77943004               -0.17856210                1.90158618                0.91769366
              12.37166450               -0.00177952               44.45710982                1.00000000                0.30901894                0.31083042               -1.05778437                0.00259286                0.22372247                0.23189259
              13.37524637               -0.29263341               44.32045934                1.00000000                0.35818763                0.41118580               -1.35308218               -0.01065844                0.09759379               -0.72439563
               3.64116381                3.70966578               45.52819159                1.00000000               -0.30310778               -0.46791801                1.35094395               -0.01042650               -0.00936681                1.87966842
               4.63813273                3.41818743               45.37956215                1.00000000               -0.22506712               -0.25256239                0.81391939                0.00937465                0.11504734                0.30726401
               5.63666246                3.12575967               45.23371457                0.81641515               -0.06795477               -0.04519353                0.26039311               -0.05874545                0.38284421               -0.99282309
               6.63677363                2.83207979               45.09026233                0.03083927                1.18193350                0.12306940               -0.29726021               -0.99226498                3.51547635               -1.80132982
               7.66030113                2.52030901               45.00646457                0.00010000                1.58925308                0.01419074               -1.14952241               -2.01534084                5.08259476               -0.82052742
               8.66855869                2.21058680               44.89073614                0.00010000                0.61228685                0.44312817               -1.68505209               -1.86881824                3.43293167                0.07852736
               9.67254687                1.90060470               44.77156574                0.04012209               -0.05231116                0.76565034               -2.12374075               -1.71667075                5.67878440                0.61034621
              10.66751247                1.59403956               44.69928448                0.05450212               -0.59666111                0.78019725               -2.00281551               -1.29421663                7.41255908                0.55832133
              11.66061365                1.29222993               44.61805382                0.35668492               -0.25377770                0.10880957               -0.58247177               -0.68418842                3.82573047                1.58426036
              12.66243692                1.00110309               44.48441770                1.00000000                0.24371242                0.25522446               -0.91620364               -0.05469588                0.77663786                0.70552935
              13.66548790                0.71127284               44.34322491                1.00000000                0.30509794                0.36425610               -1.18102499               -0.01794453                0.36591602               -0.69162663
               3.93140778                4.70513756               45.47391080                1.00000000               -0.24140757               -0.43031711                1.14395070               -0.02389624                0.11861603                1.67954406
               4.92899370                4.41597956               45.31783409                1.00000000               -0.17764588               -0.18022924                0.61626010               -0.00898372                0.24362090                0.08632933
               5.92785486                4.12593112               45.16447860                0.37153469               -0.01539438                0.05606310                0.09423950               -0.13635956                1.10373826               -1.49073194
               6.92868581                3.83351372               45.02540772                0.00010000                0.32767699                0.21351432               -0.46678595               -1.17349983                4.95641603               -2.28693304
               7.93440840                3.52187289               44.94853168                0.00010000                0.67434872                0.31621021               -1.04057662               -2.89781340                8.00670605               -1.36642264
               8.94217279                3.21580240               44.86823160                0.00010000                0.64142693                0.45939819               -1.49922108               -2.88075307                7.86316232                0.49348314
               9.94723694                2.90906430               44.78723766                0.00010000                0.40893433                0.61142550               -1.74863749               -2.84373513                8.04090831                2.29103252
              10.95035147                2.60235683               44.71134180                0.00010000                0.05408759                0.52048122               -1.59958097               -2.50201007                9.13247832                1.70225321
              11.94831869                2.29216968               44.65537046                0.00010000                0.05880978                0.20567692               -0.56832729               -1.10129297                5.66615096                0.41798691
              12.95152767                2.00332497               44.51862518                0.39689135                0.31146470                0.01879915               -0.84209164               -0.07150318                0.89617645                1.75677724
              13.95454798                1.71465171               44.36855307                0.87356832                0.30203134                0.10844859               -1.04234563                0.05392913                0.18279135                0.12689822
               4.21900188                5.70105944               45.41631880                1.00000000               -0.18423860               -0.37923090                0.93002297               -0.04601360                0.24994425                1.31319206
               5.21715950                5.41458284               45.25307740                0.69707874               -0.13003871               -0.08319769                0.41588059               -0.05210474                0.40717597               -0.37793097
               6.21640111                5.12688093               45.09311319                0.13444427                0.01011858                0.17486239               -0.08361753               -0.21960619                1.49689917               -1.86439898
               7.21736187                4.83635008               44.95141871                0.00010000                0.18275386                0.22490230               -0.61815054               -1.32064460                7.33753019               -1.49538864
               8.22005619                4.52663321               44.90755641                0.00010000                0.31951752                0.46099827               -0.98509717               -2.32202182               11.73137435                0.14407606
               9.22375222                4.21977476               44.85123388                0.00010000                0.45307773                0.40115125               -1.39154385               -2.40597469               10.96619071                1.19712953
              10.22911774                3.91283321               44.79066055                0.00010000                0.53073371                0.30839097               -1.61995672               -2.48514203               10.75180253                2.01757720
              11.23436689                3.60444918               44.72976219                0.00010000                0.42509545                0.16390028               -1.57917465               -2.39413706               10.21521476                2.17833886
              12.23761965                3.29634347               44.65957479                0.00010000                0.20789642                0.30948141               -1.46130899               -1.33715206                8.40441459                0.69883628
              13.23852482                3.00147907               44.56775233                0.26971182                0.31466754               -0.25464667               -0.80496752               -0.33841310                3.48847603                2.81185445
              14.24391300                2.71344181               44.40821100                0.76937401                0.53881788               -0.30754939               -1.00405514                0.16302886                0.09858516                0.81482000
               4.50344069                6.69755294               45.35507086                1.00000000               -0.13105740               -0.31069155                0.71539527               -0.04224883                0.08699560                0.98026710
               5.50213011                6.41431561               45.18196814                0.49731122               -0.08725917                0.01191411                0.19579984               -0.06940333                0.43212101               -0.75875920
               6.50169550                6.12942837               45.01586493                0.03635299                0.01952626                0.32736321               -0.29499639               -0.43882369                3.37428958               -2.38054991
               7.50252064                5.83801177               44.90138952                0.00010000                0.14238872                0.08782318               -0.34683970               -1.52799304               10.52887404                1.26789754
               8.50454328                5.53109285               44.87708038                0.00010000                0.26663299                0.42226802               -0.97132747               -2.31389546               14.51119215                1.06044636
               9.50785330                5.22382543               44.83868577                0.00010000                0.41582026                0.39592810               -1.37984377               -2.39308433               13.72992597                1.73498740
              10.51285968                4.91523212               44.79604088                0.00010000                0.55525893                0.24694325               -1.66161230               -2.51446374               13.34956430                2.41672670
              11.51895848                4.60563484               44.74845284                0.00010000                0.58430362                0.10948579               -1.81381860               -2.36374215               12.65996928                2.74839531
              12.52454575                4.29835931               44.69268046                0.00010000                0.43512955                0.06320225               -1.79152437               -1.61694327               11.31001510                2.97657450
              13.52766107                3.99823204               44.62319506                0.25902805                0.46686652               -0.19864985               -0.98533612               -0.49364887                5.13620459                2.88642858
              14.53388308                3.70850072               44.45133839                0.77023677                0.62220183               -0.31831099               -1.30849907                0.06896074                0.02576823                0.33514422
               4.78463158                7.69484560               45.29105675                0.98841183               -0.07355725               -0.22993377                0.50263119               -0.03435361                0.02437091                0.78732819
               5.78389601                7.41482113               45.10930813                0.40237835               -0.03515541                0.07521997               -0.00547939               -0.04388531                0.31305405               -0.83651107
               6.78392847                7.13342819               44.93335992                0.00010000                0.06207574                0.42858278               -0.50486917               -0.74982432                6.86093268               -2.69201588
               7.78513752                6.83810654               44.88228928                0.00010000                0.20180733                0.16601862               -0.49888457               -1.69921062               14.35857917                1.57071737
               8.78796462                6.53507857               44.85243070                0.00010000                0.33068709                0.39780654               -1.03559744               -2.19615845               15.97290761                1.41181898
               9.79175126                6.22769333               44.82975975                0.00010000                0.45272198                0.39692260               -1.45161112               -2.45974538               16.40594602                2.02554485
              10.79701906                5.91777208               44.80481543                0.00010000                0.61068000                0.28275374               -1.80457893               -2.61057285               16.19568915                2.81152856
              11.80396486                5.60663890               44.77502364                0.00010000                0.78322628                0.11376529               -2.11018509               -2.49922463               15.52744798                3.63503130
              12.81268358                5.29760751               44.73585588                0.00059581                0.72727818               -0.13118756               -2.30225110               -1.66501729               13.67240887                4.24472823
              13.81851043                4.99750608               44.67201002                0.26378917                0.60356304                0.06336771               -1.31891619               -0.46604986                6.11543824                2.34247605
              14.82475484                4.70707559               44.48647527                0.77874479                0.62444167                0.07369822               -1.79451417                0.04043904                0.05958554               -0.51354499
               5.06280257                8.69295427               45.22608864                0.97319256               -0.01327523               -0.14896835                0.29269325               -0.03138722                0.00791747                0.72519120
               6.06266982                8.41582001               45.03635647                0.37856747                0.03055167                0.12070983               -0.20221795               -0.00486979                0.12954652               -0.82532404
               7.06341360                8.13800002               44.84901958                0.00010000                0.21081141                0.44272334               -0.70179738               -0.90226035                9.03741748               -2.71405373
               8.06688604                7.84133214               44.83710662                0.00010000                0.38098609                0.39388125               -0.86065629               -1.82219620               18.20214909               -0.08726604
               9.07103332                7.53904898               44.82778092                0.00010000                0.45394218                0.41191393               -1.19403288               -2.12637238               18.76048726                1.16142106
              10.07596489                7.23176388               44.82160384                0.00010000                0.53346664                0.42133363               -1.58225313               -2.38021505               19.22825014                1.96557246
              11.08170266                6.92088719               44.81642605                0.00010000                0.65868287                0.37006045               -1.99062876               -2.61116993               19.37193052                2.93140568
              12.08913854                6.60791014               44.80862110                0.00010000                0.93377856                0.21516909               -2.49222026               -2.69108426               18.84183538                4.29614824
              13.10037823                6.29573555               44.78965166                0.01692097                0.98667237               -0.12479047               -3.10001255               -1.69307826               15.46006324                5.92423032
              14.10887199                5.99949939               44.71445058                0.27375915                0.75873041                0.30547910               -1.66091797               -0.33723743                6.28676808                1.89033199
              15.11555284                5.70997469               44.51415041                0.78645821                0.66808430                0.44904754               -2.26752536                0.04636225                0.08418454               -1.09908495
               5.33827236                9.69186624               45.16094914                0.95658427                0.04804985               -0.06793970                0.08663172               -0.03116727                0.00789050                0.72841096
               6.33875286                9.41723532               44.96362281                0.41446418                0.10493845                0.16167449               -0.40339612                0.01392331               -0.03978616               -0.78058068
               7.34037113                9.14228266               44.76523991                0.00010000                0.44458898                0.40095950               -0.89422155               -0.98844133               10.76950562               -2.38434124
               8.34764464                8.84598417               44.78366380                0.00010000                0.73171521                0.41171164               -1.09435988               -1.86812260               21.71432847               -0.50009690
               9.35500543                8.54331685               44.79754542                0.00010000                0.73320566                0.35806036               -1.38812924               -1.90481228               21.82487417                0.68560564
              10.36230875                8.23612000               44.81108502                0.00010000                0.68219826                0.44006188               -1.74825272               -2.01521454               22.27025841                1.55004860
              11.36864940                7.92517329               44.82696464                0.00010000                0.64930341                0.52293027               -2.19058659               -2.27811922               22.90855628                2.53379206
              12.37529482                7.61094228               44.84719954                0.00010000                0.92916858                0.47052974               -2.82245269               -2.66162609               23.16882866                4.15975444
              13.38723277                7.29511171               44.86339326                0.04275434                1.11158641                0.16738401               -4.14888046               -1.74040168               16.77855521                8.04641911
              14.39752655                7.00361566               44.75240153                0.28722620                0.87493646                0.49094492               -1.95172601               -0.20801394                5.24593036                1.60590250
              15.40473150                6.71605654               44.53702733                0.79044317                0.72049513                0.70744880               -2.66176780                0.04302539                0.09787149               -1.44266887
               5.61144105               10.69159547               45.09615039                0.94202839                0.10908085                0.01279976               -0.12352329               -0.03155842               -0.01335933                0.65369636
               6.61253186               10.41905350               44.89122598                0.47468341                0.17274410                0.20361014               -0.60500743                0.00639664                0.01560965               -0.63378070
               7.61489593               10.14601921               44.68671644                0.00010000                0.79787705                0.37288409               -1.07981670               -1.11685497               12.45844753               -1.48073155
               8.62848940                9.84956637               44.73016892                0.00010000                1.39526568                0.05678556               -1.29803571               -1.46337711               24.78441362               -0.34265647
               9.64280125                9.54621019               44.76393271                0.00010000                1.26573825                0.20698527               -1.58230371               -1.25842910               24.64249316                0.31562534
              10.65380416                9.24056512               44.79534070                0.00010000                0.92583739                0.42731861               -1.93428293               -1.18449747               25.14770371                0.85292488
              11.66131799                8.93134580               44.83089796                0.00010000                0.60817196                0.67901532               -2.39161490               -1.41333041               26.29461267                1.49814191
              12.66596760                8.61732074               44.87786293                0.00010000                0.57894094                0.89406298               -3.06137478               -1.94095127               28.87855541                2.77350248
              13.67289681                8.29908323               44.95860337                0.08848060                0.88996364                0.82355849               -4.29524173               -1.56961135               18.33206384                5.98670214
              14.68376688                8.00931829               44.78762283                0.30872428                0.93173816                0.61211228               -2.15531753               -0.24010038                2.95368093                1.24904814
              15.69153158                7.72412366               44.55648923                0.78340319                0.77646988                0.86208364               -2.96633449                0.02488657                0.02975954               -1.35655315
               5.88272515               11.69212223               45.02956213                0.98454641                0.17319060                0.05267591               -0.33081478                0.04693911                0.34850193                0.56491616
               6.88445705               11.42130753               44.82107413                0.79305176                0.23980012                0.22540312               -0.80995025                0.07342498                0.74682873               -0.50206458
               7.88752115               11.14974034               44.62032121                0.45897847                1.68645321                0.37211318               -1.27869230               -1.44686068               14.23222616               -0.84052051
               8.91818612               10.84711988               44.68100972                0.34068917                2.56584790               -0.24464967               -1.50572032               -1.14451741               27.24791726               -0.29285579
               9.93883811               10.54745656               44.72827509                0.33088025                1.76485369                0.12463699               -1.79160959               -0.51898915               26.93466771                0.07669012
              10.95348319               10.24466637               44.77264672                0.34058787                1.23945317                0.41012537               -2.13934439               -0.46724567               27.48003891                0.38220386
              11.96362717                9.93875359               44.82194686                0.36913344                0.76275837                0.74077930               -2.58962440               -0.56122398               28.95387413                0.76486855
              12.96873836                9.62882354               44.88788041                0.45367432                0.01079093                1.15028008               -3.25466533               -1.08146037               32.03962975                1.67544478
              13.96384299                9.31158288               44.99030238                0.57099841               -0.05271233                1.24996410               -3.99420879               -1.55366390               20.89623763                3.04167811
              14.96768411                9.01585790               44.81707731                0.67500019                0.58877472                0.65396155               -2.26087765               -0.52250944                3.97631404                1.02415641
              15.97561848                8.73329822               44.57932999                0.89097302                0.79343719                0.91745536               -3.13076284                0.15272196                0.84101178               -1.08286808
               3.18737715                1.79441816               46.66310863                1.00000000               -0.48705993               -0.55351890                1.90183666               -0.11483984               -1.22055836                1.12373303
               4.18250655                1.48982015               46.51489870                1.00000000               -0.41540407               -0.34959125                1.27825203               -0.06363064               -1.67449967                0.19488102
               5.17906907                1.18452204               46.35831996                1.00000000               -0.28887324               -0.15715480                0.64873059               -0.07956789               -1.77002995               -0.20863057
               6.17672908                0.87674292               46.20876748                0.69761741               -0.35937039                0.09257519                0.01663380               -0.60531933               -1.42946583               -0.94565787
               7.17188166                0.55555904               46.05969893                0.74456486               -0.08377330                0.13729814               -0.58501583               -0.20266636               -1.08854427                0.17665707
               8.17505362                0.22631310               45.92092320                0.79832055                0.55432897                0.31830055               -1.14058726               -0.22651795               -0.37444012               -0.02028032
               9.18296824               -0.10210870               45.78961089                0.78553416                1.06805594                0.45438403               -1.60828560               -0.04873283                0.74642422               -0.45358920
              10.19641474               -0.42283885               45.67581210                0.81993316                1.21315191                0.40111056               -1.61011857               -0.04217314                1.46585259               -0.29135201
              11.20723128               -0.72879507               45.55819710                1.00000000                0.75311391                0.21214241               -0.97009959               -0.17856159                0.58121918                0.82319685
              12.21147702               -1.02930932               45.42056977                1.00000000                0.43197715                0.33080117               -1.22805384               -0.04586585               -0.52511959                0.09051601
              13.21587082               -1.32850213               45.28054877                1.00000000                0.43938045                0.44600344               -1.57357422               -0.07480160               -0.62871562               -0.60293960
               3.49082675                2.78888297               46.59845723                1.00000000               -0.40084508               -0.53642323                1.67780924               -0.00854136               -0.29295230                1.49969724
               4.48681830                2.48632424               46.45030832                1.00000000               -0.30073741               -0.32279788                1.05548002                0.03466431               -0.47198633                0.28594058
               5.48481201                2.18295049               46.29910972                1.00000000               -0.08304557               -0.12642934                0.42301121                0.00147917               -0.41891726               -0.38661536
               6.48515739                1.87766867               46.15210813                0.42551405                0.51289505                0.12145237               -0.20001734               -0.72773025                0.82479019               -1.32185728
               7.49506991                1.55693202               46.02545843                0.52433479                0.82324569                0.02452520               -0.91343635               -0.33574797                1.70608470                0.40622154
               8.50162231                1.22949610               45.89714366                0.63531468                0.59934884                0.38921444               -1.52722110               -0.33544360                1.96802385                0.01465031
               9.50705688                0.90243514               45.77603933                0.63852063                0.38569430                0.65929946               -2.01916346               -0.17967793                3.59831005               -1.04350638
              10.50933619                0.58117226               45.67973285                0.65522182                0.08120063                0.74983606               -1.83560193               -0.21503269                4.83063801               -0.53816169
              11.50868090                0.27332636               45.58411998                1.00000000                0.07678476                0.19834678               -0.67796321               -0.34226487                2.48922404                0.94277879
              12.51087189               -0.02600131               45.44676062                1.00000000                0.28173576                0.29883381               -1.00499640               -0.00143279                0.23091248                0.23179602
              13.51431561               -0.32404209               45.30697874                1.00000000                0.34437247                0.41781005               -1.35374629               -0.02179923                0.09246273               -0.66477416
               3.79232378                3.78368969               46.54216392                1.00000000               -0.31914609               -0.50044228                1.45009973               -0.01015550               -0.01827687                1.87158105
               4.78913232                3.48336420               46.38780464                1.00000000               -0.22847773               -0.26043327                0.83626980                0.01120598                0.09553249                0.31407091
               5.78775422                3.18199345               46.23607468                0.81968391               -0.04696819               -0.02876385                0.20871758               -0.06497617                0.35518410               -0.96177544
               6.78819295                2.87917197               46.08673974                0.03653159                1.27925236                0.17409089               -0.41560293               -1.11348355                3.33637319               -1.77370387
               7.81333927                2.55604954               45.99392241                0.00010000                1.73243346                0.09983378               -1.35744721               -2.22627499                4.84758649               -0.67488957
               8.82284162                2.23409738               45.87227488                0.01620815                0.71796290                0.60941332               -1.99822542               -2.13418506                3.40703903                0.27228777
               9.82769853                1.91107729               45.74791225                0.07220181               -0.08093749                1.05133815               -2.58890729               -2.03316457                5.98583907                0.81093635
              10.82122287                1.59215787               45.67546148                0.09908121               -1.00694913                1.19763424               -2.98178717               -1.78956313                9.06990797                0.63873390
              11.80755954                1.27517187               45.61302298                0.34286541               -0.62030310                0.06871308               -0.40328011               -1.08837526                4.86129241                1.47512021
              12.80881681                0.97666736               45.47579427                1.00000000                0.19784305                0.22194988               -0.79117562               -0.07274026                0.71462041                0.65973400
              13.81151640                0.67985407               45.33179329                1.00000000                0.26995960                0.35275191               -1.11620137               -0.03357430                0.33543619               -0.62893664
               4.09127464                4.77887412               46.48570426                1.00000000               -0.25359721               -0.45392203                1.21965121               -0.02639061                0.11335729                1.66519502
               5.08873867                4.48111557               46.32401175                1.00000000               -0.17849625               -0.17987748                0.61979912               -0.01154990                0.23826834                0.09299724
               6.08770471                4.18237521               46.16506477                0.36159168                0.00464829                0.08037177                0.02066184               -0.14691717                1.08202172               -1.44703407
               7.08883163                3.88115049               46.02005172                0.00010000                0.39571377                0.26699044               -0.61209323               -1.27598492                4.90786501               -2.21926392
               8.09561899                3.55892869               45.93712261                0.00010000                0.75396105                0.45474347               -1.25459883               -3.13856853                8.00423797               -0.98837505
               9.10391085                3.24168437               45.85195629                0.00010000                0.63570591                0.69023979               -1.76687597               -3.19712517                8.01063386                0.95432529
              10.10833311                2.92346191               45.76825607                0.00010000                0.27697506                0.94200536               -2.07362302               -3.22707133                8.50308424                2.85479063
              11.10945035                2.60512494               45.69439222                0.00010000               -0.29645999                0.82159195               -1.78471766               -3.28790588               10.23082582                2.30091640
              12.10240391                2.27470062               45.65042415                0.00010000               -0.23577389                0.47354971               -0.41056619               -1.49131357                6.37461373               -0.22867537
              13.10473488                1.97843769               45.51101966                0.33923831                0.24333923                0.00955186               -0.66051564               -0.02556677                0.84088524                1.62955646
              14.10727069                1.68301295               45.35883669                0.82954327                0.25358152               -0.01446539               -0.91744469                0.14795641                0.15650514                0.10920579
               4.38731306                5.77461125               46.42587651                1.00000000               -0.19128300               -0.39437128                0.98536628               -0.05074952                0.25002107                1.29655727
               5.38540023                5.47976665               46.25717357                0.67613737               -0.12660461               -0.07345612                0.40070618               -0.05822016                0.41469412               -0.38064385
               6.38478097                5.18360088               46.09189826                0.12376187                0.03597722                0.20994739               -0.16555402               -0.23441819                1.49736059               -1.84397295
               7.38611977                4.88451177               45.94448911                0.00010000                0.26265262                0.26128835               -0.76824875               -1.37213379                7.40960041               -1.17293288
               8.39003402                4.56514441               45.89684967                0.00010000                0.41230657                0.58828227               -1.17027070               -2.42913358               11.87910223                0.48332908
               9.39436590                4.24790218               45.83632858                0.00010000                0.48412549                0.58758625               -1.60630819               -2.53964846               11.18655788                1.59134204
              10.39971653                3.92991740               45.77363219                0.00010000                0.49300691                0.51594670               -1.80350852               -2.67702250               11.20176645                2.39987181
              11.40422604                3.60858971               45.71371349                0.00010000                0.23519981                0.32411964               -1.64814650               -2.75128370               10.85617180                2.31922737
              12.40442052                3.28464286               45.64572201                0.00010000               -0.21164480                0.78906209               -1.33212953               -1.58744156                9.25102913                0.09075858
              13.39999315                2.97685839               45.56049228                0.23542601                0.04522486               -0.16713973               -0.64661716               -0.42597714                3.93986288                2.62217813
              14.40532502                2.67956477               45.39871670                0.74382648                0.53318752               -0.54650175               -0.92870067                0.28528591                0.09936467                0.47069900
               4.67994886                6.77098670               46.36241764                1.00000000               -0.13642296               -0.31997422                0.75751240               -0.04326845                0.07564220                0.96690257
               5.67858463                6.47964645               46.18380546                0.47952826               -0.08388190                0.02629436                0.17052524               -0.07177356                0.43337002               -0.75995611
               6.67827122                6.18657416               46.01246361                0.02588426                0.06304013                0.36988035               -0.39434186               -0.47392896                3.63282177               -2.37272446
               7.67984543                5.88637625               45.89755347                0.00010000                0.26873448                0.13719403               -0.42653669               -1.50542840               10.73901238                1.56702444
               8.68364591                5.57069434               45.86657505                0.00010000                0.42497307                0.50871024               -1.13997033               -2.31080477               14.53845285                1.35225234
               9.68834489                5.25343609               45.82412615                0.00010000                0.52296082                0.50870926               -1.54676005               -2.43701445               13.96645483                2.05375150
              10.69410513                4.93378084               45.77888057                0.00010000                0.56771620                0.36783848               -1.78599611               -2.61107665               13.73862813                2.66276462
              11.69969922                4.61160733               45.73029804                0.00010000                0.41406327                0.28520923               -1.83540869               -2.54663797               13.21024428                2.74678100
              12.70238639                4.29048186               45.67557658                0.00010000                0.07971059                0.38874023               -1.65829234               -1.86866853               12.23693443                2.68855918
              13.70129343                3.97509490               45.61365535                0.23539625                0.25886361               -0.05421546               -0.94167235               -0.58124406                5.73525384                2.62866903
              14.70756366                3.67208291               45.43798908                0.75257591                0.62702355               -0.46577735               -1.42249852                0.09750668                0.04418366               -0.26975051
               4.96912818                7.76821177               46.29622515                0.98932622               -0.07508828               -0.23602581                0.53407302               -0.03494891                0.01971125                0.77733823
               5.96837729                7.48029253               46.10910034                0.38741637               -0.02777961                0.08932244               -0.03767103               -0.04119692                0.31167292               -0.82631455
               6.96857258                7.19099849               45.92784728                0.00010000                0.17568661                0.47038304               -0.60305380               -0.76993784                7.11661907               -2.67599728
               7.97189103                6.88725565               45.87644623                0.00010000                0.40927500                0.23597540               -0.68219525               -1.66486904               14.65264497                1.57183603
               8.97675808                6.57531861               45.84139255                0.00010000                0.53240433                0.44417725               -1.18340047               -2.17481422               16.09909982                1.62156151
               9.98253911                6.25807637               45.81460175                0.00010000                0.62828352                0.44442464               -1.59131671               -2.46393535               16.65395370                2.27353810
              10.98932375                5.93727417               45.78634423                0.00010000                0.70265754                0.34747188               -1.89767155               -2.62846774               16.54042209                2.99061602
              11.99659226                5.61429390               45.75401502                0.00010000                0.71179185                0.23611380               -2.09876533               -2.50748254               15.97940267                3.59068968
              13.00355959                5.29241767               45.71385299                0.00010000                0.50874752                0.09255027               -2.12446153               -1.77945405               14.65846510                3.80146483
              14.00676721                4.97577408               45.65861859                0.24717017                0.48697658                0.18625461               -1.37405388               -0.54423029                6.85302686                2.07542181
              15.01329912                4.67024922               45.46754631                0.76639456                0.65319095                0.08159957               -2.03352598                0.05892893                0.08603391               -1.08745197
               5.25508835                8.76626618               46.22911202                0.96684839               -0.01143827               -0.15454005                0.31438653               -0.03366694                0.01081434                0.71902692
               6.25497397                8.48143290               46.03414497                0.36575338                0.04104968                0.13664749               -0.24239976               -0.00036562                0.13067275               -0.81677842
               7.25590934                8.19598182               45.84153918                0.00010000                0.36269816                0.48299263               -0.80061699               -0.92025433                9.21199123               -2.69044931
               8.26222793                7.89109576               45.82778322                0.00010000                0.67097864                0.42329110               -1.01002528               -1.84670017               18.51736950               -0.09510206
               9.26932891                7.57957788               45.81518596                0.00010000                0.74413510                0.40858479               -1.33620568               -2.14643442               19.02810152                1.30150406
              10.27711063                7.26232459               45.80520446                0.00010000                0.79946639                0.40686937               -1.70607791               -2.38328232               19.51562390                2.15599674
              11.28531824                6.94073028               45.79607861                0.00010000                0.86477189                0.37352306               -2.07780914               -2.59247569               19.66622137                3.07609136
              12.29440607                6.61632961               45.78366126                0.00010000                0.99994394                0.25300721               -2.47991239               -2.60311665               19.11130571                4.22986770
              13.30531712                6.29233286               45.75994253                0.00710404                0.90856008               -0.00301676               -2.83840869               -1.73453413               16.56722303                5.19348764
              14.31257727                5.97881999               45.69727355                0.26143474                0.72374260                0.39866302               -1.77862770               -0.42949305                7.28113878                1.67891825
              15.31979197                5.67371490               45.49009375                0.77734752                0.72147033                0.51835487               -2.55989638                0.06043872                0.10451973               -1.53947464
               5.53812139                9.76512097               46.16187102                0.95144608                0.05329459               -0.07228983                0.09895351               -0.03228594                0.00727515                0.72087631
               6.53865434                9.48302548               45.95934395                0.40407209                0.11916204                0.18000252               -0.45358881                0.01857192               -0.03803642               -0.77326038
               7.54050464                9.20065834               45.75580746                0.00010000                0.63533093                0.43855392               -0.99692641               -1.03943394               10.92872829               -2.35473295
               8.55136096                8.89572148               45.77212858                0.00010000                1.10479682                0.37756462               -1.22106990               -1.94641195               22.04063773               -0.44533212
               9.56260057                8.58349031               45.78307750                0.00010000                1.11800556                0.28426869               -1.51602576               -1.95227942               22.14913468                0.79081864
              10.57372107                8.26621375               45.79305647                0.00010000                1.04343224                0.36410552               -1.86362662               -2.02371835               22.60053197                1.68792589
              11.58346922                7.94474463               45.80454411                0.00010000                0.96031359                0.46664392               -2.28501684               -2.25798770               23.17609255                2.64036193
              12.59292734                7.61935404               45.81833877                0.00010000                1.14546570                0.47300353               -2.89996033               -2.57579641               23.10829647                4.13333429
              13.60637853                7.29235733               45.82216825                0.02946241                1.19339863                0.21720815               -3.94054377               -1.76355274               18.05233340                7.41855382
              14.61679531                6.98374735               45.73205006                0.27755181                0.91697681                0.56587456               -2.11602717               -0.29311886                6.70452869                1.47730560
              15.62471807                6.68061632               45.50880414                0.78324624                0.79227521                0.79513733               -2.98062955                0.05032272                0.11418802               -1.76118695
               5.81863360               10.76482038               46.09491213                0.93695601                0.11744296                0.01148189               -0.12255166               -0.03253886               -0.01194704                0.64389089
               6.81980802               10.48503295               45.88490046                0.46616998                0.18955364                0.22318814               -0.66263798                0.00869555                0.02168301               -0.62674258
               7.82242467               10.20475290               45.67539262                0.00010000                1.03298495                0.40865897               -1.18944505               -1.23233378               12.61084688               -1.45308379
               8.84046772                9.89864706               45.71663589                0.00010000                1.86831906               -0.06617933               -1.41898565               -1.57109546               25.11419723               -0.30181168
               9.85979105                9.58526326               45.74755636                0.00010000                1.74571092                0.07498810               -1.70397053               -1.30470662               24.99684290                0.37980229
              10.87538194                9.26960670               45.77546686                0.00010000                1.36135760                0.30334863               -2.04559673               -1.18978972               25.50926585                0.93156023
              11.88701820                8.95006316               45.80636927                0.00010000                0.99477480                0.57890609               -2.49861014               -1.37927008               26.57520753                1.55635362
              12.89527744                8.62578968               45.84616507                0.00010000                0.93172792                0.84867122               -3.21356882               -1.85150646               28.70501020                2.74210876
              13.90565276                8.29667703               45.91118221                0.07009962                1.15892342                0.93314701               -4.89294029               -1.47869837               19.75657934                6.03730543
              14.91845591                7.99013748               45.76505255                0.30258189                1.07038621                0.67839843               -2.35554122               -0.31966418                4.64705287                1.21967983
              15.92706048                7.68961765               45.52505348                0.77781355                0.86045772                0.96188648               -3.30932248                0.02815491                0.03090497               -1.54871025
               6.09704548               11.76535060               46.02619879                0.98197791                0.18502556                0.05302205               -0.34064073                0.05505269                0.34014079                0.55591806
               7.09889574               11.48748925               45.81264237                0.78957567                0.25991878                0.24562939               -0.87840375                0.08281713                0.74554401               -0.49637876
               8.10224386               11.20883152               45.60695342                0.45648381                2.02664778                0.40786254               -1.40090182               -1.67264894               14.37359479               -0.81757584
               9.13942869               10.89439789               45.66535914                0.34067125                3.16514709               -0.42491648               -1.63615250               -1.29597585               27.57183790               -0.28614523
              10.16554680               10.58499007               45.70976138                0.33099270                2.28483423               -0.02731851               -1.92339723               -0.53028335               27.29719967                0.09621364
              11.18512538               10.27228073               45.75067844                0.34033056                1.70770166                0.26740293               -2.26052411               -0.45902258               27.87205109                0.40465527
              12.19970083                9.95632275               45.79540737                0.36815703                1.20789822                0.62595960               -2.70422238               -0.52940011               29.26631708                0.76544968
              13.20928334                9.63632746               45.85385359                0.44078739                0.63779667                1.05377838               -3.46553508               -0.86453379               32.11585325                1.58660051
              14.21245676                9.31102027               45.94547841                0.56024256                0.40890347                1.43432435               -4.78990912               -1.27020702               22.35159757                3.37104688
              15.21746141                8.99731531               45.79335317                0.67324179                0.69320297                0.71778354               -2.48458312               -0.65776092                5.53840683                1.04616620
              16.22632082                8.69985405               45.54618294                0.88847809                0.88594140                1.02363976               -3.48640178                0.17990726                0.87339230               -1.20627407
               3.32645712                1.87140801               47.68285253                1.00000000               -0.52414502               -0.59734422                2.05257818               -0.12932034               -1.21923307                1.11460085
               4.32121567                1.55747354               47.52798372                1.00000000               -0.44846131               -0.36298571                1.34029147               -0.07255536               -1.67513808                0.19348116
               5.31748790                1.24277248               47.36475268                1.00000000               -0.32089350               -0.14245285                0.63661418               -0.09282772               -1.77038587               -0.20966275
               6.31479780                0.92510484               47.20853744                0.70609067               -0.47859161                0.15380887               -0.06511674               -0.64039722               -1.38540332               -0.92929093
               7.30791606                0.59310504               47.05362970                0.75739150               -0.28971021                0.23849777               -0.62663548               -0.22729817               -0.99335921                0.14988932
               8.30900360                0.25177423               46.90917403                0.81692189                0.35464697                0.41069432               -1.19839008               -0.26607695               -0.30555191               -0.02209079
               9.31500900               -0.09145813               46.77264692                0.81084106                0.94658928                0.60379428               -1.75812844               -0.13638551                0.94386400               -0.50019991
              10.32793538               -0.42973571               46.65806968                0.83166205                1.37550963                0.60759747               -1.96160591                0.03145336                2.11228331               -0.49832989
              11.34251920               -0.74774460               46.54874352                1.00000000                0.94843582                0.17677794               -0.87477419               -0.36710745                1.28053642                0.86071850
              12.34690410               -1.05568488               46.40820900                1.00000000                0.44708868                0.33167852               -1.22468371               -0.05426225               -0.44816966                0.10238751
              13.35146097               -1.36186961               46.26441482                1.00000000                0.45568697                0.46961885               -1.67404279               -0.09863122               -0.60070790               -0.56752153
               3.63909839                2.86543457               47.61588134                1.00000000               -0.42905058               -0.57788212                1.81265158               -0.00610243               -0.29949115                1.48414448
               4.63480788                2.55384369               47.46108307                1.00000000               -0.31772098               -0.33540623                1.10047578                0.04151662               -0.48502654                0.28554888
               5.63274397                2.24134796               47.30316707                1.00000000               -0.07901667               -0.11016886                0.38625038                0.00711951               -0.43472963               -0.37870708
               6.63322755                1.92664293               47.14952564                0.45390499                0.47822096                0.17786406               -0.32115820               -0.75011836                0.77746207               -1.29716201
               7.64230839                1.59549002               47.01564163                0.56347848                0.76984337                0.10209960               -1.04148089               -0.34800481                1.60089600                0.34146013
               8.64862442                1.25588117               46.88080859                0.69662892                0.60458640                0.47228481               -1.72257478               -0.36020890                1.91410758               -0.00931492
               9.65440012                0.91457981               46.75392534                0.73245677                0.38843661                0.80324112               -2.37891422               -0.27364329                3.92841339               -1.11903817
              10.65639315                0.57634027               46.65855052                0.76211242               -0.12887030                1.09452849               -2.51076605               -0.23460565                6.28724792               -1.21981608
              11.65182271                0.25402318               46.57793746                1.00000000               -0.14845839                0.15863800               -0.56887753               -0.68604287                3.44861576                0.94097509
              12.65342398               -0.05236810               46.43700989                1.00000000                0.24183344                0.28618077               -0.92751468               -0.00708430                0.23707012                0.23215556
              13.65665938               -0.35717342               46.29338441                1.00000000                0.32353977                0.43528818               -1.39324014               -0.04365130                0.08083736               -0.60052606
               3.94951684                3.85985037               47.55719358                1.00000000               -0.33842235               -0.53528482                1.56052550               -0.01041748               -0.02517266                1.84872167
               4.94613262                3.55076542               47.39628755                1.00000000               -0.23429010               -0.26865580                0.86187955                0.01547039                0.07973660                0.31722451
               5.94483104                3.24056911               47.23788892                0.81446585               -0.02396258               -0.00905482                0.14880665               -0.06959738                0.33437222               -0.92921907
               6.94565337                2.92866212               47.08195027                0.04300361                1.34433422                0.23680723               -0.55614737               -1.19321733                3.16301752               -1.73830153
               7.97171773                2.59514704               46.97931562                0.01020745                1.85281320                0.18440490               -1.55255101               -2.35809983                4.55695540               -0.48743306
               8.98270963                2.26121993               46.85077163                0.03790684                0.86796584                0.74770150               -2.28413953               -2.39563803                3.27808207                0.57793612
               9.98907704                1.92460669               46.71978760                0.10657949                0.05451330                1.29301806               -2.98361765               -2.43012446                5.87971091                1.22347330
              10.98379990                1.59215486               46.63964873                0.15992594               -1.57851682                1.68914418               -4.15088757               -2.63858832               11.27586912                0.98220533
              11.95750671                1.25542816               46.60998822                0.33930694               -1.29204425                0.04369818               -0.20533988               -1.73776562                6.57338856                1.26597547
              12.95795901                0.95003873               46.46859419                1.00000000                0.13459372                0.17930956               -0.61385130               -0.10415761                0.63007826                0.61283764
              13.96019858                0.64683616               46.32090088                1.00000000                0.22395675                0.35429201               -1.09827721               -0.05102544                0.28873748               -0.57171041
               4.25705994                4.85472887               47.49830382                1.00000000               -0.26613886               -0.47865882                1.30622744               -0.03126347                0.11021936                1.63773737
               5.25439856                4.54847057               47.33023007                1.00000000               -0.18023134               -0.17945800                0.62142883               -0.01315023                0.23296542                0.09662815
               6.25345532                4.24116686               47.16489184                0.34900197                0.01933595                0.10167621               -0.04875628               -0.14448770                1.05937664               -1.39241503
               7.25478527                3.93137908               47.01316585                0.00010000                0.45666363                0.33637758               -0.78621926               -1.35198234                4.87425786               -2.15221720
               8.26258859                3.59917812               46.92343971                0.00010000                0.82333650                0.58501578               -1.48516193               -3.32314208                8.00487278               -0.53082994
               9.27125200                3.27083520               46.83289408                0.00010000                0.61370505                0.91059108               -2.05223128               -3.53733625                8.15245659                1.56231184
              10.27486269                2.94044017               46.74576520                0.00010000                0.07739530                1.27997290               -2.44343091               -3.70104672                9.09870397                3.63794011
              11.27279991                2.61012315               46.67564744                0.00010000               -0.78395799                1.13865227               -1.98564922               -4.49712050               11.65700670                3.47928306
              12.25918353                2.25489714               46.64715914                0.00010000               -0.64335376                0.87890239               -0.29677643               -2.02751624                7.39918330               -0.93375810
              13.25993284                1.95121809               46.50541487                0.28240056                0.14302438                0.06241068               -0.45093591                0.06918263                0.85258677                1.45789786
              14.26204402                1.64991242               46.35020417                0.78656502                0.21111837               -0.15663782               -0.83207846                0.33207713                0.13024361                0.01229348
               4.56140818                5.85027719               47.43602613                1.00000000               -0.19765523               -0.40932580                1.05186138               -0.05419546                0.24637661                1.27339355
               5.55943163                5.54717626               47.26109152                0.65451531               -0.11877006               -0.06404254                0.37717784               -0.06607862                0.41753184               -0.38104630
               6.55903278                5.24260263               47.08980211                0.11205538                0.05854152                0.24289956               -0.25995372               -0.23189878                1.49142138               -1.80036920
               7.56060246                4.93538968               46.93605373                0.00010000                0.33829874                0.30080307               -0.93044511               -1.36755566                7.49795552               -0.80245296
               8.56579876                4.60684735               46.88415100                0.00010000                0.50491978                0.72084484               -1.37984984               -2.49034320               12.05269084                0.90731546
               9.57070086                4.27943175               46.81910772                0.00010000                0.49847014                0.78960431               -1.85256413               -2.65081667               11.47683622                2.11146947
              10.57576816                3.95020615               46.75459038                0.00010000                0.43498286                0.76676019               -2.03248138               -2.89530893               11.80731581                2.96773515
              11.57940051                3.61492791               46.69679926                0.00010000                0.00466409                0.50728885               -1.78195552               -3.17662485               11.76708544                2.59615198
              12.57586144                3.27300621               46.63293220                0.00010000               -0.75365627                1.45511814               -1.28603212               -1.84486795               10.36705780               -0.50233994
              13.56432739                2.95128694               46.55481998                0.20388210               -0.32049895                0.07305093               -0.49571992               -0.46410002                4.52994026                2.36591887
              14.56945146                2.64370340               46.38963698                0.71996612                0.51240738               -0.78181649               -0.94718018                0.44440928                0.13930955               -0.07877409
               4.86217791                6.84654236               47.37022111                1.00000000               -0.14263595               -0.32896005                0.80638843               -0.04190177                0.06273526                0.95322143
               5.86075155                6.54718972               47.18537865                0.46260353               -0.07869903                0.03895322                0.14434393               -0.07209061                0.42889842               -0.75457375
               6.86060393                6.24602485               47.00797809                0.01508745                0.12189471                0.41150264               -0.50272212               -0.49562033                3.93515695               -2.35037669
               7.86318944                5.93739514               46.89285879                0.00010000                0.40678639                0.19619190               -0.52305612               -1.41935719               10.98310988                1.88023977
               8.86873965                5.61359502               46.85428097                0.00010000                0.58437176                0.60257729               -1.32974989               -2.23877554               14.58560194                1.70850398
               9.87487688                5.28662729               46.80775057                0.00010000                0.63603492                0.63270146               -1.74429568               -2.43209183               14.29490937                2.46995378
              10.88146035                4.95577537               46.76032095                0.00010000                0.57952373                0.50901036               -1.94935183               -2.68561443               14.28911951                3.02068874
              11.88646735                4.62026893               46.71174467                0.00010000                0.22333924                0.50807827               -1.91117434               -2.75661110               14.00740188                2.85309743
              12.88592714                4.28399951               46.65951462                0.00010000               -0.32568533                0.81323267               -1.60438826               -2.11009723               13.37389147                2.48600361
              13.87995364                3.95267911               46.60436161                0.21529244                0.00860778                0.20546845               -0.94176626               -0.60865836                6.42836766                2.31472625
              14.88609929                3.63427609               46.42288842                0.73661713                0.61456481               -0.52407559               -1.65825682                0.11812844                0.08038319               -1.01417640
               5.15927543                7.84369799               47.30173821                0.99057306               -0.07680994               -0.24267152                0.57147140               -0.03551451                0.01579992                0.76801242
               6.15850733                7.54795532               47.10855471                0.37284486               -0.01802343                0.10255538               -0.07321710               -0.03803704                0.31031826               -0.81034767
               7.15891496                7.25083268               46.92129885                0.00010000                0.30689121                0.51030071               -0.71047134               -0.76152789                7.35887100               -2.64019241
               8.16464515                6.93931351               46.86864537                0.00010000                0.64380679                0.31763077               -0.88391575               -1.57682899               14.97960212                1.56690127
               9.17179109                6.61889890               46.82876269                0.00010000                0.76167557                0.48995518               -1.35524307               -2.08966392               16.31201715                1.88084328
              10.17987866                6.29208578               46.79793342                0.00010000                0.83115689                0.49009012               -1.75645246               -2.40023534               17.00235181                2.58861813
              11.18841423                5.96038635               46.76686200                0.00010000                0.80827481                0.42168844               -2.01453838               -2.59431839               17.04883565                3.24074096
              12.19604416                5.62508947               46.73304833                0.00010000                0.64175420                0.39574056               -2.11681233               -2.50410491               16.67636984                3.62262107
              13.20124932                5.28927086               46.69336665                0.00010000                0.29167390                0.36452685               -2.01361001               -1.87549502               15.77831533                3.48294739
              14.20187764                4.95539631               46.64452894                0.23392222                0.36853757                0.34835867               -1.45009868               -0.58295324                7.59965784                1.77940527
              15.20862007                4.63322189               46.44580475                0.75525685                0.67424301                0.18256355               -2.33214606                0.07773475                0.11517849               -1.66464943
               5.45295296                8.84168893               47.23237637                0.96059634               -0.00968408               -0.16071705                0.34044779               -0.03498052                0.01401555                0.71320189
               6.45285612                8.54924083               47.03150847                0.35302093                0.05311107                0.15296502               -0.28663450                0.00451536                0.13408940               -0.80265319
               7.45401518                8.25623086               46.83300724                0.00010000                0.53652659                0.52509391               -0.91084399               -0.91234858                9.39654035               -2.65270779
               8.46358665                7.94374775               46.81690612                0.00010000                1.00794667                0.44556693               -1.17226806               -1.81472730               18.87256349               -0.04980048
               9.47417411                7.62339412               46.80105680                0.00010000                1.08990326                0.39319651               -1.50252218               -2.10247619               19.37323308                1.48217053
              10.48538471                7.29642909               46.78748229                0.00010000                1.11980880                0.37651678               -1.85026479               -2.31054302               19.90783203                2.39590585
              11.49657029                6.96420914               46.77486987                0.00010000                1.10580153                0.36517600               -2.16869361               -2.48853176               20.12085043                3.26286974
              12.50750074                6.62818374               46.75902286                0.00010000                1.07700549                0.30078367               -2.44755166               -2.45633257               19.65024038                4.17306857
              13.51811040                6.29129004               46.73288349                0.00010000                0.84214051                0.14861194               -2.60023436               -1.76093104               17.74000331                4.58313543
              14.52434355                5.95964628               46.67887802                0.25214382                0.69462196                0.49932266               -1.89159992               -0.51295460                8.18098328                1.45292255
              15.53200284                5.63792736               46.46295248                0.76899386                0.76592826                0.63255895               -2.85392049                0.07245908                0.11718992               -1.93299303
               5.74347202                9.84048365               47.16292821                0.94678043                0.05836794               -0.07717037                0.11420569               -0.03327829                0.00641802                0.71362307
               6.74405570                9.55101462               46.95455103                0.39288833                0.13445212                0.19896964               -0.50635884                0.02399145               -0.03217312               -0.76094344
               7.74616106                9.26133456               46.74530139                0.00010000                0.85658258                0.47903553               -1.11008859               -1.07137540               11.11054978               -2.31528349
               8.76118735                8.94822485               46.75924240                0.00010000                1.54495848                0.32759113               -1.36663885               -1.97743914               22.41749037               -0.35641837
               9.77706023                8.62676283               46.76722490                0.00010000                1.58327149                0.18641170               -1.66808547               -1.94378606               22.55030570                0.93400887
              10.79285278                8.29961611               46.77381249                0.00010000                1.49143589                0.25726331               -1.99522563               -1.96405449               23.03373797                1.86593048
              11.80688895                7.96768987               46.78126430                0.00010000                1.34919133                0.37002346               -2.36627123               -2.14786582               23.57289237                2.77802245
              12.81983661                7.63110515               46.78920034                0.00010000                1.38396013                0.42321787               -2.87917396               -2.38463265               23.34762387                4.07679036
              13.83456815                7.29224310               46.78458238                0.01977045                1.25723100                0.26145666               -3.53120754               -1.73459291               19.36204259                6.51054595
              14.84498123                6.96538277               46.71008099                0.27072125                0.94694688                0.63812435               -2.25942492               -0.39384620                7.98077483                1.33409081
              15.85350709                6.64587307               46.47741474                0.77657071                0.85258626                0.89216464               -3.26394497                0.05627919                0.11919871               -2.03796534
               6.03122545               10.84014552               47.09369936                0.93126455                0.12595870                0.00918074               -0.11839820               -0.03409040               -0.01018936                0.63444591
               7.03248503               10.55322022               46.87797322                0.45666000                0.20759967                0.24407562               -0.72450070                0.01118343                0.03234443               -0.61637975
               8.03537744               10.26581157               46.66292754                0.00010000                1.30622820                0.44663319               -1.30942994               -1.34027180               12.79046769               -1.42144792
               9.05860960                9.95029957               46.70178921                0.00010000                2.42648440               -0.21371936               -1.56253429               -1.65308291               25.50118872               -0.24340114
              10.08390713                9.62712235               46.72985330                0.00010000                2.32834888               -0.08960155               -1.85120833               -1.31613200               25.43291689                0.46752332
              11.10517658                9.30157436               46.75442877                0.00010000                1.91084033                0.13601089               -2.17155968               -1.15436490               25.97830486                1.03758602
              12.12212394                8.97160961               46.78092575                0.00010000                1.50391429                0.41482542               -2.57816549               -1.30184234               26.97532455                1.64024838
              13.13525486                8.63664810               46.81359156                0.00010000                1.35084917                0.70366853               -3.23078106               -1.69713323               28.55391751                2.68551767
              14.14914092                8.29651918               46.86074457                0.05597437                1.37909005                0.90841516               -4.82383069               -1.37160618               21.26568060                5.57818691
              15.16283666                7.97240877               46.74051201                0.29953201                1.15034491                0.73986095               -2.53165242               -0.39910144                6.45744916                1.17419440
              16.17214782                7.65577066               46.49030278                0.77289144                0.93111540                1.05203700               -3.59415740                0.03217359                0.01426522               -1.71728898
               6.31664081               11.84066727               47.02274932                0.97921520                0.19724998                0.05217462               -0.34806057                0.06442340                0.33177774                0.54715509
               7.31861331               11.55589614               46.80350606                0.78534306                0.28177288                0.26759161               -0.95159539                0.09282572                0.74616181               -0.48844964
               8.32227627               11.27026723               46.59230317                0.45400859                2.41008000                0.44556506               -1.53373269               -1.90740064               14.54041210               -0.79475923
               9.36681491               10.94395046               46.64828667                0.34062272                3.85932687               -0.63491101               -1.79144978               -1.44429007               27.95248092               -0.27078602
              10.39946281               10.62497080               46.68980715                0.33106902                2.92316556               -0.21515575               -2.08214277               -0.52513885               27.74225329                0.12792983
              11.42527822               10.30233633               46.72743623                0.34011461                2.31577774                0.07619725               -2.39729114               -0.43905599               28.37940070                0.44133751
              12.44577836                9.97598638               46.76786241                0.36714704                1.78530762                0.43767701               -2.79365904               -0.49244794               29.70653674                0.77815471
              13.46098438                9.64517852               46.81856971                0.42944445                1.27984959                0.85304206               -3.50177219               -0.70579750               32.11929829                1.45989989
              14.47137535                9.31041140               46.89450419                0.55191515                0.83816714                1.38922271               -5.01761149               -1.02648308               23.90447281                3.28771465
              15.47774772                8.98017999               46.76738565                0.67320172                0.80257173                0.77712151               -2.69306598               -0.68377430                7.35272079                1.04776641
              16.48742679                8.66691381               46.50960195                0.88654993                0.96790701                1.11431514               -3.78233070                0.20127939                0.88758814               -1.32393998
               3.47273010                1.95065256               48.70416019                1.00000000               -0.56264710               -0.64277566                2.21160652               -0.14581189               -1.20144220                1.09419212
               4.46710363                1.62749108               48.54170453                1.00000000               -0.48112389               -0.37596882                1.40361757               -0.08478751               -1.64929432                0.18842213
               5.46310763                1.30350000               48.37105224                1.00000000               -0.34798181               -0.12598902                0.62097563               -0.10879765               -1.72990161               -0.21245658
               6.46014400                0.97618070               48.20746515                0.71075525               -0.58648711                0.21319043               -0.15409675               -0.63954297               -1.23246877               -0.91472929
               7.45137788                0.63453298               48.04716622                0.76668119               -0.51093183                0.35423240               -0.67650938               -0.23622780               -0.73125919                0.10989757
               8.44992536                0.28260216               47.89695540                0.83422689                0.07859927                0.51100450               -1.25343112               -0.29058712               -0.09989835               -0.02084179
               9.45294987               -0.07466953               47.75444833                0.83870078                0.63192260                0.75832344               -1.87500764               -0.32512888                1.17985133               -0.48086109
              10.46256381               -0.43376712               47.63657998                0.86795136                1.48764076                0.89640078               -2.32190265                0.08556971                3.01610344               -0.67644946
              11.48270269               -0.76996858               47.54070162                1.00000000                1.21392519                0.08697343               -0.70046369               -0.90569512                2.19393989                0.83544669
              12.48684232               -1.08486334               47.39607610                1.00000000                0.43711710                0.31199594               -1.16052618               -0.05875690               -0.40099264                0.14341042
              13.49144503               -1.39779174               47.24706792                1.00000000                0.46027108                0.52530720               -1.86922920               -0.11901194               -0.56959321               -0.52937511
               3.79443347                2.94422480               48.63471026                1.00000000               -0.46014292               -0.62054593                1.95575465               -0.00422663               -0.30046909                1.45455338
               4.78983204                2.62373139               48.47231783                1.00000000               -0.33793131               -0.34646984                1.14657700                0.04716954               -0.48642244                0.28119117
               5.78767484                2.30224011               48.30683473                1.00000000               -0.07999782               -0.09078490                0.34516183                0.01262664               -0.43436814               -0.37354078
               6.78823208                1.97831260               48.14568497                0.47898461                0.40650184                0.22925116               -0.45065289               -0.71411047                0.79136515               -1.27069348
               7.79580488                1.63807530               48.00462881                0.60064180                0.66943314                0.19849097               -1.15664303               -0.31606345                1.56846343                0.27283815
               8.80162074                1.28771221               47.86269217                0.75700369                0.60391740                0.54842291               -1.88557342               -0.35778356                1.83318589                0.00001970
               9.80788322                0.93291371               47.72846105                0.82474590                0.47241461                0.91882130               -2.68198770               -0.45247752                4.00658594               -1.02223651
              10.81106904                0.57519688               47.62951753                0.92162235               -0.43446905                1.42360905               -3.28185642               -0.40183648                8.03529421               -1.84293886
              11.79919384                0.23090116               47.57274243                1.00000000               -0.54513524                0.06191352               -0.57130274               -1.47805464                4.95590150                1.00592832
              12.80016633               -0.08174338               47.42821032                1.00000000                0.19947334                0.26912363               -0.83616821                0.01117837                0.27715606                0.29118894
              13.80318331               -0.39253867               47.27911394                1.00000000                0.30169797                0.46959253               -1.50103571               -0.01789157                0.05763755               -0.54200952
               4.11363239                3.93824164               48.57337443                1.00000000               -0.36006811               -0.57142378                1.67897305               -0.00834295               -0.02800845                1.81119360
               5.11003171                3.62056168               48.40504223                1.00000000               -0.24267247               -0.27436117                0.88818529                0.02102938                0.06579371                0.31148694
               6.10877895                3.30168430               48.23905081                0.81500562               -0.00025578                0.01868009                0.08117331               -0.07571670                0.31498696               -0.88926735
               7.11002660                2.98076572               48.07561679                0.04949177                1.34390342                0.28450368               -0.72023416               -1.18223345                3.01840146               -1.70210986
               8.13565701                2.63850280               47.96287139                0.01919548                1.89523437                0.27007078               -1.71875389               -2.35058818                4.23438832               -0.27870234
               9.14793129                2.29357062               47.82659209                0.05940952                1.03793142                0.84411567               -2.52126090               -2.58910765                3.03133380                0.98690304
              10.15641564                1.94370690               47.68823990                0.13262639                0.43041739                1.42521101               -3.29973340               -2.95974810                5.23659275                1.90967900
              11.15653963                1.59470506               47.59244373                0.21960783               -2.31668916                2.11815935               -4.85028671               -4.11548467               13.43314296                2.00117178
              12.11008186                1.23126969               47.60891618                0.34905172               -2.30169609                0.10901607               -0.11552064               -2.63798117                9.07826797                1.09046174
              13.11050571                0.92051913               47.46351725                1.00000000                0.12979577                0.15566183               -0.42912734               -0.05471688                0.60320852                0.59336703
              14.11267777                0.61160011               47.30982775                1.00000000                0.21720628                0.35306924               -1.13030086               -0.03622025                0.18868382               -0.51437158
               4.42962652                4.93279633               48.51182881                1.00000000               -0.28165635               -0.50399003                1.39934634               -0.03134538                0.10326225                1.60165130
               5.42680996                4.61824417               48.33644032                1.00000000               -0.18350296               -0.17822686                0.62756738               -0.01197241                0.23942593                0.08566727
               6.42595646                4.30261371               48.16408964                0.33556199                0.04794792                0.14114690               -0.11332743               -0.16866279                1.03293893               -1.34881382
               7.42776892                3.98400268               48.00432734                0.00010000                0.50158763                0.40020281               -0.98113782               -1.37167976                4.85077653               -2.06895192
               8.43598822                3.64347672               47.90741937                0.00010000                0.84327860                0.69733278               -1.71104470               -3.35156600                8.01617891               -0.01314540
               9.44463449                3.30459452               47.81091167                0.00010000                0.57828042                1.08522318               -2.34066789               -3.82634158                8.24831370                2.31264206
              10.44755382                2.96141793               47.71938745                0.00010000               -0.17189712                1.55047255               -2.82174949               -4.26393980                9.75875265                4.69991550
              11.44119655                2.61756007               47.65467924                0.00010000               -1.34668393                1.48552333               -2.30097078               -6.18250743               13.44064547                5.30516971
              12.42062015                2.23308148               47.64448862                0.00010000               -1.12274848                1.54854475               -0.38733365               -2.62655572                8.87149916               -1.60148774
              13.41874158                1.92136985               47.50200094                0.23153866               -0.01615965                0.23554476               -0.22104341                0.24113444                1.06275906                1.21945878
              14.42029695                1.61452271               47.34219512                0.74804065                0.15553750               -0.31475340               -0.77632897                0.60525783                0.14083577               -0.18477049
               4.74210981                5.92816184               48.44691374                1.00000000               -0.21349284               -0.42286401                1.12609836               -0.05337172                0.22891380                1.24149264
               5.73997488                5.61699714               48.26471713                0.63367789               -0.12313139               -0.05761902                0.35550160               -0.05294744                0.42467021               -0.38147383
               6.73964718                5.30450724               48.08669918                0.10027315                0.08775610                0.27280895               -0.37022465               -0.23448057                1.50654507               -1.77680076
               7.74173000                4.98876978               47.92588021                0.00010000                0.41933371                0.36933673               -1.11287085               -1.33109776                7.61827232               -0.37207548
               8.74803385                4.65244945               47.86925268                0.00010000                0.58666230                0.83880039               -1.60197140               -2.45083714               12.25157864                1.41058124
               9.75346325                4.31527508               47.79927730                0.00010000                0.50687216                0.97074724               -2.11826479               -2.70822485               11.81379925                2.76923920
              10.75817130                3.97471635               47.73298256                0.00010000                0.38813444                1.02525339               -2.31363799               -3.12599841               12.54615399                3.76434539
              11.76122593                3.62441552               47.67807438                0.00010000               -0.22151669                0.74300702               -2.02576555               -3.65093588               12.93345457                3.07952502
              12.75374096                3.26224059               47.62000136                0.00010000               -1.36693847                2.33429997               -1.41905760               -2.12791839               11.85703566               -0.95429223
              13.73388716                2.92523003               47.55057788                0.17786963               -0.76318743                0.51553018               -0.38891361               -0.45950734                5.38250953                2.05424924
              14.73847721                2.60530504               47.37977309                0.69934147                0.45900483               -0.94455485               -1.08441055                0.59853948                0.21540099               -0.84283027
               5.05088848                6.92433905               48.37854541                1.00000000               -0.14828704               -0.33725443                0.86132361               -0.03965796                0.05394213                0.93290783
               6.04940561                6.61709179               48.18669233                0.44605658               -0.06971302                0.04793055                0.11642262               -0.06105060                0.42595852               -0.73948693
               7.04949422                6.30806989               48.00240917                0.00427493                0.18995722                0.43291299               -0.61005179               -0.48451043                4.27204436               -2.31232979
               8.05320475                5.99138941               47.88709235                0.00010000                0.54859763                0.28882856               -0.64119529               -1.27639708               11.24764048                2.20948647
               9.06046617                5.66025273               47.83998006                0.00010000                0.74991728                0.68550969               -1.53986243               -2.08517113               14.64770060                2.12465274
              10.06820310                5.32400946               47.78924024                0.00010000                0.77136231                0.74209640               -1.97012498               -2.36530701               14.70629785                2.98440737
              11.07589342                4.98192299               47.73989353                0.00010000                0.62252471                0.64118634               -2.15901257               -2.72874982               14.98526019                3.51545141
              12.08065359                4.63242021               47.69207456                0.00010000                0.06769299                0.75263025               -2.06671787               -2.98832213               15.03949389                3.12869309
              13.07724728                4.27976748               47.64348882                0.00010000               -0.70833061                1.32335783               -1.66224848               -2.34177138               14.77016807                2.43932419
              14.06648698                3.93168046               47.59482002                0.19956860               -0.25647795                0.58078773               -0.99202995               -0.58503764                7.27664008                1.96121310
              15.07211772                3.59563162               47.40482395                0.72255403                0.56307376               -0.42064344               -1.97552156                0.12380948                0.13063033               -1.78077647
               5.35581117                7.92141675               48.30765457                0.99211780               -0.07881476               -0.24994186                0.61322001               -0.03530061                0.01182643                0.75767110
               6.35502302                7.61795576               48.10763599                0.35886888               -0.00759114                0.11458649               -0.11145018               -0.03159843                0.31090809               -0.78953899
               7.35565934                7.31316550               47.91363786                0.00010000                0.44981036                0.54276155               -0.82476624               -0.72305605                7.59165957               -2.58387927
               8.36401923                6.99454635               47.85876792                0.00010000                0.90255174                0.40566559               -1.09479796               -1.42904884               15.33567983                1.55365335
               9.37371038                6.66615965               47.81428769                0.00010000                1.02338057                0.52531778               -1.55190476               -1.93390497               16.60535501                2.17864619
              10.38448684                6.33011701               47.77947270                0.00010000                1.07375873                0.51770831               -1.94986591               -2.26842303               17.44735809                2.96416530
              11.39518555                5.98754008               47.74605346                0.00010000                0.95640861                0.48311888               -2.16628392               -2.51738096               17.71411311                3.57357188
              12.40361501                5.63946813               47.71167877                0.00010000                0.62298677                0.56093831               -2.18694142               -2.50443342               17.60149449                3.77077663
              13.40764529                5.28870774               47.67358079                0.00010000                0.13536318                0.65061818               -1.98844227               -1.98038018               17.06423092                3.32576092
              14.40632227                4.93684578               47.62961661                0.22407366                0.27028986                0.53229677               -1.52994263               -0.60873049                8.39530197                1.49603054
              15.41305109                4.59689217               47.42090339                0.74497354                0.67288127                0.39067179               -2.62739295                0.09809604                0.14077408               -2.11740123
               5.65710446                8.91934021               48.23592098                0.95428612               -0.00795683               -0.16731547                0.37006136               -0.03602145                0.01741122                0.70763735
               6.65702489                8.61938352               48.02841228                0.34078344                0.06690228                0.16930544               -0.33404622                0.00998021                0.14008307               -0.78281585
               7.65844250                8.31892512               47.82332230                0.00010000                0.73023716                0.56334324               -1.02772105               -0.87579356                9.59315933               -2.59714635
               8.67162963                7.99950272               47.80433786                0.00010000                1.38874544                0.45818354               -1.34976281               -1.71990080               19.26380850                0.03946149
               9.68621741                7.67075908               47.78513552                0.00010000                1.49122889                0.36071698               -1.69475469               -1.99064391               19.78765036                1.69130005
              10.70145421                7.33436363               47.76819916                0.00010000                1.49886349                0.32344347               -2.02013350               -2.16520581               20.40320110                2.67294896
              11.71619468                6.99158537               47.75270474                0.00010000                1.39715235                0.33545581               -2.27534305               -2.31854937               20.73712557                3.49205779
              12.72939725                6.64363898               47.73471022                0.00010000                1.20336704                0.34265078               -2.42973513               -2.29294017               20.43559635                4.17826295
              13.74026202                6.29277984               47.70793784                0.00010000                0.83653440                0.29997140               -2.42635493               -1.81095710               18.98498977                4.18316109
              14.74612794                5.94232639               47.65944155                0.24577338                0.68624192                0.59746972               -1.97495609               -0.60393018                9.01191110                1.24617787
              15.75398686                5.60344505               47.43301534                0.76071853                0.78589157                0.78072716               -3.08706049                0.08103889                0.11949707               -2.19412722
               5.95500412                9.91807044               48.16415514                0.94184226                0.06335850               -0.08260048                0.13294686               -0.03397653                0.00582241                0.70718093
               6.95563771                9.62134186               47.94921677                0.38175352                0.15100706                0.21834062               -0.56214309                0.02818827               -0.02283937               -0.74351170
               7.95802426                9.32443237               47.73360568                0.00010000                1.10747727                0.51985147               -1.23186598               -1.08281536               11.31336974               -2.26337465
               8.97778725                9.00371002               47.74479580                0.00010000                2.05061651                0.26160207               -1.53434490               -1.95611365               22.83659416               -0.24301461
               9.99903659                8.67337399               47.74971579                0.00010000                2.12845888                0.06361978               -1.84850829               -1.87658615               23.01776058                1.10316553
              11.02035643                8.33658588               47.75315196                0.00010000                2.02513125                0.11855220               -2.14951729               -1.83517064               23.56435258                2.06949037
              12.03953922                7.99424919               47.75721868                0.00010000                1.81026533                0.23423190               -2.44343584               -1.95487575               24.12090505                2.93970356
              13.05656174                7.64632114               47.76075529                0.00010000                1.65997562                0.32458419               -2.78370975               -2.12011491               23.89452047                4.02663962
              14.07273873                7.29470717               47.75154410                0.01409876                1.35083603                0.27695572               -3.08798133               -1.68710342               20.66037386                5.70312404
              15.08357846                6.94879518               47.68686156                0.26677568                0.98479071                0.69951583               -2.35075028               -0.51408604                9.02846365                1.19772026
              16.09243454                6.61250671               47.44352524                0.76971539                0.88560876                0.98198003               -3.45168918                0.06002367                0.11088738               -2.21390514
               6.24988208               10.91768820               48.09254417                0.92545869                0.13446482                0.00616715               -0.11077079               -0.03561561               -0.00780150                0.62544634
               7.25122673               10.62375033               47.87041045                0.44624027                0.22679792                0.26563561               -0.78974678                0.01306823                0.04701739               -0.60324379
               8.25441804               10.32932215               47.64920402                0.00010000                1.61695058                0.48763572               -1.43824188               -1.43841666               12.99375453               -1.38406798
               9.28356574               10.00473477               47.68538520                0.00010000                3.06958955               -0.38613842               -1.73118869               -1.70517964               25.93367126               -0.17214076
              10.31580983                9.67203148               47.71053219                0.00010000                3.01549260               -0.28665014               -2.02863728               -1.28971943               25.93562623                0.57078314
              11.34387559                9.33673468               47.73203567                0.00010000                2.57760368               -0.07466691               -2.31873061               -1.07298871               26.54343945                1.15999261
              12.36736190                8.99627001               47.75480596                0.00010000                2.13306935                0.18816671               -2.63870982               -1.17225706               27.50863144                1.74060498
              13.38653698                8.65013066               47.78154945                0.00010000                1.83420101                0.46240077               -3.11226800               -1.47426325               28.67021565                2.63504597
              14.40404592                8.29831896               47.81470560                0.04713011                1.57548517                0.72740677               -4.16280233               -1.24111991               22.69527009                4.94489667
              15.41804668                7.95631671               47.71441950                0.29943767                1.18591672                0.78640965               -2.64676648               -0.46973464                8.01016285                1.11814424
              16.42776426                7.62308465               47.45317033                0.76796926                0.97175752                1.11350885               -3.75758726                0.03706564               -0.01720317               -1.82225384
               6.54216755               11.91819378               48.01923758                0.97579980                0.20975662                0.05055848               -0.35243953                0.07462652                0.32273567                0.53852209
               7.54426512               11.62665458               47.79361046                0.78052663                0.30519708                0.29042478               -1.02870139                0.10340393                0.74976859               -0.47977330
               8.54827149               11.33418508               47.57627876                0.45152444                2.83546096                0.48629276               -1.67566365               -2.14802057               14.72911796               -0.76893330
               9.60097434               10.99598725               47.62953015                0.34057152                4.64854017               -0.87475129               -1.97214250               -1.58634504               28.37665519               -0.24693805
              10.64124230               10.66764098               47.66811852                0.33114630                3.68418932               -0.43904932               -2.26976725               -0.50148870               28.25387550                0.17036059
              11.67465812               10.33509254               47.70273261                0.33985508                3.07278974               -0.16421324               -2.55257532               -0.40316962               28.98256643                0.49016285
              12.70269809                9.99801253               47.73953419                0.36614724                2.51847019                0.17425160               -2.86093350               -0.44255020               30.28518869                0.80594899
              13.72502753                9.65556916               47.78381814                0.41990741                1.95160969                0.54384981               -3.37151057               -0.58880599               32.27867591                1.36012058
              14.74173028                9.30925531               47.84512618                0.54664430                1.21952701                1.09363521               -4.51293170               -0.78385327               25.38874882                2.94047723
              15.74941807                8.96452337               47.73949185                0.67485914                0.89548436                0.82066585               -2.84830804               -0.58678221                9.00881380                1.02382037
              16.75963997                8.63477689               47.47053633                0.88480024                1.02219049                1.16922377               -3.95637950                0.21292382                0.87707554               -1.40579576
               3.62733960                2.03219172               49.72708466                1.00000000               -0.60018599               -0.68803222                2.37181106               -0.16420702               -1.16570201                1.06205811
               4.62133774                1.70001539               49.55605607                1.00000000               -0.51051747               -0.38855705                1.46425185               -0.09994392               -1.59406150                0.18080058
               5.61712925                1.36695838               49.37717220                1.00000000               -0.36516467               -0.10798156                0.59853459               -0.12621661               -1.64498152               -0.21509351
               6.61403445                1.03037061               49.20545551                0.71261776               -0.66643130                0.27068033               -0.25630054               -0.60639588               -0.97104729               -0.90059451
               7.60380063                0.68037782               49.04009952                0.77388451               -0.71554609                0.48637988               -0.76330503               -0.23735393               -0.28854037                0.05951867
               8.59972353                0.31988386               48.88410541                0.85085604               -0.24095878                0.63610188               -1.35630378               -0.30069330                0.30542246               -0.03119735
               9.59898145               -0.04910080               48.73514677                0.86393522                0.11403173                0.94443028               -2.02208226               -0.57868095                1.57621755               -0.41559074
              10.60200416               -0.42913980               48.61163163                0.92710459                1.39602144                1.27575361               -2.66728525               -0.21947486                4.34838264               -0.65210671
              11.62690188               -0.79511728               48.53473424                1.00000000                1.52568953                0.10444619               -0.96364665               -1.86265922                2.88710587                0.95301927
              12.63251795               -1.11708512               48.38499848                1.00000000                0.55917976                0.30996549               -1.28766675               -0.06382950               -0.38729287                0.13290282
              13.63808547               -1.43654915               48.22703024                1.00000000                0.55675228                0.57757113               -2.11714687               -0.15446001               -0.67015797               -0.43358142
               3.95787386                3.02531140               49.65499643                1.00000000               -0.49188936               -0.66180110                2.10059286               -0.00408383               -0.29387237                1.41128177
               4.95295497                2.69612981               49.48401461                1.00000000               -0.35921966               -0.35713592                1.19096364                0.05007709               -0.47294748                0.27269005
               5.95068947                2.36587856               49.31007031                1.00000000               -0.08471005               -0.07147698                0.29923435                0.01872830               -0.41187611               -0.36928951
               6.95126077                2.03307742               49.14051259                0.50265282                0.29904940                0.28034724               -0.58850788               -0.62352859                0.88599475               -1.24565037
               7.95667046                1.68524162               48.99250877                0.63406647                0.50975643                0.32023051               -1.27464621               -0.26014788                1.66503077                0.19767598
               8.96145590                1.32624488               48.84309713                0.80871781                0.55180051                0.64273113               -2.04128004               -0.33269170                1.80722654                0.02333994
               9.96770647                0.96034351               48.70028559                0.88558710                0.56808774                1.04873291               -2.95607348               -0.68256706                3.87029809               -0.77860348
              10.97281765                0.58361774               48.59291339                1.00000000               -0.77292596                1.80781937               -3.99470492               -1.23170070                9.74040424               -1.72623601
              11.95224795                0.20592718               48.56651140                1.00000000               -1.01110307                0.03042406               -1.19321897               -2.82532685                7.23401585                1.57165039
              12.95259559               -0.11398547               48.42028653                1.00000000                0.18784757                0.26002904               -0.80190388               -0.00534773                0.52315942                0.34743570
              13.95600490               -0.43077344               48.26336370                1.00000000                0.34093099                0.50083475               -1.64745885               -0.01550814                0.02980386               -0.45274788
               4.28562109                4.01895570               49.59077305                1.00000000               -0.38489742               -0.60444005                1.80060093               -0.00688857               -0.02868232                1.75613063
               5.28177211                3.69287267               49.41405125                1.00000000               -0.25324363               -0.28103999                0.91344248                0.02722041                0.05576222                0.30294680
               6.28055622                3.36552884               49.23951238                0.82174808                0.02143547                0.03318241                0.01230938               -0.06787499                0.29619600               -0.83789668
               7.28220082                3.03597756               49.06754559                0.05572300                1.24369915                0.33296037               -0.89376534               -1.07680523                2.92730207               -1.65194393
               8.30543020                2.68678243               48.94494054                0.02552408                1.78834879                0.36461539               -1.85042552               -2.17908447                3.96177970               -0.07893759
               9.31796780                2.33273849               48.80034641                0.07765446                1.12635256                0.90789736               -2.71191392               -2.60571332                2.73442754                1.44655983
              10.32795725                1.97187386               48.65379293                0.14626583                0.69093356                1.46761530               -3.58689615               -3.35790969                4.50171435                2.84265239
              11.33178647                1.60701659               48.54264300                0.25686790               -2.99793496                2.34890787               -5.02956436               -6.13443326               15.25115817                3.95151121
              12.26799855                1.20549120               48.60767780                0.36302683               -3.13374258                0.29275143               -0.13445604               -4.09286356               12.06184129                1.33765366
              13.26911162                0.88811546               48.46001164                1.00000000                0.16763520                0.12660510               -0.30515337               -0.05688672                0.81550062                0.59398918
              14.27135126                0.57346754               48.29829486                1.00000000                0.22396359                0.35225554               -1.15667866               -0.04141815                0.10700187               -0.42918251
               4.60990215                5.01322260               49.52629075                1.00000000               -0.29759187               -0.52826286                1.49522971               -0.03342856                0.10748397                1.55329444
               5.60692624                4.69050901               49.34278142                0.98528745               -0.18375367               -0.17889480                0.63617024               -0.01564542                0.25858213                0.06839581
               6.60622708                4.36654221               49.16262529                0.32152357                0.07724213                0.16091259               -0.19127883               -0.16640017                0.99617030               -1.31085226
               7.60847108                4.03973662               48.99354310                0.00010000                0.50503791                0.46028001               -1.16613804               -1.28973490                4.82903077               -1.94214213
               8.61632784                3.69253392               48.88921881                0.00010000                0.78895592                0.78579319               -1.91644845               -3.16653770                8.04937323                0.51936237
               9.62425020                3.34440283               48.78608072                0.00010000                0.49711657                1.18747377               -2.60738988               -3.87794781                8.31502078                3.14220167
              10.62627017                2.98969581               48.68933021                0.00010000               -0.38692737                1.65565546               -3.16615971               -4.69350123               10.37772141                6.03938417
              11.61651165                2.63059590               48.62962803                0.00010000               -1.84891779                1.60532503               -2.72612985               -7.93246337               15.49403758                7.54250041
              12.58929182                2.21178221               48.63941247                0.00010000               -1.65150663                2.47144846               -1.02071905               -3.47745819               11.03628092               -1.76409083
              13.58348152                1.88854663               48.50099400                0.19143913               -0.24097236                0.57186938               -0.00323786                0.37918452                1.60717383                0.86374755
              14.58447237                1.57627167               48.33467759                0.71582239                0.09908511               -0.46247854               -0.69662922                0.97339403                0.16276163               -0.52712709
               4.93037968                6.00839044               49.45854809                1.00000000               -0.22400908               -0.43814587                1.20095891               -0.05652948                0.21344802                1.20379411
               5.92813959                5.68929477               49.26820155                0.60989348               -0.11895378               -0.05139500                0.34128451               -0.05813109                0.42985216               -0.38964787
               6.92800061                5.36874709               49.08239762                0.08789229                0.11374129                0.31486839               -0.48146093               -0.23469470                1.53581382               -1.76877809
               7.93041442                5.04518316               48.91379632                0.00010000                0.47163162                0.44802675               -1.30250591               -1.20742592                7.77536124                0.13144696
               8.93743324                4.70249829               48.85211157                0.00010000                0.64162692                0.92595656               -1.82101525               -2.27386291               12.48596023                1.95254101
               9.94324695                4.35648796               48.77674242                0.00010000                0.52304605                1.08586020               -2.38145508               -2.63360811               12.17824475                3.52836813
              10.94789416                4.00498697               48.70831762                0.00010000                0.39019263                1.16588462               -2.61811339               -3.26519027               13.35925822                4.76395956
              11.95105081                3.63912309               48.65628395                0.00010000               -0.36977526                0.93212510               -2.37831786               -4.14582526               14.24640587                3.89936631
              12.94049865                3.25492017               48.60455104                0.00010000               -1.94224776                3.37121790               -1.75982765               -2.51385173               13.75705560               -0.98289456
              13.91220585                2.89955284               48.54704171                0.15734401               -1.25647951                1.21590042               -0.41175173               -0.50161996                6.60614448                1.68346544
              14.91536906                2.56421797               48.36794877                0.68109499                0.31632118               -0.93707036               -1.30489558                0.67809705                0.30291704               -1.77803281
               5.24696290                7.00445968               49.38744758                1.00000000               -0.15559425               -0.34572939                0.92033973               -0.03938456                0.04524765                0.90812199
               6.24540696                6.68948111               49.18770710                0.42837123               -0.06590518                0.05749141                0.08642021               -0.05087411                0.42870910               -0.72228200
               7.24564480                6.37283958               48.99577706                0.00010000                0.25821998                0.47474390               -0.72598529               -0.45841670                4.64576452               -2.26139964
               8.25057136                6.04869716               48.88003488                0.00010000                0.69504875                0.39789565               -0.78213925               -1.07460142               11.54129604                2.56025990
               9.25954578                5.71105305               48.82348372                0.00010000                0.92589962                0.74090340               -1.76465386               -1.84084763               14.73423630                2.57235617
              10.26908935                5.36612003               48.76834807                0.00010000                0.93927297                0.79610956               -2.21228097               -2.21132236               15.18910811                3.56422918
              11.27833124                5.01301351               48.71714070                0.00010000                0.72862959                0.70298061               -2.40399870               -2.71426844               15.78880578                4.13837782
              12.28366195                4.64923840               48.67041031                0.00010000                0.01268970                0.93731226               -2.29346403               -3.21555101               16.25320986                3.61699176
              13.27858503                4.27920657               48.62626965                0.00010000               -0.97553144                1.82084424               -1.82937459               -2.61381603               16.43061224                2.64636806
              14.26415132                3.91286464               48.58452101                0.18738125               -0.49404873                1.05712768               -1.10581820               -0.57105439                8.31032623                1.62632183
              15.26870405                3.55753026               48.38337799                0.70929234                0.45527379               -0.07677486               -2.30744516                0.14120836                0.21643333               -2.41038656
               5.55954912                8.00147585               49.31400261                0.99384685               -0.08069114               -0.25592835                0.65567207               -0.03534192                0.00906022                0.74514895
               6.55874221                7.69044460               49.10632571                0.34461381                0.00335555                0.12613098               -0.15048223               -0.01921936                0.31483407               -0.76305836
               7.55961623                7.37824197               48.90480352                0.00010000                0.59833536                0.57402657               -0.94500856               -0.64977716                7.81962818               -2.51503350
               8.57070891                7.05314107               48.84674941                0.00010000                1.17885899                0.49059690               -1.31277027               -1.22236894               15.71956020                1.52724097
               9.58319341                6.71731636               48.79772459                0.00010000                1.31755715                0.53694858               -1.77058424               -1.71054411               16.97262897                2.49408664
              10.59706006                6.37241015               48.75893610                0.00010000                1.36485080                0.50443883               -2.16918789               -2.07398096               17.97960740                3.37412263
              11.61049042                6.01904658               48.72353632                0.00010000                1.17433338                0.49357862               -2.35388025               -2.40351561               18.51162137                3.97662342
              12.62054672                5.65786934               48.68930951                0.00010000                0.70528338                0.67170379               -2.31482143               -2.51959530               18.71153483                4.04720532
              13.62459609                5.29133706               48.65359781                0.00010000                0.09571733                0.88916933               -2.04990196               -2.13400519               18.51711339                3.34704586
              14.62246107                4.92069540               48.61393009                0.21672184                0.21329486                0.72301264               -1.60494059               -0.66508074                9.26121059                1.28139017
              15.62886199                4.56268247               48.39325689                0.73456953                0.64009187                0.69463532               -2.85598885                0.12576519                0.17089230               -2.33851882
               5.86831857                8.99934111               49.23977760                0.94815133               -0.00621165               -0.17358867                0.40223541               -0.03793333                0.02072136                0.70178762
               6.86825646                8.69200373               49.02482755                0.32801228                0.08171065                0.18508109               -0.38363664                0.01925799                0.15115197               -0.75700137
               7.86995279                8.38432011               48.81245282                0.00010000                0.93965686                0.59716886               -1.15175273               -0.81307216                9.80172492               -2.52758387
               8.88704959                8.05850910               48.78991086                0.00010000                1.80565117                0.45880709               -1.54332830               -1.57139351               19.68170894                0.15554578
               9.90606581                7.72179203               48.76716171                0.00010000                1.94149578                0.30565517               -1.91251595               -1.82172049               20.26196919                1.90858707
              10.92587951                7.37620881               48.74707962                0.00010000                1.93679645                0.23796299               -2.21843772               -1.96650343               20.99336707                2.96350040
              11.94480174                7.02288508               48.72936301                0.00010000                1.75500294                0.26680741               -2.40938348               -2.11615216               21.49900792                3.75362806
              12.96097957                6.66267248               48.71042815                0.00010000                1.41385635                0.34646871               -2.45036123               -2.15201235               21.42046347                4.27787866
              13.97307887                6.29698996               48.68435639                0.00010000                0.92623572                0.41003871               -2.32689429               -1.91371560               20.29989237                4.01821412
              14.97950428                5.92732489               48.63937890                0.24163391                0.70831700                0.68319099               -2.01337314               -0.72293518                9.80034744                1.09561260
              15.98724521                5.57142297               48.40121127                0.75177833                0.77409227                0.93787466               -3.20997995                0.08658141                0.11820219               -2.26443522
               6.17346520                9.99800408               49.16558715                0.93667376                0.06831605               -0.08845549                0.15535653               -0.03487171                0.00525600                0.70198176
               7.17414837                9.69414622               48.94330817                0.37041943                0.16921095                0.23789582               -0.62105757                0.03451724               -0.00811358               -0.72137909
               8.17684942                9.39018535               48.72066407                0.00010000                1.38303815                0.55685126               -1.36027061               -1.07520101               11.53345115               -2.20109514
               9.20180913                9.06231721               48.72855550                0.00010000                2.61049296                0.18066580               -1.72471440               -1.89253166               23.28433379               -0.11828659
              10.22905928                8.72342946               48.73025473                0.00010000                2.74139038               -0.08283721               -2.05867248               -1.76222106               23.53927518                1.27941077
              11.25663694                8.37716941               48.73082215                0.00010000                2.63222167               -0.05076276               -2.33141784               -1.65773184               24.18453580                2.27676870
              12.28170372                8.02438273               48.73239558                0.00010000                2.33823317                0.06105653               -2.53057957               -1.71948284               24.82954405                3.11445863
              13.30340160                7.66479871               48.73352614                0.00010000                1.99828227                0.18068456               -2.66547799               -1.85324690               24.71400320                4.03511284
              14.32166936                7.29953783               48.72282276                0.01255254                1.50838768                0.24225352               -2.68367870               -1.66710461               21.92181916                5.24540459
              15.33356935                6.93435922               48.66306598                0.26529338                1.03640533                0.74082340               -2.36907416               -0.65134808                9.85977832                1.09130459
              16.34239747                6.58143997               48.40838095                0.76204337                0.88281153                1.04457629               -3.50312434                0.06091946                0.09511678               -2.25023985
               6.47533686               10.99757200               49.09148394                0.91947402                0.14286770                0.00233986               -0.09945296               -0.03680691               -0.00506159                0.61717642
               7.47676553               10.69676165               48.86217829                0.43473968                0.24704595                0.28772105               -0.85796631                0.01521380                0.06772005               -0.58714763
               8.48027778               10.39545714               48.63416271                0.00010000                1.95946565                0.52768608               -1.57423451               -1.52748603               13.21631895               -1.34172411
               9.51595485               10.06212241               48.66716543                0.00010000                3.78457059               -0.57976986               -1.92451428               -1.73113640               26.39603394               -0.09461107
              10.55596919                9.72013528               48.68928056                0.00010000                3.79083786               -0.51120557               -2.23712211               -1.23251434               26.48927441                0.67780334
              11.59177160                9.37519356               48.70805415                0.00010000                3.34067985               -0.32118569               -2.49100576               -0.95760608               27.19342052                1.28340860
              12.62278278                9.02410621               48.72815156                0.00010000                2.84939650               -0.08669158               -2.69333415               -1.01072489               28.19847785                1.84500449
              13.64875953                8.66628617               48.75134620                0.00010000                2.36967422                0.15224167               -2.89559065               -1.23534435               29.20562191                2.62152501
              14.67017627                8.30183503               48.77748852                0.04414567                1.79078250                0.44209722               -3.23310366               -1.11687736               23.96644340                4.50460021
              15.68457518                7.94214136               48.68757668                0.30210800                1.20629136                0.80762377               -2.67200308               -0.52880176                9.09070213                1.06022613
              16.69430210                7.59231449               48.41515103                0.76241032                0.97269119                1.13129657               -3.76343907                0.04140717               -0.05298427               -1.83678965
               6.77434977               11.99805088               49.01570053                0.97217001                0.22177373                0.04788743               -0.35267689                0.08626780                0.31356252                0.52983488
               7.77656751               11.69990064               48.78293203                0.77449394                0.32945868                0.31389907               -1.10777987                0.11460694                0.75677272               -0.46915089
               8.78093894               11.40073907               48.55878990                0.44907338                3.29703746                0.52819320               -1.82681435               -2.39282464               14.93591816               -0.74316153
               9.84250826               11.05072181               48.60884382                0.34045164                5.51994547               -1.14005973               -2.17517677               -1.72134500               28.83242219               -0.21468195
              10.89133785               10.71320535               48.64441180                0.33121145                4.55028164               -0.69299313               -2.48400319               -0.46193924               28.81790495                0.21994083
              11.93351389               10.37074570               48.67638473                0.33963474                3.95293779               -0.44478563               -2.72552941               -0.35359406               29.66769496                0.54629608
              12.97039661               10.02264890               48.71064374                0.36517060                3.37260037               -0.14573080               -2.91037407               -0.38372534               31.01834002                0.84766383
              14.00096590                9.66784355               48.75113950                0.41238032                2.65400062                0.15573784               -3.11661621               -0.49282013               32.81519001                1.31382559
              15.02347662                9.30837977               48.80424556                0.54492279                1.57739768                0.65447484               -3.52234306               -0.53655746               26.67924850                2.65700566
              16.03251385                8.95051169               48.71041949                0.67817039                0.97013638                0.83703310               -2.91160638               -0.42182719               10.15629345                0.97683465
              17.04287935                8.60406590               48.43047436                0.88283079                1.03654983                1.17514046               -3.97005939                0.21314579                0.84274939               -1.42850011
               3.79147324                2.11607018               50.75159641                1.00000000               -0.63383727               -0.73081291                2.52443035               -0.18337466               -1.11332221                1.02035907
               4.78513487                1.77519002               50.57098957                1.00000000               -0.53323400               -0.40000060                1.51742054               -0.11697972               -1.51172115                0.17140478
               5.78080856                1.43340191               50.38302293                1.00000000               -0.36695680               -0.08877717                0.56474742               -0.14368975               -1.52091042               -0.21627009
               6.77779573                1.08805466               50.20233914                0.71356648               -0.69256928                0.32548636               -0.37883129               -0.55307383               -0.62246771               -0.88463933
               7.76695717                0.73090485               50.03190012                0.78359002               -0.84045879                0.62829407               -0.92556901               -0.24661574                0.31660351                0.01334545
               8.76098656                0.36399479               49.86982933                0.87409785               -0.50045856                0.79432168               -1.58395838               -0.30800166                0.95661469               -0.05601351
               9.75694800               -0.01325897               49.71400668                0.89780047               -0.55212799                1.19544518               -2.34184449               -0.81588696                2.35701252               -0.35284585
              10.74994400               -0.40937278               49.58323428                0.94157408                0.50649751                1.90335781               -3.18809900               -1.08944588                6.38997592               -0.28535006
              11.76707795               -0.81446251               49.52142869                0.73188788                1.84282338                0.38531123               -2.23452824               -2.22812220                2.96045542                2.05277768
              12.78680046               -1.15278138               49.37032276                1.00000000                1.34502005                0.29735457               -1.54789791               -0.53571375                0.24767423                0.26134136
              13.79397835               -1.47913030               49.20472498                1.00000000                0.71778907                0.62720437               -2.31883586               -0.27022373               -0.43102245               -0.34314958
               4.13051966                3.10876205               50.67672212                1.00000000               -0.52204515               -0.70001237                2.23935868               -0.00574968               -0.27893846                1.35683735
               5.12529921                2.77119001               50.49613711                1.00000000               -0.37901586               -0.36681042                1.22984463                0.05124176               -0.44361490                0.26227350
               6.12293934                2.43251413               50.31281941                1.00000000               -0.08928442               -0.05152568                0.24733009                0.02597427               -0.36670910               -0.36274707
               7.12351352                2.09130952               50.13391481                0.52732249                0.17908050                0.33208378               -0.73607152               -0.49887953                1.06401241               -1.22109613
               8.12652095                1.73718780               49.97913588                0.67002651                0.32374668                0.46545723               -1.43026816               -0.21184550                1.93593280                0.12472204
               9.12998845                1.37193800               49.82186657                0.85862847                0.44759836                0.77617154               -2.25746077               -0.28557106                1.94886380                0.03074171
              10.13547292                0.99869548               49.66933958                0.91788816                0.48314267                1.23871472               -3.29618572               -0.75359344                3.78119126               -0.51473371
              11.13965131                0.60966080               49.54962343                1.00000000               -0.94859454                2.31967154               -4.74935945               -2.57854756               11.34913266               -0.92076051
              12.11650103                0.18939060               49.54887805                0.91198253               -1.29370434               -0.02078952               -4.05003809               -4.62982685               11.05839244                4.77674817
              13.11377722               -0.14980783               49.41217225                1.00000000                0.05620053                0.22364082               -0.84379821               -0.64253261                1.46689851                0.44240878
              14.11762504               -0.47285825               49.24616476                1.00000000                0.38478192                0.54164304               -1.76119969               -0.09139142                0.03449475               -0.34643847
               4.46650233                4.10206993               50.60938645                1.00000000               -0.40947113               -0.63374428                1.91907489               -0.00785264               -0.02294772                1.68657961
               5.46240762                3.76785381               50.42331108                1.00000000               -0.26468984               -0.28641116                0.93553958                0.03246576                0.05651552                0.29098367
               6.46120853                3.43237139               50.23929700                0.83067611                0.03684303                0.04986488               -0.05671018               -0.04893118                0.28440966               -0.78271332
               7.46314448                3.09469633               50.05774149                0.06362921                1.04416232                0.37997919               -1.06124803               -0.89574522                2.91674660               -1.58789600
               8.48209178                2.74021400               49.92586288                0.03243902                1.53114853                0.47525725               -1.97037254               -1.86305052                3.86155821                0.08516356
               9.49376745                2.37951822               49.77235381                0.09542580                1.10307815                0.95522710               -2.91160820               -2.39318115                2.55580789                1.87914144
              10.50415334                2.01151532               49.61650197                0.15253971                0.69552358                1.44927207               -3.93004446               -3.32047696                4.04703127                3.83780462
              11.50767792                1.63702065               49.49185245                0.21650763               -3.51016508                2.25541653               -5.36913028               -8.25249432               17.79602079                6.33986348
              12.43395004                1.18512170               49.60622706                0.31326845               -3.57396279                0.57679103               -0.59025577               -6.59252222               15.37955239                3.51408150
              13.43619867                0.85169144               49.45741418                1.00000000                0.21506655                0.07112842               -0.27149412               -0.57882131                1.13584056                0.53880754
              14.43825137                0.53170256               49.28669418                1.00000000                0.20527064                0.35922586               -1.12744672               -0.07088971                0.03699075               -0.31507322
               4.79879486                5.09608717               50.54173340                1.00000000               -0.31477958               -0.54945203                1.59229259               -0.03406187                0.11212278                1.49078363
               5.79564706                4.76546179               50.34916373                0.96191964               -0.18383334               -0.17876497                0.63824381               -0.01304796                0.27840538                0.04911374
               6.79511819                4.43351143               50.16026407                0.30744112                0.10544726                0.18042585               -0.28379454               -0.14962635                0.96009626               -1.25315853
               7.79775601                4.09890910               49.98100458                0.00010000                0.46599315                0.51053002               -1.33667307               -1.12198479                4.84600882               -1.79365055
               8.80443806                3.74669294               49.86909040                0.00010000                0.65337495                0.85106821               -2.10083558               -2.75756925                8.14995700                1.00393369
               9.81082351                3.39104255               49.75876387                0.00010000                0.35614474                1.20284414               -2.84195884               -3.59786902                8.44274413                3.95136688
              10.81156095                3.02768092               49.65606426                0.00010000               -0.49142324                1.53348636               -3.46097352               -4.73059184               11.04198993                7.42713022
              11.80099504                2.65476913               49.60015664                0.00010000               -2.07905794                1.22999589               -3.15119188               -9.22558966               17.28591032                9.96683809
              12.76997979                2.20092642               49.62407424                0.00010000               -2.26875571                3.53019091               -2.20070551               -4.94900564               13.99037405               -0.75998564
              13.75561993                1.85161474               49.50193618                0.15617860               -0.68973965                1.18404402                0.15009652               -0.00932485                2.78698758                0.26869685
              14.75618500                1.53432626               49.32826254                0.68018419                0.05650698               -0.53292871               -0.56408552                1.49465556                0.17245115               -1.08358078
               5.12707185                6.09108089               50.47093292                1.00000000               -0.23494590               -0.45200957                1.27683343               -0.05626222                0.19652210                1.15893353
               6.12472239                5.76427851               50.27154282                0.58405553               -0.11515822               -0.04698975                0.32594329               -0.05488692                0.43107532               -0.39704703
               7.12476869                5.43597991               50.07706997                0.07418468                0.14004411                0.34622841               -0.58488673               -0.22040213                1.55782383               -1.73670533
               8.12752328                5.10490693               49.89983009                0.00010000                0.50191323                0.53662061               -1.48564248               -1.00882731                7.96414166                0.67527852
               9.13480695                4.75723536               49.83283237                0.00010000                0.66494069                0.96969425               -2.02990465               -1.94660879               12.77887567                2.47203596
              10.14082209                4.40357510               49.75164820                0.00010000                0.55039868                1.10289104               -2.62480213               -2.37727710               12.59699037                4.28451849
              11.14581493                4.04218505               49.68062030                0.00010000                0.45492686                1.08954644               -2.90409006               -3.19540980               14.19681042                5.83274701
              12.14992063                3.66162057               49.63050802                0.00010000               -0.38453052                0.84826840               -2.76301067               -4.54328650               15.60170442                4.97978250
              13.13812432                3.25572552               49.58480481                0.00010000               -2.36541499                4.13608275               -2.12486097               -3.22396094               15.96823780               -0.28778255
              14.10261233                2.87537232               49.54234285                0.13847292               -1.77014419                2.28518873               -0.71016730               -0.73581462                8.24124026                1.33300400
              15.10272143                2.52104399               49.35367518                0.66269353                0.01091054               -0.61052484               -1.64549556                0.69453881                0.51790662               -2.80663081
               5.45127439                7.08704697               50.39695221                1.00000000               -0.16240773               -0.35455915                0.98093299               -0.03878254                0.03444134                0.88044818
               6.44965031                6.76452199               50.18842074                0.40862234               -0.05963306                0.06478170                0.05627361               -0.04072919                0.42821050               -0.70223195
               7.45008172                6.44043600               49.98788946                0.00010000                0.33368503                0.51045833               -0.85129858               -0.40104809                5.05464277               -2.20541303
               8.45632401                6.10964152               49.87144956                0.00010000                0.83779935                0.51541292               -0.96136191               -0.81915471               11.88447209                2.91780116
               9.46683771                5.76608683               49.80468698                0.00010000                1.10021357                0.75640147               -1.99537163               -1.51859179               14.86545440                2.99995426
              10.47832828                5.41310037               49.74499462                0.00010000                1.13847892                0.76464082               -2.45827854               -1.95849048               15.74194490                4.13486145
              11.48960729                5.04947185               49.69181356                0.00010000                0.91302823                0.63325962               -2.66155015               -2.60681125               16.67436402                4.80258822
              12.49658884                4.67173449               49.64620527                0.00010000                0.10707640                0.93869134               -2.54951796               -3.39800889               17.58914089                4.25658375
              13.49174882                4.28364808               49.60690133                0.00010000               -1.05018405                2.09182015               -2.08153167               -2.95866640               18.28698989                3.09052295
              14.47558516                3.89731851               49.57270366                0.17611710               -0.65081900                1.61216885               -1.31893983               -0.61286186                9.49946575                1.41738821
              15.47873244                3.52211577               49.35867504                0.69568316                0.31472739                0.56222615               -2.64185607                0.23442060                0.39566401               -2.77759765
               5.77134617                8.08398971               50.32076802                0.98813229               -0.08273849               -0.26277796                0.70083077               -0.03432701                0.01281267                0.73210244
               6.77051878                7.76557414               50.10462635                0.32970918                0.01410162                0.13695175               -0.19051712               -0.00391166                0.32344305               -0.73344314
               7.77162820                7.44618908               49.89473769                0.00010000                0.74852866                0.60384507               -1.07445031               -0.55234951                8.04553017               -2.43900721
               8.78548936                7.11521519               49.83251251                0.00010000                1.46740328                0.55830172               -1.53610887               -0.97973891               16.12983102                1.47997200
               9.80097627                6.77236339               49.77887601                0.00010000                1.63889496                0.51569283               -2.00844380               -1.44484717               17.40939163                2.79135349
              10.81826726                6.41886792               49.73608894                0.00010000                1.70341542                0.43236140               -2.41034411               -1.83605888               18.58986757                3.76524010
              11.83504458                6.05485024               49.69897586                0.00010000                1.47584826                0.41634111               -2.57269861               -2.26272575               19.41175427                4.39273371
              12.84778422                5.68039439               49.66538234                0.00010000                0.91611973                0.66227104               -2.49450496               -2.55320122               19.94699542                4.39796148
              13.85336697                5.29756192               49.63258275                0.00010000                0.20515893                1.01355473               -2.18603758               -2.36091960               20.10003145                3.50845598
              14.85188740                4.90761570               49.59751780                0.21004992                0.22241835                0.88921202               -1.68672028               -0.77892800               10.19306497                1.18152894
              15.85781534                4.53228851               49.36378362                0.72314539                0.59279364                1.04582581               -2.99363793                0.16496789                0.22273234               -2.28210789
               6.08741898                9.08179142               50.24396568                0.94211858               -0.00462735               -0.17929883                0.43877956               -0.03698704                0.02615965                0.69918348
               7.08737271                8.76726103               50.02073955                0.31555656                0.09873509                0.19947015               -0.43634653                0.03006115                0.16634884               -0.72838058
               8.08939368                8.45251290               49.80028724                0.00010000                1.15911028                0.62557487               -1.28321610               -0.73178609               10.02051472               -2.45071129
               9.11055491                8.12080755               49.77347129                0.00010000                2.24471787                0.44372642               -1.75272837               -1.38591588               20.12003918                0.27701921
              10.13428804                7.77640068               49.74688520                0.00010000                2.42826699                0.22399803               -2.15474183               -1.62403856               20.78561744                2.10456272
              11.15912025                7.42174760               49.72383041                0.00010000                2.42691291                0.11393988               -2.44812491               -1.74814849               21.66477371                3.23019798
              12.18282630                7.05779867               49.70451707                0.00010000                2.18464439                0.14497857               -2.58182940               -1.91930767               22.37857298                4.01535781
              13.20281314                6.68497991               49.68570300                0.00010000                1.72414104                0.28554818               -2.52558087               -2.06245471               22.54718633                4.45904091
              14.21730912                6.30391917               49.66139996                0.00010000                1.12334347                0.44606066               -2.30261823               -2.08044295               21.66922616                4.06997398
              15.22528001                5.91510275               49.61917409                0.23860313                0.76885229                0.74038955               -2.01165647               -0.87792312               10.56462329                1.01867752
              16.23268617                5.54303228               49.36881574                0.74170349                0.74061551                1.06368216               -3.21114181                0.08753317                0.12437013               -2.14343722
               6.39966721               10.08040373               50.16726227                0.93182596                0.07313139               -0.09365308                0.18073770               -0.03536022                0.00431714                0.69860548
               7.40039852                9.76956354               49.93679562                0.35848297                0.18893740                0.25612442               -0.68168490                0.04132467                0.01260389               -0.69547712
               8.40344595                9.45870057               49.70640027                0.00010000                1.67423697                0.59244686               -1.49553768               -1.05551202               11.76671043               -2.13168350
               9.43388326                9.12408972               49.71030151                0.00010000                3.20547486                0.08733399               -1.93667418               -1.80217852               23.74864842                0.00144382
              10.46755545                8.77684335               49.70854234                0.00010000                3.40115185               -0.24851022               -2.29915478               -1.62622259               24.10229690                1.43905781
              11.50190630                8.42114672               49.70652360                0.00010000                3.29353253               -0.24536645               -2.54710153               -1.46703967               24.88391564                2.46089529
              12.53342610                8.05774981               49.70660709                0.00010000                2.92541651               -0.14383660               -2.64870978               -1.49141221               25.68911033                3.28641949
              13.56041463                7.68610536               49.70744573                0.00010000                2.41045851               -0.00160540               -2.57954860               -1.63836839               25.75995841                4.13479365
              14.58163527                7.30648313               49.69787052                0.01441059                1.74005996                0.15344922               -2.34896683               -1.69233399               23.13340558                5.21147995
              15.59521583                6.92242349               49.63948008                0.26555941                1.10358340                0.75324889               -2.31650651               -0.80013883               10.50414685                1.02332215
              16.60370694                6.55356216               49.37346276                0.75314621                0.84911140                1.06115835               -3.41630456                0.05735179                0.08197784               -2.15178626
               6.70839216               11.07991835               50.09055511                0.91281530                0.15102062               -0.00232117               -0.08446950               -0.03805472               -0.00181054                0.60979136
               7.70990236               10.77238351               49.85325112                0.42248822                0.26825563                0.31002616               -0.92818118                0.01780814                0.09478231               -0.56802571
               8.71375727               10.46436184               49.61771933                0.00010000                2.32331011                0.56834452               -1.71838381               -1.60985834               13.45387370               -1.29773431
               9.75636856               10.12255423               49.64689492                0.00010000                4.54746629               -0.78764349               -2.14040290               -1.74068719               26.87504304               -0.01883792
              10.80470659                9.77143048               49.66578975                0.00010000                4.62522187               -0.75330190               -2.47675402               -1.16049668               27.08071390                0.77487551
              11.84887300                9.41684027               49.68221556                0.00010000                4.16664101               -0.58946977               -2.69397403               -0.83173779               27.92121651                1.39163195
              12.88803941                9.05492194               49.70093927                0.00010000                3.62197260               -0.38841913               -2.76472207               -0.85042210               29.06326823                1.94393383
              13.92131245                8.68494781               49.72363764                0.00010000                2.95524470               -0.19231418               -2.66128845               -1.03094502               30.19418699                2.67422666
              14.94714431                8.30698816               49.75004352                0.04652682                2.04428791                0.11991027               -2.30154633               -1.01900407               25.08101852                4.43090031
              15.96219821                7.93016773               49.66097944                0.30718043                1.22057800                0.79754805               -2.60379434               -0.58167001                9.66847417                1.00490839
              16.97155587                7.56425545               49.37790155                0.75571000                0.93576566                1.09990331               -3.61780370                0.04268499               -0.08098438               -1.76199201
               7.01397579               12.08035731               50.01218405                0.96825400                0.23354074                0.04389562               -0.34867291                0.09903931                0.30488716                0.52215065
               8.01631120               11.77576407               49.77145486                0.76828095                0.35511404                0.33805531               -1.18881237                0.12639137                0.76729889               -0.45647885
               9.02107807               11.47006746               49.53974247                0.44664018                3.78448399                0.57056251               -1.98302272               -2.63928052               15.15832737               -0.72022152
              10.09200088               11.10833685               49.58602661                0.34032698                6.44907056               -1.42173808               -2.39716156               -1.85127601               29.31174897               -0.17551424
              11.15005948               10.76177732               49.61843846                0.33130961                5.48896005               -0.96531618               -2.72240041               -0.41368760               29.42593443                0.27167496
              12.20178008               10.40935732               49.64822203                0.33938712                4.91253184               -0.74829462               -2.91817080               -0.29908649               30.43195761                0.60383286
              13.24831012               10.04998143               49.68132670                0.36412472                4.29747156               -0.49405093               -2.95946592               -0.32784180               31.93000040                0.90024647
              14.28772951                9.68225907               49.72148582                0.40682977                3.38625735               -0.26887338               -2.81600898               -0.41329891               33.83257899                1.33346566
              15.31603527                9.30888134               49.77467932                0.54665648                1.92928110                0.18931824               -2.41072717               -0.30513530               27.75521167                2.61750439
              16.32631513                8.93837445               49.68125973                0.68286444                1.01749677                0.82067188               -2.86375055               -0.25436378               10.67534196                0.91436479
              17.33638520                8.57556022               49.39113514                0.88035041                1.00700701                1.13047717               -3.82037079                0.20151058                0.79302830               -1.38575265
               3.96628685                2.20234749               51.77757327                1.00000000               -0.66100448               -0.76893871                2.66081536               -0.20208087               -1.04916018                0.97256419
               4.95967680                1.85314841               51.58640448                1.00000000               -0.54626844               -0.40946316                1.55867649               -0.13451602               -1.41077945                0.16134272
               5.95536148                1.50304002               51.38846714                1.00000000               -0.34844480               -0.06904638                0.51659926               -0.15948598               -1.37393358               -0.21448349
               6.95270791                1.14952647               51.19787888                0.71531187               -0.63594863                0.37266681               -0.52467309               -0.49167695               -0.24244418               -0.86512946
               7.94264250                0.78617320               51.02158814                0.79950745               -0.79793236                0.76001023               -1.19598872               -0.26238236                0.98037229               -0.01096870
               8.93674926                0.41468912               50.85242624                0.90816900               -0.49628782                0.96461215               -2.00321217               -0.30181242                1.71552582               -0.08762932
               9.93271675                0.03317650               50.68830988                0.92603331               -0.71837923                1.43770426               -2.97871822               -0.83004334                3.36383165               -0.30525911
              10.92238167               -0.36762511               50.54786965                0.82242425               -1.68471237                2.42094717               -4.31245082               -2.31883102                8.97006198                0.12539706
              11.89902250               -0.80896045               50.49004368                0.39231573                1.58967346                2.56242166               -3.72076943               -0.21215876                6.16713713                2.50126429
              12.95417514               -1.19555726               50.35404052                1.00000000                3.08190481                0.33285496               -1.62244047               -2.81939240                1.73910692                0.30632003
              13.96066060               -1.52629171               50.18065352                1.00000000                0.64854544                0.66203009               -2.41802936               -0.26852798               -0.18786272               -0.24947586
               4.31346512                3.19465811               51.69978360                1.00000000               -0.54797419               -0.73357426                2.36406053               -0.00913081               -0.25666456                1.29560751
               5.30798538                2.84905378               51.50861150                1.00000000               -0.39437684               -0.37413458                1.25954703                0.05032610               -0.40073181                0.25031775
               6.30557758                2.50234955               51.31501691                1.00000000               -0.08804166               -0.03050487                0.18817072                0.03259448               -0.30457249               -0.35452340
               7.30622455                2.15325314               51.12579116                0.55597505                0.09298881                0.38016981               -0.89189925               -0.36571398                1.29464498               -1.19313264
               8.30743736                1.79377330               50.96390340                0.71612357                0.20024686                0.61789931               -1.66349122               -0.17556842                2.34086223                0.07136416
               9.31022948                1.42433524               50.79794791                0.91730122                0.40680330                0.93674489               -2.59889498               -0.22620777                2.25380323                0.00281074
              10.31557343                1.04755354               50.63436187                0.91859206                0.50161762                1.43643886               -3.78761674               -0.55341923                3.80843047               -0.37314529
              11.32026184                0.65658436               50.49792620                0.75262609               -0.23532191                2.54528814               -5.65826724               -2.76448233               11.61107391               -0.22253621
              12.31086699                0.21666377               50.48551064                0.42880568               -1.78074936                0.47685431               -7.89333486               -6.89038542               15.58900708               10.21169291
              13.28464685               -0.19222871               50.40341056                1.00000000               -1.10786106                0.23424656               -0.92584987               -3.95744999                4.65437727                0.43575754
              14.28870977               -0.51967141               50.22813971                1.00000000                0.40629185                0.56800054               -1.80664026               -0.10074572                0.01425686               -0.23294498
               4.65731289                4.18767601               51.62915454                1.00000000               -0.43210101               -0.65831503                2.02847180               -0.01008733               -0.01155090                1.60795358
               5.65299188                3.84566572               51.43276205                1.00000000               -0.27494427               -0.28971143                0.95087434                0.03661043                0.06803996                0.27526226
               6.65181400                3.50242992               51.23837818                0.83797567                0.04890020                0.06782631               -0.12812957               -0.02626364                0.28820291               -0.73150912
               7.65396988                3.15712987               51.04632063                0.07583482                0.81175204                0.42609330               -1.21789626               -0.67791811                2.99000342               -1.51771419
               8.66804904                2.79853118               50.90553309                0.04507806                1.22374905                0.59349032               -2.13393994               -1.47877651                3.98103318                0.21040547
               9.67844486                2.43342401               50.74211425                0.11659292                1.06750977                0.99002704               -3.17754993               -2.03620839                2.57050673                2.23696785
              10.68939924                2.06190527               50.57519204                0.14846177                0.97684684                1.32832782               -4.40186709               -2.99997947                3.81719275                4.71150476
              11.69798180                1.68328065               50.43526039                0.09143491               -3.96856862                1.73463599               -5.64054273               -9.36852996               20.52268920                8.66707253
              12.61002786                1.20057664               50.59587269                0.17391504               -4.33102397                0.06704915               -3.23245507              -10.88501067               18.94722715                7.32670183
              13.61136132                0.80912767               50.45458176                0.92315446                0.17516075                0.06103061               -0.32501392               -3.25611057                1.91137002                0.45575006
              14.61353108                0.48506830               50.27574593                1.00000000                0.21697612                0.36452286               -1.12369379               -0.07799143                0.05265406               -0.20819561
               4.99728396                5.18149181               51.55813660                1.00000000               -0.33202784               -0.56628517                1.68493730               -0.03435397                0.11911639                1.41909649
               5.99396368                4.84325955               51.35554630                0.93772568               -0.18478985               -0.17844490                0.63666293               -0.00767777                0.30202301                0.02553559
               6.99358816                4.50370608               51.15694940                0.29428656                0.13006223                0.19788366               -0.37926537               -0.12143648                0.93913421               -1.19788043
               7.99656492                4.16177501               50.96680964                0.00010000                0.39897650                0.55569362               -1.50045288               -0.90490061                4.92101026               -1.63800797
               9.00156769                3.80564310               50.84720210                0.00010000                0.47831512                0.89056258               -2.27990646               -2.22478156                8.35720230                1.39416578
              10.00613122                3.44413578               50.72924155                0.00010000                0.20747541                1.12617860               -3.06765727               -3.12845170                8.71383446                4.65837155
              11.00571720                3.07412010               50.62011074                0.00010000               -0.59556756                1.19936678               -3.69242072               -4.46436954               11.84471097                8.70984490
              11.99421987                2.69127708               50.56660419                0.00010000               -1.91987195                0.46947282               -3.61784803               -9.75983809               18.74631723               12.26080976
              12.96731976                2.21800475               50.59539836                0.00010000               -2.95934499                3.28803991               -3.12564326               -7.21422302               17.39373560                0.62498185
              13.93503297                1.80899190               50.50399593                0.11912070               -1.60255390                2.31588870                0.23982161               -1.67933668                4.71701793               -0.65820939
              14.93526868                1.48761905               50.32339588                0.64223215                0.02357066               -0.36977257               -0.48534819                2.33928713                0.23698443               -1.99082473
               5.33309032                6.17635030               51.48408476                1.00000000               -0.24662725               -0.46291310                1.35267225               -0.05381282                0.18014358                1.10744559
               6.33062405                5.84209682               51.27472042                0.55881706               -0.11102542               -0.04533019                0.30805313               -0.04462354                0.43589876               -0.40654860
               7.33086981                5.50638759               51.07069989                0.06022763                0.16553978                0.36787602               -0.69165630               -0.18662000                1.59313476               -1.70406969
               8.33393484                5.16824374               50.88408347                0.00010000                0.51614151                0.62978756               -1.65594302               -0.75733969                8.19334417                1.21988444
               9.34119264                4.81634243               50.81151348                0.00010000                0.67319965                0.96826998               -2.23718878               -1.52770184               13.15522174                2.90868350
              10.34739884                4.45594759               50.72424638                0.00010000                0.58889497                1.01203702               -2.85027173               -1.98896888               13.11416319                4.92916749
              11.35297054                4.08589261               50.65023582                0.00010000                0.57507725                0.82948076               -3.16653242               -2.91934068               15.11145287                6.76441692
              12.35890038                3.69267011               50.60102374                0.00010000               -0.24709782                0.41093367               -3.09233845               -4.67090235               17.08192884                5.98006867
              13.34802858                3.26633744               50.56205382                0.00010000               -2.53700471                3.76171701               -2.43039305               -4.33589899               18.28819342                0.79870521
              14.30816029                2.85544545               50.53283836                0.11745717               -2.24830275                3.85227747               -1.44981916               -1.06653216               10.16949123                0.98724952
              15.30306253                2.47767285               50.33503886                0.64353181               -0.50977569                0.21254123               -2.29908246                0.69303494                1.12959195               -3.87243949
               5.66471467                7.17223354               51.40706624                1.00000000               -0.16807502               -0.36229396                1.04133934               -0.03814058                0.02414003                0.85043258
               6.66303392                6.84235294               51.18883257                0.38886134               -0.05029171                0.06800547                0.02584824               -0.02762977                0.42681800               -0.68162108
               7.66370883                6.51106360               50.97875109                0.00010000                0.42146842                0.53382276               -0.97683289               -0.31056626                5.46813981               -2.14910502
               8.67146329                6.17437076               50.86080765                0.00010000                0.98004876                0.62375189               -1.19877726               -0.54113632               12.26477322                3.24870120
               9.68330981                5.82500850               50.78357629                0.00010000                1.26691919                0.73013878               -2.22930834               -1.16910384               15.07085218                3.35200404
              10.69680167                5.46437652               50.71918250                0.00010000                1.36490240                0.64657882               -2.70882715               -1.64700352               16.37589556                4.60069596
              11.71060786                5.09070971               50.66390970                0.00010000                1.17776645                0.41525686               -2.92255144               -2.42095964               17.64866733                5.35844796
              12.72035700                4.69949576               50.61941995                0.00010000                0.36092925                0.68303663               -2.81431338               -3.52456300               19.00264657                4.83379407
              13.71782644                4.29323909               50.58463901                0.00010000               -0.89950422                2.03350535               -2.39484069               -3.35128140               20.21477687                3.48101164
              14.70236691                3.88603745               50.55814222                0.16278665               -0.65759362                2.12050516               -1.68786553               -0.72040016               10.76684476                1.39723600
              15.70467457                3.49186987               50.33054087                0.68096888                0.23076550                1.46133860               -2.99599423                0.46936599                0.68692417               -2.81144410
               5.99208870                8.16910443               51.32801922                0.98027222               -0.08473083               -0.27015072                0.74977106               -0.03578097                0.01749911                0.72098103
               6.99124140                7.84345693               51.10251536                0.31445755                0.02759834                0.14569548               -0.23257997                0.00937905                0.33117487               -0.70366933
               7.99264067                7.51706405               50.88331452                0.00010000                0.89629079                0.62898514               -1.21120162               -0.44078226                8.27293438               -2.36001331
               9.00916721                7.18071878               50.81602723                0.00010000                1.75820678                0.59448582               -1.76124637               -0.73648529               16.56494341                1.40878040
              10.02780481                6.83094521               50.75755572                0.00010000                1.97951734                0.46042238               -2.26641824               -1.18651948               17.90510779                3.02290276
              11.04875756                6.46887916               50.71072922                0.00010000                2.08136517                0.30007960               -2.67525657               -1.60030110               19.26946012                4.06766149
              12.06943211                6.09419775               50.67208235                0.00010000                1.85610910                0.24256446               -2.82645098               -2.13277831               20.38887740                4.72492063
              13.08587974                5.70633084               50.63941941                0.00010000                1.25145755                0.51470732               -2.72781683               -2.62533963               21.25442275                4.69934984
              14.09446126                5.30700754               50.60987705                0.00010000                0.46208800                0.99312837               -2.39659044               -2.66547176               21.75848471                3.70903822
              15.09512150                4.89785555               50.58019569                0.20204910                0.31618725                0.98493585               -1.80734281               -0.95469325               11.16403100                1.19819782
              16.10078501                4.50689962               50.33338413                0.71042248                0.56635055                1.35026048               -3.05839698                0.19314430                0.30143928               -1.98192038
               6.31529404                9.16683053               51.24855319                0.93608025               -0.00321646               -0.18588303                0.47839660               -0.03656016                0.02701536                0.69850946
               7.31526188                8.84526685               51.01610062                0.30262711                0.11686476                0.21340871               -0.49061315                0.04169087                0.18558209               -0.69768791
               8.31763134                8.52364330               50.78678849                0.00010000                1.37952713                0.65277725               -1.42149047               -0.64846564               10.24716708               -2.36757941
               9.34285242                8.18626048               50.75485630                0.00010000                2.68938512                0.41018395               -1.97705984               -1.19767665               20.56821422                0.37804182
              10.37141904                7.83421695               50.72406687                0.00010000                2.93453456                0.11804290               -2.42238392               -1.44020215               21.34589984                2.24487187
              11.40154311                7.47037811               50.69811712                0.00010000                2.95407854               -0.04384938               -2.71600919               -1.55815073               22.39801039                3.42547191
              12.43050061                7.09556100               50.67772642                0.00010000                2.67486500               -0.02544120               -2.80700696               -1.77282625               23.34206094                4.22262473
              13.45504041                6.70978990               50.65991654                0.00010000                2.12458457                0.16145513               -2.67357965               -2.05008740               23.75983272                4.66456454
              14.47299230                6.31310166               50.63830402                0.00010000                1.41702799                0.40581602               -2.36601265               -2.31059326               23.07464943                4.27369002
              15.48338097                5.90573617               50.59914577                0.23514843                0.87285043                0.75823782               -1.99530798               -1.06440093               11.32095325                1.00284535
              16.49044931                5.51887508               50.33698843                0.73024295                0.70683397                1.12094025               -3.12031575                0.07822435                0.14501350               -1.89015049
               6.63448485               10.16538676               51.16920191                0.92678782                0.07775911               -0.09922383                0.20823613               -0.03543733                0.00501215                0.69567002
               7.63526244                9.84772510               50.92967447                0.34625197                0.20964437                0.27375177               -0.74270627                0.04839561                0.03988399               -0.66513332
               8.63867774                9.53011959               50.69075331                0.00010000                1.96887947                0.62584730               -1.63883214               -1.03612638               12.00708232               -2.06006204
               9.67464003                9.18892246               50.68982202                0.00010000                3.81026966               -0.01199616               -2.16891259               -1.71403317               24.21636342                0.09962915
              10.71488313                8.83330607               50.68427164                0.00010000                4.08052329               -0.42401394               -2.57232698               -1.50382485               24.69288044                1.55599300
              11.75625050                8.46800217               50.67988012                0.00010000                3.98403314               -0.45251687               -2.80655247               -1.30569210               25.64575996                2.59221529
              12.79456379                8.09368892               50.67942139                0.00010000                3.55434194               -0.36478638               -2.82313747               -1.31583861               26.67198128                3.42970915
              13.82733733                7.70955995               50.68193517                0.00010000                2.88696686               -0.20296436               -2.57328197               -1.50332238               26.97804179                4.31217263
              14.85230313                7.31512386               50.67584342                0.01843528                2.03613614                0.02712875               -2.12145620               -1.75385534               24.29920672                5.56592626
              15.86806006                6.91302031               50.61673585                0.26631731                1.18842675                0.73618561               -2.22170995               -0.95498836               11.00574886                0.98115630
              16.87607167                6.52931843               50.34005486                0.74301472                0.80116078                1.02635932               -3.23135483                0.04925614                0.08039346               -1.96568588
               6.94990862               11.16484605               51.08979455                0.90580439                0.15883433               -0.00753752               -0.06608046               -0.03936498                0.00183615                0.60404255
               7.95149696               10.85074189               50.84361466                0.40932336                0.29014170                0.33192381               -0.99917477                0.02034051                0.12738659               -0.54758525
               8.95571145               10.53616025               50.59979503                0.00010000                2.69441602                0.60843750               -1.86832978               -1.69326665               13.70084185               -1.25312692
              10.00538528               10.18602055               50.62435738                0.00010000                5.32756879               -0.99871597               -2.37799209               -1.75081775               27.35845528                0.04632401
              11.06226283                9.82573667               50.63974548                0.00010000                5.48305655               -0.99823152               -2.74985309               -1.09573915               27.69786466                0.84781576
              12.11504641                9.46132777               50.65417467                0.00010000                5.01816189               -0.85963790               -2.93842779               -0.72285510               28.71754718                1.46915371
              13.16262607                9.08826527               50.67285712                0.00010000                4.42463049               -0.69049785               -2.88390231               -0.72140638               30.09387813                2.02765207
              14.20353902                8.70573062               50.69812043                0.00010000                3.59143845               -0.53717242               -2.49629690               -0.88467582               31.58944995                2.79535693
              15.23445483                8.31364423               50.73145759                0.05321203                2.32738081               -0.18328006               -1.51207540               -0.93834592               26.05757330                4.72389474
              16.25008664                7.92045988               50.63550079                0.31372012                1.21916773                0.76090576               -2.47159297               -0.63685757                9.80817424                0.94742203
              17.25883819                7.53940227               50.34279496                0.74778704                0.87515507                1.02826187               -3.36917561                0.04010967               -0.09174574               -1.62789830
               7.26190587               12.16523601               51.00872707                0.96390676                0.24491809                0.03899619               -0.34052637                0.11248212                0.29672884                0.51567487
               8.26435506               11.85436358               50.75915578                0.76093153                0.38139333                0.36216891               -1.27056495                0.13842578                0.78478177               -0.44382709
               9.26953374               11.54228834               50.51912944                0.44424907                4.28460978                0.61280944               -2.14101646               -2.88854307               15.39406649               -0.69578331
              10.35004725               11.16894814               50.56090058                0.34026840                7.40636934               -1.70724127               -2.63643607               -1.98114842               29.80615067               -0.13314796
              11.41766113               10.81334144               50.58996379                0.33137434                6.46087717               -1.23952362               -2.98627935               -0.36710627               30.07302696                0.32000170
              12.47926479               10.45080942               50.61802131                0.33916553                5.90358476               -1.05183569               -3.14025288               -0.25128540               31.27405413                0.65651009
              13.53573282               10.07987897               50.65145443                0.36311108                5.25000314               -0.83863065               -3.03900579               -0.28897023               33.02270589                0.96029139
              14.58426486                9.69881650               50.69481932                0.40293729                4.15370618               -0.69141180               -2.56307756               -0.34845175               35.31050500                1.42059009
              15.61880695                9.31145826               50.75603102                0.55112995                2.26500064               -0.21859714               -1.43273613               -0.09369269               28.62806416                2.82212426
              16.62956487                8.92823842               50.65314447                0.68840672                1.00910678                0.77785397               -2.72280105               -0.13090677               10.62417320                0.84380552
              17.63898908                8.54988366               50.35406695                0.87713872                0.94242122                1.04813952               -3.54804550                0.17961362                0.74334795               -1.29057367
               4.15282760                2.29110079               52.80481272                1.00000000               -0.68022037               -0.80078656                2.77456141               -0.21949941               -0.98010996                0.92292405
               5.14602540                1.93400283               52.60216310                1.00000000               -0.54860581               -0.41640298                1.58556914               -0.15181812               -1.30347512                0.15127444
               6.14185549                1.57601270               52.39335492                1.00000000               -0.30997725               -0.05000726                0.45525881               -0.17249031               -1.22726775               -0.20950284
               7.13982586                1.21492752               52.19184567                0.71905354               -0.49191149                0.40776020               -0.68675578               -0.42848056                0.08913183               -0.84141524
               8.13201726                0.84605495               52.00798034                0.81864805               -0.56252644                0.86151730               -1.56303428               -0.27001450                1.52113897               -0.01029648
               9.12857533                0.47119887               51.82976508                0.93973716               -0.16180143                1.11073450               -2.58161867               -0.27308219                2.25140786               -0.10975060
              10.12878123                0.08853186               51.65443232                0.89842806               -0.04819432                1.58185502               -3.85162083               -0.62064050                3.76365201               -0.28772546
              11.12761144               -0.30697795               51.49698526                0.56658570               -2.22657029                2.47972767               -5.64971623               -2.88389294               10.93193548                0.30390431
              12.08424982               -0.75537115               51.44701330                0.10937278                0.16806589                4.31665965               -5.17756176               -3.06615651               11.35333516               -0.65429139
              13.13097276               -1.24539505               51.33787396                1.00000000                2.63726398                0.37611369               -1.67108463               -7.85975803                3.48144757                0.29059410
              14.13699510               -1.57909219               51.15636439                1.00000000                0.60223455                0.64826262               -2.40841578               -0.22403509               -0.11983695               -0.24787331
               4.50773057                3.28309293               52.72400333                1.00000000               -0.56793069               -0.76123917                2.46867243               -0.01397726               -0.23000724                1.23273914
               5.50205126                2.92983880               52.52132805                1.00000000               -0.40311658               -0.37892868                1.27774962                0.04695429               -0.35030631                0.23752698
               6.49966824                2.57551263               52.31658283                1.00000000               -0.07656681               -0.01019894                0.12192890                0.03624244               -0.23620258               -0.34503206
               7.50051993                2.21900513               52.11607683                0.58957236                0.07566009                0.41980216               -1.04980375               -0.24393642                1.51634068               -1.15810795
               8.50118144                1.85467012               51.94586606                0.76828951                0.20430601                0.75342304               -1.97412715               -0.13986751                2.74177164                0.04529054
               9.50460605                1.48230621               51.76988867                0.97098592                0.52408968                1.08825346               -3.04754825               -0.16881986                2.54594429               -0.04328710
              10.51166323                1.10435041               51.59358724                0.86054027                0.80589851                1.57323423               -4.37688714               -0.29585313                3.69707299               -0.38720883
              11.52072402                0.71781933               51.43645809                0.39897461                0.55667889                2.43310313               -6.26686936               -2.33576750               10.62060091                0.38887214
              12.52279681                0.28779545               51.39101135                0.09895023               -2.82441604               -1.14304169               -6.62032259              -12.50649256               18.39835356                9.77036016
              13.46423570               -0.24163392               51.39365525                1.00000000               -2.71724631                0.28080635               -1.02146586               -9.84124693                9.30304235                0.41869172
              14.46845189               -0.57260956               51.21003196                1.00000000                0.42161888                0.56873308               -1.81714324               -0.09851361                0.01400336               -0.21533824
               4.85905631                4.27587601               52.64995589                1.00000000               -0.45115262               -0.67770249                2.12336786               -0.01381379                0.00426724                1.52645111
               5.85454478                3.92642426               52.44232856                1.00000000               -0.28211474               -0.29123374                0.95846009                0.03780902                0.08903898                0.25623132
               6.85341401                3.57580872               52.23673441                0.84178204                0.06224273                0.08597434               -0.20128360               -0.00656964                0.30883352               -0.68853306
               7.85578964                3.22332357               52.03338356                0.09283716                0.62524035                0.46904884               -1.36669807               -0.46408663                3.10178406               -1.44820182
               8.86591882                2.86112341               51.88318408                0.06380881                0.98645008                0.69628753               -2.36408248               -1.11954390                4.22504491                0.32096985
               9.87551864                2.49296394               51.70880281                0.13636842                1.07161172                0.98858172               -3.50979147               -1.67706759                2.67285841                2.52558789
              10.88735105                2.11999655               51.52846463                0.13243073                1.09662100                1.12418132               -4.87359614               -2.59252661                4.00327077                5.45065046
              11.89745106                1.74168411               51.37904159                0.00572451               -4.68889178                0.82013235               -5.42176145              -10.91593896               21.10822637               10.52421727
              12.79357322                1.22176802               51.54157796                0.07150979               -5.14491149               -2.02752617               -5.45669825              -16.18985458               23.60062898               10.30519052
              13.79455283                0.76022107               51.45091390                0.80559794                0.17014501                0.09139321               -0.40662706               -6.58792393                4.87263991                0.45916595
              14.79697612                0.43228247               51.26422030                1.00000000                0.24232909                0.39131994               -1.20318381               -0.11021505                0.09035149               -0.17562154
               5.20635779                5.26953888               52.57543215                1.00000000               -0.34830676               -0.57879199                1.76828917               -0.03511944                0.13005988                1.34349554
               6.20287473                4.92401413               52.36189699                0.91134771               -0.18601292               -0.17814988                0.63196395               -0.00131469                0.33112095               -0.00348728
               7.20263754                4.57723212               52.15267876                0.28174221                0.15243911                0.21440506               -0.47502098               -0.08868516                0.93720688               -1.15371593
               8.20592351                4.22838610               51.95099552                0.00010000                0.32563272                0.59915229               -1.66205819               -0.69246554                5.05304431               -1.48664397
               9.20915019                3.86859587               51.82349227                0.00010000                0.31340238                0.89557171               -2.47563415               -1.72392978                8.66308538                1.69469552
              10.21219156                3.50207785               51.69741072                0.00010000                0.09711682                0.96267807               -3.30833041               -2.64487290                9.15848747                5.23548139
              11.21109253                3.12683404               51.58221584                0.00010000               -0.57788933                0.68389398               -3.89501062               -4.19701528               12.72950062                9.85732452
              12.20063377                2.73422198               51.52779968                0.00010000               -1.53148828               -0.66389686               -4.02119806               -9.86494882               20.42375556               13.67778713
              13.18046276                2.24724492               51.56156138                0.00010000               -3.93355048                3.03454740               -4.21275046               -9.77638429               20.73143612                2.31319182
              14.12196276                1.76019395               51.50673261                0.08420802               -2.91689903                4.03749756                0.29724443               -3.67818982                6.97674412               -2.07262495
              15.12212478                1.43521684               51.31855557                0.61296424                0.01620203                0.20838712               -0.52598735                3.69909727                0.31048926               -3.40284974
               5.54940342                6.26430017               52.49798636                1.00000000               -0.25781710               -0.47088539                1.42333314               -0.05055476                0.16528005                1.05094057
               6.54682525                5.92286126               52.27770388                0.53656256               -0.10675417               -0.04597521                0.28870893               -0.02881257                0.44636774               -0.41987673
               7.54726833                5.58009683               52.06323684                0.04668299                0.18756622                0.38035770               -0.80215469               -0.13613684                1.65506093               -1.68048350
               8.55057657                5.23530661               51.86671123                0.00010000                0.52400722                0.71428356               -1.81283155               -0.50956107                8.46866418                1.71332189
               9.55774848                4.87903484               51.78808860                0.00010000                0.69032208                0.92443960               -2.45526341               -1.11797005               13.61425253                3.23195404
              10.56438301                4.51221750               51.69464276                0.00010000                0.67590723                0.82767978               -3.08164034               -1.60195954               13.74344319                5.40221499
              11.57126662                4.13367443               51.61728965                0.00010000                0.76790933                0.39801184               -3.42603984               -2.62803344               16.17267587                7.37443527
              12.57974120                3.72840618               51.56866125                0.00010000                0.04034692               -0.21036335               -3.41752541               -4.79683860               18.69531124                6.63088460
              13.57207356                3.28245896               51.53619695                0.00010000               -2.33620405                2.91000784               -2.71689849               -5.52879128               20.41774581                1.36473084
              14.53301712                2.84097102               51.51334646                0.09455432               -2.55806396                5.88559819               -2.72429705               -1.14756513               12.08527172                0.03226448
              15.52091228                2.43645022               51.30769353                0.62640826               -1.21048355                1.61623879               -3.20546752                0.82536145                2.15936077               -5.07054519
               5.88822452                7.26012117               52.41777899                1.00000000               -0.17226976               -0.36888943                1.09811781               -0.03763211                0.01657587                0.81704376
               6.88650182                6.92309462               52.18893770                0.37104373               -0.03775344                0.06857252               -0.00497319               -0.01300773                0.42618148               -0.66134900
               7.88746945                6.58483927               51.96835280                0.00010000                0.51462257                0.54272893               -1.09946116               -0.20580815                5.85422361               -2.09790007
               8.89679427                6.24267177               51.84747402                0.00010000                1.12052277                0.70177685               -1.48657588               -0.28920767               12.66170542                3.51189779
               9.90987990                5.88708466               51.76010081                0.00010000                1.43592562                0.66480105               -2.47259289               -0.87061847               15.36766281                3.59065042
              10.92551278                5.51863144               51.69081807                0.00010000                1.62316399                0.45345143               -2.97712492               -1.37717859               17.08966179                4.88623451
              11.94234318                5.13479428               51.63336253                0.00010000                1.51998398                0.09287538               -3.21124272               -2.28757116               18.70793923                5.67603958
              12.95591246                4.73001471               51.58991901                0.00010000                0.74894534                0.27393144               -3.11962880               -3.70062113               20.46246459                5.11063117
              13.95732209                4.30544508               51.55900451                0.00010000               -0.54461278                1.78093546               -2.81684189               -3.82109869               22.07853199                3.54498941
              14.94502021                3.87790591               51.53894635                0.14617707               -0.48242323                2.48025382               -2.30095894               -0.96298203               11.99332058                1.55835345
              15.94767362                3.46754161               51.29875516                0.66606008                0.26534181                2.48761605               -3.36925322                0.79131794                1.04471073               -2.54809514
               6.22270387                8.25692238               52.33576344                0.97292445               -0.08568780               -0.27711240                0.79592893               -0.03697109                0.02125450                0.70963085
               7.22184699                7.92423271               52.09997475                0.30023046                0.04355766                0.15267691               -0.27493069                0.01881261                0.33734686               -0.67241942
               8.22357502                7.59095140               51.87051365                0.00010000                1.03500179                0.64416223               -1.34617285               -0.33893304                8.49882386               -2.27971654
               9.24254702                7.24934215               51.79728758                0.00010000                2.04007093                0.59509153               -1.98781758               -0.53869956               17.01220896                1.31542635
              10.26437644                6.89233086               51.73354764                0.00010000                2.32914018                0.37487665               -2.54725564               -0.99951533               18.43826291                3.14633952
              11.28912983                6.52128653               51.68258381                0.00010000                2.48777492                0.12373464               -2.97493308               -1.44453969               19.99962849                4.21999077
              12.31413194                6.13553194               51.64244684                0.00010000                2.29740726                0.00589249               -3.13469380               -2.09384034               21.41256764                4.87973638
              13.33507797                5.73388481               51.61082601                0.00010000                1.68142244                0.28703668               -3.04248227               -2.79672667               22.58404513                4.82425800
              14.34776038                5.31807767               51.58465094                0.00010000                0.82914856                0.89907623               -2.71069936               -3.05289601               23.43768282                3.81114897
              15.35166094                4.89057610               51.56137095                0.19115224                0.48534249                1.03567911               -2.01593719               -1.19403379               12.15263971                1.32266332
              16.35746723                4.48620254               51.30261568                0.69641215                0.58062908                1.55084636               -3.10005449                0.17401819                0.40921923               -1.55019308
               6.55286443                9.25457892               52.25353362                0.93015270               -0.00153866               -0.19233038                0.51570552               -0.03715328                0.02527924                0.69863108
               7.55284905                8.92614816               52.01092728                0.29019136                0.13584573                0.22570612               -0.54199300                0.04707009                0.20398215               -0.66417090
               8.55558135                8.59772252               51.77185743                0.00010000                1.58958861                0.67706960               -1.56378185               -0.58547600               10.47462153               -2.28318298
               9.58464082                8.25457360               51.73393009                0.00010000                3.11819349                0.36195366               -2.21486079               -1.04975698               21.01480177                0.43405339
              10.61794522                7.89458220               51.69843752                0.00010000                3.43900499               -0.00231281               -2.71936017               -1.32444709               21.92205648                2.29764404
              11.65342092                7.52110614               51.66951023                0.00010000                3.49614411               -0.21765324               -3.03366439               -1.45640750               23.16541854                3.50415376
              12.68786810                7.13491213               51.64837693                0.00010000                3.20056362               -0.21593194               -3.10611237               -1.73359796               24.35138090                4.31844828
              13.71743219                6.73575544               51.63223141                0.00010000                2.58523873                0.01300554               -2.92195871               -2.15050320               25.00905878                4.82266444
              14.73957287                6.32342661               51.61407970                0.00010000                1.77912384                0.32852077               -2.55086364               -2.60388049               24.50993079                4.54987707
              15.75301467                5.89861949               51.57926793                0.22979233                1.01641199                0.75577469               -2.00287134               -1.27048233               12.09425185                1.02729539
              16.75990111                5.49855854               51.30640942                0.71751677                0.68864466                1.11196885               -2.99281503                0.05438267                0.18243099               -1.58897339
               6.87882232               10.25307577               52.17142699                0.92163690                0.08224749               -0.10524386                0.23715446               -0.03668278                0.00591249                0.69461965
               7.87964479                9.92874683               51.92194149                0.33417745                0.23088683                0.29011682               -0.80275399                0.05087963                0.06874034               -0.63289250
               8.88344006                9.60449280               51.67362363                0.00010000                2.25237045                0.66003264               -1.78626264               -1.03577823               12.24624970               -1.98593829
               9.92469220                9.25658122               51.66692326                0.00010000                4.39574538               -0.10857300               -2.42118173               -1.66308921               24.67332750                0.15988105
              10.97135496                8.89228461               51.65709580                0.00010000                4.74897725               -0.59437797               -2.88323829               -1.43731939               25.29107934                1.60570650
              12.01967175                8.51693346               51.65039255                0.00010000                4.67278549               -0.65119964               -3.12407425               -1.21899613               26.44498904                2.64220160
              13.06481067                8.13121330               51.65014434                0.00010000                4.19408416               -0.57350921               -3.08057981               -1.23427127               27.73922705                3.51368058
              14.10355343                7.73414492               51.65598009                0.00010000                3.40040257               -0.38923221               -2.68582039               -1.47482107               28.31043749                4.52521881
              15.13281872                7.32464809               51.65544140                0.02318910                2.37829654               -0.10740756               -2.05465231               -1.85553922               25.43411584                6.22955628
              16.15111936                6.90569159               51.59504588                0.26623165                1.29290340                0.70440291               -2.12769324               -1.10982543               11.42167886                0.94364729
              17.15867679                6.50844191               51.30883566                0.73165129                0.75574305                0.95634289               -3.00812324                0.03660771                0.09173990               -1.75325040
               7.20078865               11.25247404               52.08923350                0.89855741                0.16609592               -0.01350001               -0.04482890               -0.04082371                0.00541315                0.60070772
               8.20244961               10.93195050               51.83326763                0.39506966                0.31213686                0.35292245               -1.06930807                0.02043946                0.16504373               -0.52708808
               9.20703139               10.61092317               51.58035273                0.00010000                3.05688036                0.64950856               -2.02237070               -1.78869033               13.94979511               -1.20774251
              10.26358722               10.25240214               51.59933508                0.00010000                6.09075980               -1.19968751               -2.63734093               -1.78155949               27.83034394                0.09186891
              11.32884659                9.88269464               51.61079269                0.00010000                6.32625429               -1.22719447               -3.06272195               -1.06378337               28.32481972                0.88361728
              12.39011231                9.50808214               51.62344700                0.00010000                5.85623168               -1.10696081               -3.24107941               -0.65769567               29.56496437                1.50150401
              13.44597122                9.12344194               51.64326123                0.00010000                5.21943346               -0.96103290               -3.08392077               -0.64778947               31.25737132                2.08439614
              14.49450098                8.72797080               51.67371170                0.00010000                4.24720948               -0.84359096               -2.45857365               -0.81769505               33.30911073                2.96501677
              15.53091541                8.32127845               51.71980202                0.06236552                2.62616784               -0.42355573               -0.95923590               -0.89052883               26.91623310                5.30378229
              16.54702433                7.91270755               51.61154758                0.32022906                1.21086074                0.71358015               -2.32720486               -0.69748758                9.61299858                0.88066708
              17.55513263                7.51768540               51.31051804                0.73846035                0.81082933                0.93814251               -3.08686614                0.03430585               -0.08362321               -1.47474105
               7.51905294               12.25280577               52.00537352                0.95926860                0.25515210                0.03317289               -0.32789556                0.12637913                0.28949322                0.51110075
               8.52160446               11.93580528               51.74604357                0.75277761                0.40808328                0.38547848               -1.35059390                0.14934407                0.80993212               -0.43167094
               9.52721460               11.61748297               51.49692215                0.44180903                4.78425432                0.65597987               -2.30440065               -3.14256950               15.64137267               -0.67427301
              10.61728954               11.23258747               51.53329789                0.34011462                8.35923468               -1.98146714               -2.89245490               -2.11688017               30.30618436               -0.09028919
              11.69439929               10.86774072               51.55871287                0.33148555                7.42404930               -1.49539187               -3.28289266               -0.33439055               30.75044636                0.35918701
              12.76577053               10.49479425               51.58541697                0.33892270                6.87834676               -1.32878968               -3.40990398               -0.22158179               32.18516377                0.69800426
              13.83196623               10.11199264               51.62054659                0.36206740                6.17962447               -1.14493040               -3.18508764               -0.27655668               34.27346383                1.02271034
              14.88936302                9.71727310               51.67022427                0.40031688                4.91525819               -1.06977008               -2.42156752               -0.30457893               37.15548113                1.56859457
              15.93027139                9.31617697               51.74602460                0.55724507                2.56998232               -0.51014791               -0.74618805                0.07010330               29.31798970                3.17437736
              16.94076267                8.91996320               51.62680371                0.69387597                0.95679098                0.72556460               -2.54407398               -0.07477724               10.15152774                0.77203438
              17.94940721                8.52720476               51.32017423                0.87298647                0.86445485                0.95193665               -3.22621940                0.15161558                0.70758080               -1.16876030
               4.35198389                2.38242476               53.83306450                1.00000000               -0.69187868               -0.82550379                2.86242087               -0.23491038               -0.91260464                0.87530392
               5.34506510                2.01784400               53.61811587                1.00000000               -0.54251716               -0.42051519                1.59821186               -0.16806590               -1.20100088                0.14219369
               6.34113355                1.65239414               53.39757232                1.00000000               -0.25999955               -0.03247218                0.38634229               -0.18328639               -1.10016520               -0.20133147
               7.33986511                1.28423587               53.18414377                0.72438964               -0.29938366                0.43172314               -0.84905366               -0.36961391                0.31000433               -0.81457030
               8.33514587                0.91019583               52.99032745                0.83216773               -0.22698347                0.92795392               -1.95828371               -0.26793860                1.80299227                0.00770975
               9.33532544                0.53224694               52.80079387                0.95011298                0.28118674                1.21848325               -3.17937361               -0.24401047                2.35984913               -0.12069471
              10.34076961                0.14911214               52.61127747                0.81762172                0.65569790                1.66649088               -4.64411201               -0.41939540                3.45785739               -0.30443047
              11.34843940               -0.24049268               52.43487533                0.29744058               -2.77845494                2.27981544               -6.30581017               -4.27669162               11.15789270                0.28037628
              12.28520051               -0.71004238               52.38649244                0.00970106               -1.69932011                2.75486879               -7.31478835               -9.39712525               13.34425841               -5.39285228
              13.31445300               -1.30130796               52.32061883                1.00000000                1.80412375                0.44131414               -2.03987549              -12.70368708                5.90220964                0.25880996
              14.32128299               -1.63858430               52.13248520                1.00000000                0.68299859                0.67502221               -2.68658143               -0.23229062               -0.01496892               -0.46627734
               4.71421554                3.37416972               53.74915705                1.00000000               -0.58157865               -0.78242734                2.54993840               -0.01963736               -0.20190918                1.17289616
               5.70839976                3.01363885               53.53416649                1.00000000               -0.40553945               -0.38113006                1.28437607                0.04143629               -0.29873288                0.22540228
               6.70610475                2.65206942               53.31745549                1.00000000               -0.05658147                0.00845927                0.05211122                0.03581861               -0.17210059               -0.33368209
               7.70726813                2.28855310               53.10479508                0.62203059                0.11780999                0.45056374               -1.20107217               -0.14516316                1.67674475               -1.11567990
               8.70846095                1.91947537               52.92442086                0.80980264                0.30795309                0.85642658               -2.30735092               -0.10682553                3.01037632                0.05025438
               9.71342719                1.54443177               52.73699695                0.99516013                0.72422549                1.20833885               -3.51165779               -0.12011481                2.68138413               -0.08855655
              10.72294546                1.16577705               52.54682413                0.75650370                1.09112786                1.65887718               -4.89783042               -0.18350164                3.56431872               -0.46215255
              11.73524975                0.78230548               52.37258882                0.20134455               -0.06542809                2.14580429               -6.25717057               -4.48385730               12.33497101                0.89416325
              12.72163690                0.31750631               52.35310419                0.00010000               -4.17813278               -2.69135982               -2.29965202              -17.71163378               20.57958275                2.00336822
              13.65168709               -0.29689482               52.38298124                1.00000000               -3.27002406                0.32707948               -1.17423750              -13.88108040               11.03575091                0.42810892
              14.65623642               -0.63183408               52.19179684                1.00000000                0.45493300                0.58082786               -1.92057713               -0.12180953                0.05084572               -0.34328252
               5.07265288                4.36677621               53.67162190                1.00000000               -0.46587471               -0.69192390                2.19979624               -0.01848443                0.02312379                1.44736860
               6.06799413                4.01022140               53.45193125                1.00000000               -0.28586032               -0.29121830                0.95846894                0.03634189                0.11648134                0.23651465
               7.06693568                3.65256332               53.23435251                0.84283554                0.07808792                0.10299571               -0.27403244                0.00773736                0.34043685               -0.65375081
               8.06955589                3.29324714               53.01898666                0.11220193                0.50975083                0.50806823               -1.51087897               -0.28473942                3.20616609               -1.38387152
               9.07713069                2.92732437               52.85825144                0.08246892                0.85327915                0.75785618               -2.62012106               -0.84400941                4.44874418                0.44336256
              10.08662148                2.55641371               52.67191842                0.14777431                1.10475890                0.92868408               -3.86373805               -1.39422360                2.79783670                2.77891495
              11.09922587                2.18228968               52.47772012                0.11123020                1.02057599                0.83322622               -5.23460301               -2.35087593                4.66042500                6.06754900
              12.10703300                1.80242341               52.32682517                0.00010000               -4.45288680               -0.35461569               -4.95175113              -12.90297766               22.14676432               11.46642242
              13.01016813                1.23613042               52.48673872                0.04579077               -6.04306084               -2.39283532               -5.73896202              -20.79055675               28.40896841                8.38273372
              13.98617178                0.70523363               52.44644922                0.72384684               -1.07214098                0.10008316               -0.44185058               -9.86058000                7.83031048                0.51016142
              14.98872531                0.37303225               52.25168225                1.00000000                0.25535350                0.39614522               -1.23836555               -0.14033103                0.11262093               -0.24388146
               5.42695547                5.36033124               53.59350238                1.00000000               -0.36159903               -0.58769722                1.83798700               -0.03627561                0.14542919                1.26762562
               6.42333948                5.00781449               53.36818558                0.88846987               -0.18608546               -0.17814177                0.62353527                0.00524388                0.36351242               -0.03537516
               7.42323376                4.65412933               53.14744898                0.27009240                0.17364068                0.22702773               -0.56712373               -0.05360084                0.94839184               -1.12359689
               8.42681230                4.29871446               52.93356847                0.00362265                0.25902144                0.63922718               -1.82080398               -0.52981781                5.22063127               -1.34396778
               9.42841419                3.93463250               52.79768942                0.00010000                0.18825534                0.85243039               -2.69596650               -1.36467727                9.02725172                1.93609428
              10.43057740                3.56300545               52.66307494                0.00010000                0.07520293                0.70854108               -3.57513093               -2.28728782                9.72594810                5.70600642
              11.42991825                3.18244157               52.54221053                0.00010000               -0.36139755               -0.00275272               -4.10233022               -4.23062955               13.76472656               10.72749433
              12.42334945                2.77521316               52.48618023                0.00010000               -1.34513512               -1.96274652               -4.26161142              -10.29628311               21.51496454               14.07351143
              13.40301555                2.26964960               52.51114335                0.00010000               -5.28878966                3.00292479               -5.22309525              -13.42880823               24.02734986                2.75325915
              14.31757366                1.70510684               52.50994082                0.05269125               -4.25915016                5.93216871                0.33544374               -5.06817081               10.10461799               -4.26673878
              15.31783254                1.37608882               52.31287614                0.59362353                0.02588868                1.15150545               -0.60175967                5.53971303                0.32960575               -5.34359589
               5.77696088                6.35502227               53.51255143                1.00000000               -0.26599588               -0.47669502                1.48356684               -0.04770529                0.15341995                0.99131486
               6.77430092                6.00665857               53.28049460                0.51889467               -0.09986002               -0.04796952                0.26949972               -0.01370667                0.45794333               -0.43673595
               7.77496368                5.65710388               53.05465679                0.03389364                0.20777229                0.38497260               -0.90487582               -0.08018264                1.74038390               -1.66431265
               8.77845637                5.30603168               52.84782684                0.00010000                0.52912372                0.76589499               -1.95117488               -0.32969066                8.77692380                2.12368706
               9.78554616                4.94437297               52.76240821                0.00010000                0.73051385                0.83649836               -2.68405859               -0.82711660               14.11945855                3.44675374
              10.79306665                4.57058454               52.66261357                0.00010000                0.84297049                0.55773542               -3.33752433               -1.36912822               14.45966926                5.68588207
              11.80240557                4.18223463               52.58171502                0.00010000                1.04163286               -0.16841282               -3.70671449               -2.58343003               17.28802775                7.63015470
              12.81389930                3.76316848               52.53267323                0.00010000                0.46463619               -0.78347671               -3.79457827               -5.27154242               20.39545818                6.74267496
              13.81169829                3.29618892               52.50771585                0.00010000               -1.77650824                2.30176454               -3.15956521               -6.59686425               21.93005507                1.80483941
              14.77836914                2.82387700               52.47835242                0.07185187               -2.70713398                8.20365995               -4.21324121               -0.76087664               13.38500502               -2.20670026
              15.75755561                2.39606236               52.27092951                0.61388884               -2.08135281                3.49485014               -4.00580557                1.62446731                3.41856445               -7.04876033
               6.12272877                7.35079734               53.42902859                1.00000000               -0.17450286               -0.37399237                1.14488869               -0.03771037                0.01138327                0.78041070
               7.12098374                7.00685510               53.18873311                0.35605643               -0.02358864                0.06801965               -0.03486278               -0.00156839                0.42643935               -0.64189782
               8.12225699                6.66182878               52.95676186                0.00010000                0.59828243                0.54306053               -1.21023972               -0.12410506                6.18564009               -2.04777158
               9.13294939                6.31403236               52.83107613                0.00010000                1.25310074                0.72697731               -1.78975286               -0.12726431               13.05137023                3.68267088
              10.14731901                5.95136246               52.73412443                0.00010000                1.61918997                0.55811581               -2.72801979               -0.70722619               15.74452961                3.69967178
              11.16533319                5.57416016               52.65964000                0.00010000                1.91733497                0.20011442               -3.27513707               -1.27524319               17.84186918                4.96522954
              12.18566571                5.17907331               52.59968485                0.00010000                1.93155628               -0.27282767               -3.55785871               -2.37904147               19.80034563                5.69536243
              13.20396431                4.75954363               52.55702738                0.00010000                1.23520162               -0.13324365               -3.52683009               -4.09655932               21.85463115                5.02296667
              14.21036974                4.31568489               52.52830218                0.00010000               -0.07408156                1.59832058               -3.40449533               -4.46959508               23.69821458                3.10571378
              15.20248268                3.86918004               52.51212304                0.12704981               -0.22092866                3.00551185               -3.27182886               -1.39293234               13.10645759                1.94448578
              16.20595117                3.44598583               52.26315580                0.65218774                0.34684869                3.60895674               -3.83264564                1.12679441                1.50688298               -2.30834029
               6.46409117                8.34754242               53.34393780                0.96475724               -0.08530532               -0.28288732                0.83459270               -0.03816974                0.02549896                0.69866138
               7.46323812                8.00801896               53.09701675                0.28778008                0.06065732                0.15807990               -0.31508679                0.02283174                0.34122874               -0.64021807
               8.46530432                7.66796509               52.85639106                0.00010000                1.15696429                0.65204426               -1.47242582               -0.27918837                8.71529083               -2.20016233
               9.48637740                7.32057123               52.77627088                0.00010000                2.29847598                0.56367517               -2.21573929               -0.44054101               17.44908048                1.19901822
              10.51127384                6.95553529               52.70661060                0.00010000                2.67367662                0.26296059               -2.85011871               -0.95116897               18.97634475                3.13670848
              11.53985093                6.57458682               52.65123056                0.00010000                2.90837167               -0.07538584               -3.32034294               -1.45891677               20.74176203                4.18664098
              12.56944127                6.17677807               52.60938847                0.00010000                2.77528034               -0.24204265               -3.52354693               -2.24709398               22.42791260                4.80922341
              13.59535654                5.76050360               52.57856976                0.00010000                2.16143546                0.07727373               -3.48126059               -3.15341203               23.87610104                4.70529411
              14.61266998                5.32815533               52.55566307                0.00010000                1.24265079                0.88119240               -3.18988114               -3.53658561               25.08484757                3.76137113
              15.62020956                4.88398724               52.53987694                0.17682460                0.69049753                1.17135520               -2.38056125               -1.47301109               13.15479887                1.61316262
              16.62647993                4.46824150               52.27138304                0.68200794                0.62703713                1.74449028               -3.19968395                0.11861472                0.57132841               -1.09723819
               6.80101229                9.34513960               53.25886730                0.92367561                0.00054130               -0.19815730                0.55049579               -0.03814386                0.02421858                0.70208259
               7.80101770                9.01001669               53.00526076                0.27869129                0.15543328                0.23539744               -0.59011888                0.04662828                0.21932193               -0.63035090
               8.80412096                8.67486967               52.75551286                0.00010000                1.77753306                0.69702190               -1.70200303               -0.56970917               10.68992333               -2.19764046
               9.83656837                8.32530586               52.71055908                0.00010000                3.50795396                0.30719336               -2.46415122               -0.99954922               21.43811563                0.42532502
              10.87428004                7.95662168               52.66967967                0.00010000                3.91718515               -0.12351313               -3.04885089               -1.33459170               22.48426126                2.23857529
              11.91491207                7.57265244               52.63744383                0.00010000                4.02635060               -0.38386957               -3.41323506               -1.50692090               23.92687625                3.43384158
              12.95480705                7.17423246               52.61560417                0.00010000                3.73033732               -0.38499157               -3.50440550               -1.86219076               25.35920242                4.26327007
              13.98951881                6.76108910               52.60147736                0.00010000                3.06736737               -0.09597883               -3.31039494               -2.40156192               26.24607436                4.88652637
              15.01615440                6.33330874               52.58728675                0.00010000                2.17087377                0.29186746               -2.90165742               -2.96161370               25.98904193                4.83337277
              16.03293629                5.89260714               52.55908835                0.22109303                1.18302732                0.78131795               -2.07914826               -1.47716451               12.92312082                1.10457207
              17.03981494                5.48087563               52.27713213                0.70356259                0.68786516                1.09516522               -2.88980272                0.01919718                0.24150543               -1.28306683
               7.13357410               10.34357927               53.17394500                0.91591670                0.08665130               -0.11129584                0.26678079               -0.03841977                0.00698224                0.69802556
               8.13444061               10.01272691               52.91361939                0.32241268                0.25234322                0.30406806               -0.86066713                0.04935762                0.09804093               -0.60267948
               9.13862096                9.68190553               52.65502806                0.00010000                2.50968997                0.69186064               -1.93212508               -1.07464326               12.47184388               -1.91385981
              10.18463441                9.32671510               52.64139838                0.00010000                4.93072311               -0.19112821               -2.69306299               -1.69283318               25.09621059                0.16841351
              11.23723542                8.95306503               52.62660687                0.00010000                5.37336617               -0.74148657               -3.23765802               -1.47192010               25.86856492                1.56713450
              12.29210173                8.56690943               52.61739863                0.00010000                5.32626849               -0.81595019               -3.51617413               -1.25108459               27.24541359                2.58630195
              13.34376079                8.16907824               52.61780979                0.00010000                4.80736462               -0.73407562               -3.45025004               -1.28118306               28.84667306                3.51165532
              14.38824903                7.75858403               52.62821876                0.00010000                3.90794347               -0.51511627               -2.95164186               -1.57119650               29.70069270                4.73996664
              15.42191966                7.33399268               52.63475037                0.02709398                2.74251743               -0.20860295               -2.20542586               -2.00906065               26.57641136                7.12495932
              16.44309937                6.89961360               52.57418199                0.26357348                1.42036174                0.68541261               -2.07832254               -1.25767905               11.82674126                0.90402404
              17.45032690                6.49014480               52.27989240                0.71876576                0.72275237                0.88466232               -2.80135323                0.02361402                0.11548927               -1.55030176
               7.46194863               11.34291368               53.08889797                0.89035037                0.17299784               -0.02006423               -0.02097590               -0.04248511                0.00941683                0.60153880
               8.46367860               11.01609806               52.82222850                0.38062837                0.33456389                0.37256860               -1.13830919                0.01788308                0.20545237               -0.50912318
               9.46863990               10.68870688               52.55934762                0.00010000                3.39367986                0.68792629               -2.17559357               -1.90644243               14.19015329               -1.16816217
              10.53155220               10.32148330               52.57161056                0.00010000                6.80036978               -1.37491858               -2.92005566               -1.85845671               28.27008104                0.11119160
              11.60464730                9.94179195               52.57849104                0.00010000                7.11624810               -1.41901077               -3.42447597               -1.09171539               28.93563127                0.87016896
              12.67387716                9.55633344               52.58935309                0.00010000                6.64307461               -1.30399344               -3.62348650               -0.66041891               30.43337798                1.47516077
              13.73750879                9.15955095               52.61117870                0.00010000                5.96516424               -1.16578971               -3.39982501               -0.64563274               32.51461539                2.10074024
              14.79318045                8.75078678               52.64894896                0.00010000                4.87174114               -1.07103868               -2.58462261               -0.83834136               35.26940459                3.16795916
              15.83494361                8.32913668               52.71227287                0.07218459                2.92250690               -0.57460201               -0.67676459               -0.89018709               27.72615217                6.08108646
              16.85163059                7.90631540               52.58895670                0.32504105                1.21405988                0.67766339               -2.22521671               -0.76106913                9.20950881                0.80005731
              17.85922481                7.49856888               52.28105763                0.72727292                0.75942259                0.85256360               -2.82831710                0.02898544               -0.06128263               -1.33412042
               7.78635564               12.34317799               53.00216916                0.95440257                0.26494267                0.02643104               -0.31108898                0.14073099                0.28499794                0.51040576
               8.78900507               12.02017828               52.73214391                0.74415144                0.43756118                0.40802266               -1.42950645                0.15694978                0.84029589               -0.42190827
               9.79510687               11.69566405               52.47304143                0.43923944                5.26875704                0.69571719               -2.46445547               -3.40138139               15.89157643               -0.66131736
              10.89438021               11.29921673               52.50305149                0.34001168                9.27220552               -2.22665746               -3.16905578               -2.26616103               30.79823433               -0.04919187
              11.98055098               10.92468481               52.52430594                0.33148884                8.33770703               -1.71071327               -3.62414289               -0.32899025               31.43785799                0.38347267
              13.06113435               10.54082956               52.54982323                0.33868925                7.79219111               -1.55038753               -3.75262101               -0.22039941               33.14270979                0.72180768
              14.13639480               10.14576245               52.58775267                0.36110615                7.03810577               -1.37885011               -3.43755231               -0.29471461               35.65293628                1.07995611
              15.20189647                9.73716325               52.64638797                0.39854032                5.60962514               -1.36235235               -2.43182917               -0.29148853               39.25371164                1.76733454
              16.24858730                9.32250064               52.74110726                0.56414780                2.82746628               -0.66360412               -0.39697302                0.16454934               29.91584298                3.55921049
              17.25844579                8.91316686               52.60226299                0.69857200                0.89061704                0.68514678               -2.39667374               -0.08370753                9.44400361                0.70072888
              18.26639964                8.50719607               52.28954256                0.86771283                0.79538507                0.86271959               -2.92116173                0.12040414                0.69032983               -1.04933158
               4.56447277                2.47642176               54.86206114                1.00000000               -0.69752132               -0.84283119                2.92355662               -0.24755768               -0.85026562                0.83203855
               5.55749756                2.10474545               54.63412734                1.00000000               -0.53242440               -0.42139819                1.59835314               -0.18203974               -1.10903033                0.13476356
               6.55382428                1.73221974               54.40108176                1.00000000               -0.21133726               -0.01609360                0.31734054               -0.19326183               -0.99883678               -0.18979709
               7.55327081                1.35733349               54.17486460                0.72720405               -0.11986411                0.45151388               -0.99655734               -0.32800652                0.41458969               -0.78623250
               8.55142700                0.97802233               53.96881467                0.83308653                0.07757418                0.97288902               -2.30528438               -0.27172312                1.83841477                0.03425440
               9.55482230                0.59637883               53.76617761                0.93336148                0.62149613                1.30317078               -3.67112008               -0.23280360                2.17900345               -0.13249574
              10.56385692                0.21134993               53.56155008                0.71617770                1.03660114                1.73147845               -5.17236011               -0.30873019                3.04733168               -0.37310123
              11.57555432               -0.17679740               53.37086906                0.10316204               -4.92327170                2.05501590               -6.37055298              -11.83117442                9.94984858                0.08151956
              12.46539149               -0.79645169               53.30071753                0.00010000               -3.62650653                2.40682152               -6.86311214              -13.54685895               14.91423748               -2.74974131
              13.50302419               -1.36494369               53.29707645                1.00000000                2.37857431                0.60415565               -3.08382096              -11.20607884                9.17268120                0.29089142
              14.51296297               -1.70704101               53.10263276                1.00000000                0.99387873                0.83687499               -3.76372841               -0.32226927                0.08671321               -0.71613975
               4.93367350                3.46799344               54.77500210                1.00000000               -0.58953330               -0.79718538                2.60690537               -0.02483190               -0.17444499                1.11874693
               5.92777817                3.10053147               54.54701557                1.00000000               -0.40379302               -0.38049889                1.28073992                0.03558003               -0.25000488                0.21512255
               6.92559764                2.73205880               54.31762505                1.00000000               -0.03443586                0.02602413               -0.01575677                0.03301085               -0.11719188               -0.31969404
               7.92708945                2.36184863               54.09205538                0.64095557                0.17947302                0.47696256               -1.33968578               -0.07821866                1.76747102               -1.07016137
               8.92918710                1.98775122               53.89971904                0.82882450                0.43705042                0.93498875               -2.61862198               -0.09515750                3.13337790                0.08521153
               9.93583046                1.60941053               53.69965551                0.98553122                0.90853176                1.30427087               -3.92657564               -0.09510525                2.70302294               -0.13238616
              10.94735774                1.22866471               53.49563063                0.64328110                1.26564601                1.73056018               -5.30170705               -0.19309472                3.66657375               -0.59684712
              11.96114338                0.84375275               53.31131468                0.09524524               -1.16808487                1.71092780               -6.01058467              -12.26173813               15.64981613                1.35937591
              12.92399604                0.22761653               53.34501831                0.00010000               -5.74426600                1.39176083               -2.85959608              -21.29589195               23.62149215                0.06993301
              13.84625806               -0.35890213               53.37017050                1.00000000               -3.60792170                0.42042057               -1.54884860              -12.15487326               11.13230085                0.51306820
              14.85183761               -0.69867226               53.17162041                1.00000000                0.55795451                0.66832795               -2.30011153               -0.18703814                0.13437906               -0.45911438
               5.29890009                4.46047805               54.69395181                1.00000000               -0.47562889               -0.70157906                2.25551568               -0.02293316                0.04397227                1.37395238
               6.29414380                4.09713547               54.46149794                1.00000000               -0.28663778               -0.28940951                0.95159993                0.03411927                0.14741619                0.21731168
               7.29316733                3.73274022               54.23125376                0.84481202                0.09351114                0.11985470               -0.34247859                0.01810544                0.37453220               -0.62472846
               8.29601402                3.36687274               54.00316598                0.12956737                0.43973068                0.54089716               -1.64543007               -0.15059378                3.28944010               -1.32782343
               9.30196195                2.99672210               53.83078166                0.09559623                0.79963373                0.77048882               -2.89955776               -0.67034209                4.62143543                0.58469039
              10.31200670                2.62246424               53.63152805                0.15151066                1.18454311                0.80461459               -4.22693181               -1.22010118                2.92537113                3.01804932
              11.32565281                2.24596113               53.42377257                0.09268867                0.96805202                0.43621564               -5.57792775               -2.45595305                5.81210282                6.60784141
              12.33136774                1.85742115               53.28000657                0.00010000               -4.17621383               -1.69543086               -4.08869572              -15.68603694               23.19243453               11.42692691
              13.24212853                1.23138353               53.42679872                0.02221499               -7.25761139                2.68582237               -5.82360577              -25.03516485               31.57040810                4.86523400
              14.18621551                0.64346473               53.44207689                0.65808304               -2.66830303                0.09290479               -0.45286504              -12.44968538               11.06568553                0.51148147
              15.18876247                0.30632555               53.23945299                1.00000000                0.25469620                0.38849608               -1.29704336               -0.16348473                0.21395925               -0.44884660
               5.65990000                5.45396186               54.61219189                1.00000000               -0.37016132               -0.59388960                1.89106800               -0.03758935                0.16325251                1.19403533
               6.65619838                5.09474328               54.37436769                0.86912982               -0.18387598               -0.17782307                0.61068800                0.01144894                0.39645876               -0.06824071
               7.65622248                4.73445590               54.14133629                0.25918523                0.19486558                0.23787331               -0.64607067               -0.02501316                0.96225721               -1.10072368
               8.66009569                4.37266657               53.91457944                0.00810088                0.19831417                0.66999775               -1.95861547               -0.44726467                5.38983089               -1.19894421
               9.66018876                4.00316099               53.76957294                0.00010000                0.10468576                0.74064011               -2.92109378               -1.18873904                9.38979550                2.14264419
              10.66218941                3.62550283               53.62590810                0.00010000                0.15465050                0.34529183               -3.86011676               -2.17545422               10.36519953                6.10862304
              11.66328177                3.23738902               53.50016924                0.00010000               -0.00945839               -0.85789623               -4.28377079               -4.71719909               14.88924434               11.32648158
              12.66200024                2.80984414               53.44256745                0.00010000               -1.30163009               -3.25043117               -4.37501215              -11.28871280               22.34808890               13.65296610
              13.63724917                2.28133298               53.45709947                0.00010000               -6.98389545                3.50066976               -5.20090882              -17.20106157               27.44126752                2.70081753
              14.52232233                1.64295597               53.51344149                0.02524722               -5.72014528                7.55950363                0.36735070               -6.04736298               13.48050629               -7.27790754
              15.52284626                1.30909766               53.30652038                0.58465860                0.05239297                1.94348970               -0.77670164                7.38251595                0.36157750               -7.76084431
               6.01658548                6.44860026               54.52765770                1.00000000               -0.27067307               -0.48094272                1.53213584               -0.04496701                0.14344472                0.92931314
               7.01387875                6.09357901               54.28309388                0.50438116               -0.09208528               -0.05043819                0.24898191               -0.00018087                0.47018002               -0.45464990
               8.01474377                5.73749769               54.04513932                0.02158716                0.22424426                0.38468394               -0.98507113               -0.03447781                1.84166772               -1.64443703
               9.01836363                5.38027270               53.82768773                0.00010000                0.53035717                0.76072853               -2.04946873               -0.27996850                9.08249916                2.45016887
              10.02535091                5.01153490               53.73440742                0.00010000                0.79529762                0.68573548               -2.90745357               -0.74423771               14.61620516                3.57530327
              11.03426958                4.62937008               53.62789228                0.00010000                1.08083014                0.19081111               -3.60560431               -1.40656776               15.20081045                5.81118207
              12.04696752                4.22880321               53.54315536                0.00010000                1.36899728               -0.81804747               -4.01095574               -2.96383020               18.36338495                7.56893570
              13.06164953                3.79241253               53.49276969                0.00010000                0.90139770               -1.26333127               -4.17217600               -6.25093837               21.92673450                6.35546017
              14.06499547                3.30139693               53.47300565                0.00010000               -1.20729828                1.91395839               -3.78885543               -7.94080897               22.70893386                1.62359069
              15.03750356                2.79465480               53.42908164                0.05173770               -3.04330358               10.61575696               -5.23126167               -0.31140904               13.94700827               -5.66861220
              16.00412940                2.34519534               53.22757742                0.60700823               -3.33741642                5.59118065               -4.68253855                2.69902942                4.71745308              -10.30194018
               6.36904315                7.44434301               54.44067677                1.00000000               -0.17458163               -0.37716770                1.17930511               -0.03732629                0.01250642                0.74219460
               7.36729733                7.09373451               54.18824045                0.34414799               -0.01019610                0.06608463               -0.06145894                0.00730623                0.42948507               -0.62363240
               8.36883923                6.74214957               53.94414801                0.00010000                0.65808854                0.53497397               -1.30093331               -0.09852169                6.45228879               -1.99632451
               9.38045911                6.38788115               53.81167896                0.00010000                1.36836969                0.67834320               -2.06757310               -0.11642075               13.41688048                3.75276687
              10.39620662                6.01687570               53.70554042                0.00010000                1.81653238                0.39874463               -2.98344254               -0.74846766               16.16619977                3.67934006
              11.41678975                5.62931905               53.62531533                0.00010000                2.23780478               -0.10772810               -3.59705868               -1.44650068               18.57422891                4.84570860
              12.44096272                5.22102807               53.56220536                0.00010000                2.37990003               -0.65030632               -3.96244811               -2.81790351               20.83203374                5.42262827
              13.46438775                4.78457751               53.51938241                0.00010000                1.76139993               -0.44359133               -4.06006122               -4.83700294               23.06388892                4.56558299
              14.47619072                4.31961214               53.49091460                0.00010000                0.39539891                1.64617980               -4.16047418               -5.30758603               24.84197767                2.31147515
              15.47229573                3.85527111               53.47350977                0.10656980               -0.02224793                4.06096240               -4.67072047               -1.85787423               14.04165117                2.31852604
              16.47574576                3.42092128               53.22210224                0.64058436                0.34500265                5.25430491               -4.59584664                1.65262734                2.23780714               -2.51492466
               6.71705594                8.44105690               54.35245529                0.95509610               -0.08376398               -0.28648159                0.86769061               -0.03968328                0.03297539                0.69284333
               7.71621830                8.09490070               54.09367301                0.27742070                0.07853796                0.16019949               -0.35215651                0.02164279                0.34274835               -0.61010796
               8.71862670                7.74819717               53.84106514                0.00010000                1.25453913                0.64915652               -1.58141127               -0.29094382                8.91166203               -2.12495541
               9.74130909                7.39383956               53.75297280                0.00010000                2.51584771                0.50357298               -2.43914149               -0.49550788               17.85158964                1.05157157
              10.76894366                7.01950980               53.67654527                0.00010000                2.99390561                0.12408656               -3.16460545               -1.10424872               19.48451454                2.98455220
              11.80118720                6.62721552               53.61617695                0.00010000                3.32036633               -0.28520760               -3.70873899               -1.72342646               21.44189552                3.95503176
              12.83535098                6.21579708               53.57197590                0.00010000                3.25691006               -0.46359320               -4.00432657               -2.68094611               23.35979503                4.49771077
              13.86632540                5.78354070               53.54120079                0.00010000                2.63995856               -0.03702717               -4.07562160               -3.75966076               25.03848887                4.33502331
              14.88815016                5.33432052               53.52085332                0.00010000                1.63557734                1.06973043               -3.90711582               -4.10573211               26.64705226                3.52705496
              15.89903695                4.87587405               53.51375972                0.15869894                0.88657258                1.55673907               -3.02695485               -1.73515546               14.20436487                2.18342747
              16.90588161                4.45028144               53.23862200                0.66758903                0.68446600                2.17332854               -3.48285100                0.08563401                0.86089953               -0.61942815
               7.06056189                9.43861338               54.26454353                0.91672220                0.00280391               -0.20256460                0.58471239               -0.03962619                0.02263388                0.71271658
               8.06058993                9.09693850               53.99912491                0.26870086                0.17598015                0.24123995               -0.63590181                0.04117856                0.23048908               -0.60089894
               9.06408149                8.75513270               53.73781737                0.00010000                1.93231948                0.70918373               -1.83066043               -0.62573290               10.88232531               -2.11941471
              10.09923632                8.39795260               53.68464707                0.00010000                3.83321009                0.25292269               -2.71879687               -1.10233778               21.81423996                0.33872515
              11.14074569                8.01935743               53.63746050                0.00010000                4.33988130               -0.23469338               -3.40719523               -1.52776759               22.99609470                2.04979469
              12.18603394                7.62361490               53.60124553                0.00010000                4.51364609               -0.52326365               -3.85874974               -1.77056614               24.62988035                3.19196968
              13.23101861                7.21175621               53.57828882                0.00010000                4.23185769               -0.49626031               -4.02180937               -2.21024558               26.29878039                4.03106347
              14.27067110                6.78383697               53.56602351                0.00010000                3.53620576               -0.10340234               -3.88449609               -2.82240777               27.41354974                4.82902155
              15.30174273                6.34100675               53.55604656                0.00010000                2.54803026                0.39203154               -3.47205628               -3.35987552               27.52913690                5.08346254
              16.32163170                5.88640589               53.53768496                0.20789094                1.34504585                0.90148387               -2.28416312               -1.65718449               13.85429057                1.29141259
              17.32864365                5.46438785               53.24861337                0.68835204                0.70119450                1.16144678               -2.87606487               -0.01759647                0.34074138               -0.94352194
               7.39961317               10.43700561               54.17676261                0.90989095                0.09093766               -0.11663595                0.29703159               -0.04030867                0.00795715                0.70724872
               8.40052255               10.09972550               53.90472815                0.31109650                0.27423856                0.31525091               -0.91658472                0.04471606                0.12644248               -0.57882842
               9.40509794                9.76238084               53.63498113                0.00010000                2.72575271                0.72069244               -2.07451574               -1.17282860               12.67194899               -1.84977884
              10.45503760                9.39889802               53.61306200                0.00010000                5.38140361               -0.24898658               -2.98118756               -1.84779043               25.45882351                0.11128476
              11.51272601                9.01481593               53.59234264                0.00010000                5.91697497               -0.84792421               -3.63753169               -1.65383895               26.38723460                1.42158225
              12.57337710                8.61675025               53.58006907                0.00010000                5.90989937               -0.92270689               -3.99594230               -1.44428973               27.99463755                2.40103706
              13.63092400                8.20587187               53.58113934                0.00010000                5.36248007               -0.81211717               -3.96307144               -1.48142735               29.93570021                3.39698433
              14.68062670                7.78147265               53.59694726                0.00010000                4.37298619               -0.53380961               -3.41262851               -1.77934613               31.08287210                4.92943553
              15.71838372                7.34216115               53.61133288                0.02932081                3.09427303               -0.22317257               -2.61132466               -2.19404721               27.78011308                8.21195349
              16.74251216                6.89390372               53.55347943                0.25697561                1.55910172                0.71109018               -2.11178098               -1.39263625               12.30124851                0.87466967
              17.74956576                6.47351038               53.25280860                0.70377552                0.70535966                0.84824905               -2.64905338                0.01373799                0.15049012               -1.34957791
               7.73431593               11.43628066               54.08881398                0.88249501                0.17930830               -0.02670462                0.00549509               -0.04420248                0.01249791                0.60734126
               8.73610902               11.10324352               53.81050144                0.36542856                0.35682336                0.39054031               -1.20548080                0.01407243                0.25100324               -0.49754658
               9.74145240               10.76954655               53.53684086                0.00010000                3.68682003                0.72440737               -2.32691914               -2.06150191               14.40995636               -1.13440697
              10.80984542               10.39297287               53.54093396                0.00010000                7.41821410               -1.50881200               -3.22729742               -2.00977412               28.64747723                0.09451106
              11.88981668               10.00239895               53.54230317                0.00010000                7.81233932               -1.55177792               -3.84332852               -1.20767092               29.49229501                0.79544423
              12.96609220                9.60516076               53.55097727                0.00010000                7.34254875               -1.42300679               -4.10806378               -0.75420961               31.27200886                1.37507545
              14.03666766                9.19551387               53.57526473                0.00010000                6.63513446               -1.27140277               -3.87261502               -0.72318826               33.80845306                2.05978806
              15.09879489                8.77316078               53.62201925                0.00010000                5.43815283               -1.18654448               -2.91844151               -0.92572997               37.40939145                3.38426569
              16.14543072                8.33654330               53.70626672                0.08253185                3.18174280               -0.62343652               -0.60548776               -0.91017913               28.55620592                7.01354069
              17.16242975                7.90062769               53.56704325                0.32720361                1.21371909                0.67307259               -2.20751902               -0.82476015                8.68480015                0.70435064
              18.16970510                7.48135283               53.25395170                0.71328004                0.72753473                0.78689508               -2.61788963                0.02695966               -0.03011144               -1.20795309
               8.06480340               12.43647152               53.99915174                0.94923729                0.27347029                0.01908602               -0.28970791                0.15522502                0.28189580                0.51378138
               9.06753810               12.10753631               53.71745344                0.73495432                0.46675767                0.42927864               -1.50521656                0.16278169                0.88359352               -0.41797850
              10.07413855               11.77686899               53.44763304                0.43647927                5.72258112                0.73224342               -2.61946787               -3.67211167               16.13516263               -0.65181371
              11.18198972               11.36872178               53.46991678                0.33987937               10.11230798               -2.42510966               -3.47092893               -2.44000047               31.25160357               -0.01548576
              12.27638471               10.98378037               53.48623001                0.33162576                9.15941353               -1.86185791               -4.02333136               -0.36478075               32.10087218                0.38695502
              13.36517799               10.58829011               53.51036455                0.33845945                8.60377549               -1.68706487               -4.19791520               -0.25824896               34.10067648                0.72050357
              14.44846022               10.18044382               53.55179554                0.36007318                7.79523380               -1.50700495               -3.84515513               -0.34816122               37.11031489                1.12270812
              15.52108267                9.75774176               53.62158768                0.39699192                6.21265037               -1.54190109               -2.64104542               -0.30879234               41.51357634                2.00503504
              16.57271323                9.32969242               53.73808514                0.57186715                3.00623825               -0.68508794               -0.31363010                0.20942169               30.48400037                3.90055552
              17.58120743                8.90736518               53.57887023                0.70209281                0.79707264                0.67374846               -2.33331453               -0.14443875                8.62446616                0.62580722
              18.58865468                8.48924828               53.26175100                0.86062628                0.74472465                0.78954524               -2.65871266                0.08326868                0.68778005               -0.94062268
               4.79084618                2.57318361               55.89153563                1.00000000               -0.69823087               -0.85296290                2.95841852               -0.25672825               -0.79421691                0.79379163
               5.78386387                2.19476281               55.65008293                1.00000000               -0.52133176               -0.41921164                1.58784640               -0.19231688               -1.02820572                0.12880643
               6.78041955                1.81551162               55.40391913                1.00000000               -0.17199383               -0.00080824                0.25377529               -0.20150282               -0.91960347               -0.17579807
               7.78042400                1.43412965               55.16421262                0.72509598                0.00908057                0.47188372               -1.12099195               -0.31201618                0.43705731               -0.75788341
               8.78060116                1.04907218               54.94422176                0.82172525                0.28730547                1.01404370               -2.57237607               -0.28169916                1.73931021                0.05081231
               9.78617011                0.66264122               54.72737147                0.89727560                0.82118177                1.37923865               -4.02457245               -0.23856425                1.93048280               -0.15548425
              10.79702480                0.27348900               54.50783026                0.61618973                1.10494058                1.81286081               -5.51139450               -0.36043997                2.88043089               -0.48086523
              11.80826892               -0.11975353               54.30746427                0.05567898               -6.98734608                2.01090105               -6.35207346              -17.29744108               10.70794715               -0.15528690
              12.65727787               -0.85363877               54.24923020                0.00010000               -5.61387641                4.64625411               -5.70643430              -18.30293072               16.83379333               -0.05751840
              13.69599139               -1.44167824               54.25894241                1.00000000                2.73133709                1.00443378               -5.02478297              -11.68822042                9.91562959                0.60040394
              14.71190462               -1.79088240               54.05721064                1.00000000                1.59132242                1.30458036               -5.85524239               -0.50846019                0.11575744               -0.76701411
               5.16669970                3.56465399               55.80129516                1.00000000               -0.59229975               -0.80590718                2.63999055               -0.02863450               -0.14883923                1.07095316
               6.16077670                3.19057070               55.55978129                1.00000000               -0.39893004               -0.37736508                1.26861082                0.03130932               -0.20548743                0.20636957
               7.15872110                2.81550354               55.31714035                1.00000000               -0.01265741                0.04229508               -0.07724032                0.03082625               -0.07370576               -0.30449753
               8.16052356                2.43884849               55.07800136                0.64837343                0.24036411                0.50184812               -1.45886744               -0.04490593                1.78997650               -1.02411453
               9.16352838                2.05921262               54.87204842                0.82819708                0.55262502                1.00460469               -2.89933989               -0.09093532                3.15689994                0.10939890
              10.17157606                1.67643361               54.65846543                0.95572665                1.05446936                1.39404416               -4.28967666               -0.08135671                2.69633238               -0.19289386
              11.18461777                1.29161761               54.44078999                0.54221595                1.36411676                1.82094520               -5.66418855               -0.30567577                4.09339422               -0.77100400
              12.19885839                0.90035548               54.25237712                0.04229469               -2.47034231                0.97313487               -5.81432879              -16.96036075               17.20224224                2.22800064
              13.13521092                0.19282377               54.29591227                0.00010000               -7.55636941                3.74963535               -5.11297950              -25.48806437               27.08752745                3.06873449
              14.04773100               -0.43163390               54.35200427                1.00000000               -3.95933761                0.69352534               -2.60647919              -13.59102693               13.04354608                0.83115699
              15.05602417               -0.77783660               54.14579461                1.00000000                0.82931686                1.00188769               -3.49730270               -0.30288491                0.39610984               -0.51387421
               5.53844007                4.55706547               55.71673221                1.00000000               -0.47995588               -0.70739599                2.29010777               -0.02653535                0.06534701                1.30750815
               6.53364051                4.18721551               55.47096325                1.00000000               -0.28408941               -0.28584788                0.93870936                0.03198017                0.17891016                0.19778722
               7.53275828                3.81635752               55.22750294                0.84700708                0.10881442                0.13628800               -0.40274119                0.02485807                0.40632637               -0.59894260
               8.53581680                3.44416661               54.98607806                0.14109093                0.42195262                0.56826692               -1.75527803               -0.06722727                3.30851956               -1.27165086
               9.54119733                3.06916427               54.80026029                0.10253126                0.81605926                0.73234990               -3.22416466               -0.61457275                4.73114872                0.75387684
              10.55213798                2.69052211               54.58737978                0.15192605                1.28960357                0.61900369               -4.61762808               -1.17736657                3.05795212                3.27583709
              11.56698940                2.30990790               54.36616156                0.07953479                0.78587765               -0.10145955               -5.95819724               -3.21934582                7.76313195                7.20529446
              12.56785554                1.89970917               54.24505125                0.00010000               -4.37417154               -3.24230598               -2.60225176              -18.70156785               24.28954845               10.36223204
              13.47950597                1.22135394               54.37026661                0.00010000               -8.65121573                4.23176260               -5.15827325              -29.08804832               33.56705258                4.11534141
              14.39483122                0.57219227               54.43739192                0.62809421               -4.06268360                0.20889219               -0.71698491              -15.10833570               14.25393317                0.49212839
              15.39825230                0.22915535               54.22574138                1.00000000                0.34210797                0.52920507               -1.94391917               -0.15958415                0.52694642               -0.96526827
               5.90586891                5.55050607               55.63132374                1.00000000               -0.37446533               -0.59709106                1.92629209               -0.03936477                0.18187055                1.12635497
               6.90212426                5.18485374               55.38039934                0.84500512               -0.18008759               -0.17613492                0.59459879                0.01528103                0.43204195               -0.10422012
               7.90226716                4.81822930               55.13452756                0.24720117                0.21239994                0.25229471               -0.70787844               -0.00975055                0.98288772               -1.08163993
               8.90637226                4.45021383               54.89439616                0.01129109                0.13071386                0.68844639               -2.05638098               -0.46741137                5.53877848               -1.03026999
               9.90488144                4.07385961               54.73926754                0.00010000                0.04564197                0.53736460               -3.11675917               -1.24658820                9.70586479                2.36380997
              10.90728510                3.68881368               54.58587260                0.00010000                0.30811760               -0.15605780               -4.12556308               -2.40371311               11.04797016                6.51341704
              11.91104379                3.28958842               54.45653511                0.00010000                0.30479505               -1.91653406               -4.40559395               -5.77489349               16.12838611               11.80521955
              12.91338100                2.83550936               54.39867999                0.00010000               -1.50384627               -4.31232212               -4.35682889              -12.87006097               23.27404324               12.19505911
              13.88096686                2.27745903               54.40712517                0.00010000               -8.78090612                3.67458288               -4.61844995              -20.64531911               30.80182933                1.84601442
              14.73776287                1.57254394               54.51728783                0.00796835               -7.10302760                8.91221037                0.35134714               -6.84026062               16.86155134              -10.79182372
              15.73890631                1.23274750               54.29734210                0.59269825                0.11434366                2.26431698               -1.26087884                8.85339711                0.46742918              -10.74409701
               6.26895742                6.54512365               55.54319414                1.00000000               -0.27345244               -0.48312115                1.56749484               -0.04395237                0.13155737                0.86744395
               7.26622290                6.18369281               55.28547423                0.48899665               -0.08771215               -0.05252153                0.22637347                0.01288525                0.49007770               -0.47358012
               8.26720318                5.82140341               55.03495537                0.00892638                0.23076760                0.38735912               -1.04955823               -0.00800860                1.98096522               -1.63034528
               9.27083825                5.45793554               54.80683746                0.00010000                0.52312663                0.67944026               -2.08674297               -0.39847579                9.36911927                2.69706913
              10.27766571                5.07991157               54.70425914                0.00010000                0.87483347                0.44759030               -3.09603234               -0.92046989               15.06185601                3.63936079
              11.28833492                4.68740095               54.59050148                0.00010000                1.35650696               -0.30120141               -3.85003462               -1.77333091               15.92556214                5.82613006
              12.30479585                4.27157722               54.50149591                0.00010000                1.71243927               -1.54415381               -4.30686122               -3.83713505               19.38842254                7.23229780
              13.32258371                3.81346273               54.44922971                0.00010000                1.23845814               -1.65425908               -4.51459461               -7.67898890               23.27023183                5.48008221
              14.32956502                3.29484560               54.43193875                0.00010000               -0.99230883                1.83038484               -4.38690980               -9.54555961               23.22490543                0.51793114
              15.30273753                2.75043647               54.37372719                0.03542651               -3.73259513               12.91642702               -5.64251228               -0.30193574               14.13796941              -10.22512759
              16.25491311                2.27444169               54.17727874                0.60611472               -4.78244167                7.59476246               -5.54456697                3.13132472                5.97317702              -14.41749619
               6.62785154                7.54084364               55.45261470                1.00000000               -0.17493369               -0.37955628                1.21311274               -0.03614294                0.02590539                0.70768537
               7.62610220                7.18380331               55.18750393                0.33321526                0.00063619                0.06197652               -0.08618278                0.01965862                0.44306742               -0.60893574
               8.62786426                6.82597648               54.93074320                0.00010000                0.68961957                0.51966027               -1.37391213               -0.14830419                6.66840282               -1.95650884
               9.63989459                6.46380263               54.78972467                0.00010000                1.45711863                0.53495046               -2.28783603               -0.30371230               13.75708483                3.71498364
              10.65700663                6.08281142               54.67445558                0.00010000                2.01291165                0.16973410               -3.21142088               -1.04593616               16.59839219                3.53919209
              11.68015282                5.68278965               54.58769883                0.00010000                2.56163388               -0.48218422               -3.91420983               -1.95913940               19.24635208                4.54609274
              12.70823931                5.25870534               54.52043588                0.00010000                2.81900102               -1.04641994               -4.39388763               -3.67739987               21.73885020                4.87888723
              13.73653284                4.80242418               54.47582615                0.00010000                2.24213091               -0.64498801               -4.67812209               -5.99867114               24.02828289                3.71681903
              14.75308193                4.31406672               54.44509269                0.00010000                0.77976103                1.93594395               -5.05965427               -6.40323111               25.37310046                1.10967829
              15.75212806                3.83087248               54.41870863                0.08450769                0.02202182                5.65220615               -6.47864288               -2.28166628               14.79430863                1.93468716
              16.75352236                3.38464275               54.17123887                0.63134466                0.13943003                7.74500590               -5.95793184                2.33003995                3.39602431               -3.48894129
               6.98231523                8.53753252               55.36129161                0.94462137               -0.08319954               -0.28785149                0.90535211               -0.03748368                0.04425845                0.69914405
               7.98148324                8.18493234               55.08997362                0.26882941                0.09612709                0.15701352               -0.38789563                0.02577721                0.34996345               -0.58800601
               8.98423777                7.83179662               54.82476283                0.00010000                1.32229134                0.62944535               -1.67155786               -0.39583761                9.08598805               -2.06651508
              10.00792906                7.46863455               54.72748805                0.00010000                2.67610978                0.40942649               -2.64299977               -0.75874646               18.20363969                0.85802299
              11.03775997                7.08330625               54.64331850                0.00010000                3.26645761               -0.04956098               -3.46829972               -1.51402217               19.93846860                2.68744612
              12.07325822                6.67775727               54.57705578                0.00010000                3.69266794               -0.50949687               -4.11723616               -2.30644467               22.05173819                3.52239236
              13.11161333                6.25064882               54.52930194                0.00010000                3.69953426               -0.65075260               -4.55834523               -3.47144664               24.13706403                3.93203220
              14.14724890                5.80056297               54.49705733                0.00010000                3.07193842               -0.02505561               -4.82696062               -4.67925560               25.97136032                3.68348581
              15.17305210                5.33356448               54.47752075                0.00010000                1.96396360                1.52158495               -4.93063968               -4.75443109               28.02578223                3.03448882
              16.18652817                4.86348060               54.47933785                0.13667210                1.04606341                2.39216041               -4.24835382               -1.94477185               15.34582128                3.03971308
              17.19397337                4.42934181               54.20172602                0.65370618                0.74451918                3.15879196               -4.16688536                0.14865141                1.44341093               -0.03648574
               7.33230222                9.53508661               55.27056155                0.90903101                0.00514259               -0.20393621                0.61759808               -0.03995717                0.02038337                0.73175024
               8.33235365                9.18694358               54.99254272                0.26018603                0.19715393                0.24207301               -0.67872526                0.03732381                0.24153299               -0.57908641
               9.33624530                8.83856539               54.71889965                0.00010000                2.04281929                0.70449212               -1.94379261               -0.77320505               11.04589939               -2.06085744
              10.37321003                8.47199116               54.65618314                0.00010000                4.06790875                0.20096734               -2.96810378               -1.41124396               22.12383077                0.16303775
              11.41760347                8.08182020               54.60153577                0.00010000                4.67356612               -0.33261212               -3.77893652               -1.95891849               23.42489110                1.71675338
              12.46668135                7.67259972               54.56026883                0.00010000                4.92005996               -0.62794184               -4.35682211               -2.30951747               25.21829125                2.75780697
              13.51600467                7.24569029               54.53516798                0.00010000                4.66753611               -0.53033987               -4.65963692               -2.83466815               27.08407490                3.58811703
              14.56003208                6.80192307               54.52378744                0.00010000                3.95355025                0.03070144               -4.68078742               -3.43639207               28.42626816                4.60234964
              15.59507568                6.34449842               54.51784563                0.00010000                2.87116071                0.72235521               -4.35289940               -3.76348623               29.12869519                5.24694844
              16.61745529                5.87871569               54.51340508                0.18937639                1.48486409                1.21340536               -2.73377393               -1.77796849               14.94294914                1.69479698
              17.62477296                5.44781859               54.21961084                0.67166754                0.73176692                1.42365504               -3.04206130               -0.05445962                0.52785340               -0.47027510
               7.67780215               10.53345380               55.17988563                0.90377193                0.09487853               -0.12076195                0.32810368               -0.04192753                0.00902491                0.72281844
               8.67875094               10.18977380               54.89528770                0.30052986                0.29619674                0.32391287               -0.97048398                0.03754032                0.15517264               -0.56363488
               9.68372609                9.84588646               54.61353775                0.00010000                2.88492140                0.74007236               -2.20832252               -1.34793479               12.83658461               -1.80455316
              10.73644937                9.47265390               54.58177463                0.00010000                5.71234778               -0.27362080               -3.27964888               -2.17015273               25.73683732               -0.02636158
              11.79797305                9.07665401               54.55385624                0.00010000                6.33742064               -0.90033736               -4.07528933               -2.03045254               26.80635558                1.15022491
              12.86319778                8.66519843               54.53747978                0.00010000                6.38117835               -0.95301232               -4.56340401               -1.84687753               28.62468226                2.05915046
              13.92559661                8.24004202               54.53854836                0.00010000                5.82575722               -0.77998896               -4.64145999               -1.86951154               30.91605633                3.12922916
              14.97971293                7.80117700               54.55996619                0.00010000                4.76965710               -0.40457032               -4.12332801               -2.08481208               32.36533621                5.04838670
              16.02098975                7.34801158               54.58252388                0.03008718                3.39678531               -0.09215929               -3.31794787               -2.37301202               29.07445949                9.48739361
              17.04764863                6.88774870               54.53194637                0.24516880                1.68443042                0.81479587               -2.26299641               -1.50051721               12.91626359                0.88854522
              18.05467836                6.45781491               54.22691133                0.68566463                0.70297314                0.88244103               -2.58036870                0.00825721                0.20200420               -1.09502377
               8.01882366               11.53267137               55.08900787                0.87405634                0.18481302               -0.03378489                0.03453339               -0.04555320                0.01553934                0.61947681
               9.02067179               11.19342184               54.79811888                0.34974857                0.37914245                0.40704594               -1.26990861                0.00700815                0.29967124               -0.49303717
              10.02640651               10.85336683               54.51280923                0.00010000                3.91838220                0.75784816               -2.47976418               -2.26411997               14.59679230               -1.11646578
              11.09903943               10.46651875               54.50706461                0.00010000                7.90216918               -1.58562566               -3.55859229               -2.25937208               28.93549964                0.03089019
              12.18444989               10.06381345               54.50162447                0.00010000                8.36581749               -1.60418896               -4.32119788               -1.44158358               29.94751272                0.64564470
              13.26635578                9.65353947               54.50719181                0.00010000                7.90929905               -1.43666756               -4.70910516               -0.96691874               32.00499298                1.18213070
              14.34263587                9.23009051               54.53372640                0.00010000                7.20052475               -1.24435243               -4.54277684               -0.89632285               35.03994015                1.93416057
              15.41036628                8.79383166               54.59058013                0.00010000                5.92039292               -1.15249573               -3.52651890               -1.06349006               39.67958741                3.58379086
              16.46104373                8.34265524               54.70016312                0.09449236                3.36376677               -0.55683333               -0.69359437               -0.94125243               29.43245029                8.08703329
              17.47764162                7.89501161               54.54480632                0.32616121                1.18809766                0.71401708               -2.29892627               -0.87835969                8.05149309                0.59090588
              18.48480569                7.46546741               54.22869984                0.69499125                0.71640705                0.74850534               -2.45526894                0.03134818                0.01168147               -1.06824576
               8.35539016               12.53277810               54.99637500                0.94411023                0.28054800                0.01067286               -0.26326803                0.17031250                0.28339695                0.52298290
               9.35819564               12.19791472               54.70203957                0.72529228                0.49783081                0.44928866               -1.57743396                0.16565150                0.93745017               -0.41913940
              10.36534678               11.86104343               54.42065207                0.43349121                6.13098304                0.76765929               -2.78042894               -3.95463985               16.36154332               -0.65383626
              11.48081530               11.44094139               54.43363291                0.33968832               10.83869347               -2.55773616               -3.80157188               -2.64607296               31.63837804                0.00514120
              12.58212065               11.04457023               54.44383931                0.33169665                9.83835239               -1.92432283               -4.49051439               -0.45673975               32.69021719                0.36195147
              13.67758235               10.63646508               54.46586493                0.33821929                9.26286563               -1.70743937               -4.77142028               -0.34810569               34.98264936                0.68477920
              14.76737796               10.21515498               54.51084957                0.35913887                8.41480219               -1.49355316               -4.46109662               -0.44269094               38.55210335                1.14035446
              15.84587840                9.77812708               54.59356706                0.39536490                6.68034011               -1.57045817               -3.11524540               -0.36279146               43.85519097                2.27424834
              16.90098476                9.33687491               54.73483465                0.58149358                3.06954314               -0.57803218               -0.44475991                0.18920128               31.01803370                4.14408070
              17.90726926                8.90202904               54.55559670                0.70457152                0.67044729                0.70174386               -2.37462075               -0.24173032                7.72016969                0.53415045
              18.91439371                8.47278502               54.23636831                0.85097413                0.71244509                0.73176051               -2.42807025                0.03439992                0.68940492               -0.82706955
               5.03149383                2.67277852               56.92122951                1.00000000               -0.69438913               -0.85626034                2.96819726               -0.26230563               -0.74475441                0.76060149
               6.02454994                2.28792485               56.66588426                1.00000000               -0.50956544               -0.41463078                1.56823107               -0.19853085               -0.95784244                0.12375059
               7.02130252                1.90226133               56.40615727                1.00000000               -0.14203060                0.01237144                0.19809857               -0.20623212               -0.85756364               -0.16219127
               8.02170933                1.51459834               56.15244476                0.71974238                0.08759172                0.49025620               -1.21721766               -0.31664466                0.40910700               -0.72810589
               9.02305436                1.12338526               55.91736715                0.80154336                0.40570628                1.05154104               -2.75864822               -0.29518835                1.59817773                0.04626524
              10.02982345                0.73108122               55.68568616                0.84958646                0.91591943                1.44631275               -4.26076300               -0.25939581                1.71979137               -0.19143613
              11.04137274                0.33581317               55.45132219                0.52175230                0.92449367                1.91001606               -5.74993501               -0.64638502                2.96203653               -0.57910857
              12.04831333               -0.06972886               55.24382759                0.02839275               -9.53917661                2.04546402               -6.38637561              -21.16370564               11.01166856               -0.38853158
              12.85058921               -0.89096619               55.18658884                0.00010000               -7.74784919                5.89209966               -6.89398017              -21.91350085               17.14101076                0.94500347
              13.89335634               -1.53905933               55.19658079                1.00000000                3.40762300                1.83308339               -8.13475101              -14.04012317                9.99033408                0.94004017
              14.91874167               -1.89954924               54.98552791                1.00000000                2.53853298                2.20687493               -9.29508790               -0.70524566                0.09694514               -1.05296888
               5.41372445                3.66421592               56.82780191                1.00000000               -0.59012242               -0.80894487                2.65027853               -0.03118137               -0.12568544                1.02954093
               6.40782323                3.28377854               56.57238778                1.00000000               -0.39104978               -0.37258378                1.24958956                0.02852338               -0.16598022                0.19833077
               7.40590345                2.90238505               56.31608024                1.00000000                0.00788448                0.05564130               -0.12963436                0.02994416               -0.04174240               -0.29069880
               8.40798092                2.51950090               56.06287803                0.65091853                0.29787888                0.52232952               -1.54908575               -0.03833198                1.74076599               -0.97530260
               9.41186103                2.13390067               55.84173224                0.81532560                0.65173117                1.05976280               -3.12542653               -0.08638555                3.08912516                0.08660676
              10.42101554                1.74554434               55.61386198                0.91450143                1.17264490                1.47462996               -4.59574709               -0.07731635                2.66891616               -0.27725475
              11.43531393                1.35491333               55.38234686                0.45256643                1.45252046                1.92543625               -6.00552879               -0.64736615                4.81281908               -0.92343940
              12.45006595                0.95072578               55.19502810                0.01303309               -3.45972453               -0.59541061               -5.51218485              -21.11090934               18.85551045                3.75037679
              13.36611944                0.16795481               55.24275872                0.00010000               -9.64096560                4.67218201               -5.43084358              -30.04572873               29.76409312                3.42482391
              14.25724664               -0.52072850               55.31804091                1.00000000               -4.69701576                1.35415317               -4.91635198              -16.14861218               14.49732155                1.44166527
              15.27217912               -0.87748049               55.10167436                1.00000000                1.49324884                1.75109664               -6.11607947               -0.48215962                0.84481758               -0.70986418
               5.79174496                4.65659963               56.73975397                1.00000000               -0.47936842               -0.70944438                2.30467424               -0.02955682                0.08585687                1.24889570
               6.78695128                4.28047317               56.48027213                1.00000000               -0.27829601               -0.28153271                0.92103574                0.02933533                0.20893451                0.17787599
               7.78617904                3.90337416               56.22319894                0.84545179                0.12378909                0.14928086               -0.45206577                0.02758517                0.43715429               -0.57655886
               8.78942706                3.52504493               55.96806042                0.14593240                0.45520778                0.59004382               -1.83078149               -0.03216361                3.21953693               -1.20938393
               9.79528320                3.14458052               55.76629836                0.10384638                0.89187014                0.62688372               -3.52291268               -0.67512649                4.69114518                0.96693472
              10.80726446                2.76057382               55.53917549                0.14952947                1.39803908                0.35525614               -4.99186294               -1.26964589                3.15337949                3.60120670
              11.82324398                2.37432190               55.30460863                0.06963521                0.28945979               -0.83771301               -6.32713407               -5.22413524               10.78179989                7.99720803
              12.81305366                1.91836293               55.22796153                0.00010000               -5.10575325               -5.05794624               -1.20592583              -22.25096723               25.81149005                8.50525040
              13.72112892                1.20247745               55.32363326                0.00010000               -9.86171317                4.43131595               -4.38903698              -33.08903659               34.79215431                3.44793411
              14.61581940                0.48802373               55.42773719                0.65752905               -4.92632245                0.57563590               -1.55274619              -17.74574842               16.95261449                0.78246878
              15.62260247                0.13547269               55.20057461                1.00000000                0.67830701                1.00794302               -3.56865251               -0.25974500                0.80992921               -1.62572213
               6.16538622                5.65002703               56.65071773                1.00000000               -0.37508223               -0.59707215                1.94387324               -0.04234093                0.20134834                1.06559858
               7.16163540                5.27814789               56.38625967                0.81684236               -0.17514108               -0.17351799                0.57695249                0.01557112                0.47104815               -0.14445135
               8.16188340                4.90537066               56.12717872                0.23269745                0.22479417                0.26504945               -0.75720968               -0.00126533                1.01758589               -1.07325095
               9.16613128                4.53130178               55.87345182                0.01279719                0.04731064                0.69203257               -2.11952354               -0.59585653                5.67233468               -0.82556392
              10.16282961                4.14643835               55.70723776                0.00010000               -0.01250211                0.22767824               -3.25465950               -1.55057489                9.97375277                2.65861918
              11.16588124                3.75264947               55.54339684                0.00010000                0.51062476               -0.82536777               -4.32701804               -2.99998419               11.78449209                6.99987693
              12.17304211                3.33815907               55.41205736                0.00010000                0.55049021               -3.23867522               -4.48068484               -7.51594245               17.54146147               12.32527852
              13.17689105                2.84956686               55.35543088                0.00010000               -1.91821023               -4.67474625               -4.36589787              -14.90101388               24.73839760                9.57520448
              14.13467791                2.25658113               55.36473047                0.00010000              -10.37773098                3.56552877               -4.01207775              -23.74577257               34.35701353                0.09613383
              14.96933643                1.49078422               55.52046843                0.01044313               -8.12958003               10.03538588                0.04618851               -7.73995978               20.27400594              -14.54154349
              15.97208630                1.14267837               55.28130280                0.62812663                0.27498778                2.37379814               -2.33172649                9.88378359                0.80050604              -14.27213114
               6.53465644                6.64465818               56.55900760                1.00000000               -0.27373694               -0.48138933                1.58661927               -0.04570881                0.11997739                0.81689352
               7.53191907                6.27700281               56.28762134                0.47083508               -0.08282973               -0.05457373                0.20322850                0.02058716                0.51756017               -0.49776415
               8.53299985                5.90867515               56.02414816                0.00010000                0.22615888                0.39206358               -1.10668009               -0.00070430                2.18575322               -1.63536504
               9.53644225                5.53888558               55.78595287                0.00010000                0.49620821                0.51142256               -2.05078992               -0.68919662                9.65344350                2.86668203
              10.54292401                5.14913408               55.67248678                0.00010000                0.95509028                0.10809205               -3.21733343               -1.37242136               15.44323106                3.66359523
              11.55554406                4.74406646               55.55089158                0.00010000                1.65418647               -0.94814280               -4.03458476               -2.48652196               16.63178853                5.77929048
              12.57600774                4.30954839               55.45701813                0.00010000                2.05336354               -2.36796435               -4.56249893               -5.23140839               20.41366945                6.66913470
              13.59661133                3.82486801               55.40247780                0.00010000                1.44941804               -1.92402920               -4.82564593               -9.61774040               24.54864261                4.16687915
              14.60499610                3.27378803               55.38526745                0.00010000               -1.08441834                1.98212891               -4.92117858              -11.50221062               23.95236589               -1.64261392
              15.57492296                2.68873145               55.31623140                0.02364775               -4.42531293               14.87849861               -5.89555134               -0.90700356               14.46937278              -16.00333912
              16.51648984                2.18294866               55.11668608                0.61122155               -5.84331166                9.20083990               -6.61430659                2.74769355                7.15918616              -19.13133446
               6.89978279                7.64039925               56.46493902                0.99729055               -0.17526099               -0.37826256                1.24327314               -0.03825083                0.03403636                0.68844613
               7.89803018                7.27705641               56.18651679                0.32201610                0.01018790                0.05494891               -0.11076504                0.03199843                0.46454922               -0.60152471
               8.89998655                6.91321193               55.91666977                0.00010000                0.69291185                0.50176338               -1.43700205               -0.28469997                6.86484480               -1.94085963
               9.91188842                6.54153023               55.76592224                0.00010000                1.51068789                0.28279839               -2.42866545               -0.71138904               14.09021443                3.55859198
              10.93020031                6.14860019               55.64131200                0.00010000                2.19240378               -0.14777727               -3.37937548               -1.63111618               17.02307193                3.29309967
              11.95573649                5.73368661               55.54703114                0.00010000                2.87060450               -0.94865510               -4.18736143               -2.85529708               19.85085689                4.09406025
              12.98761240                5.29079978               55.47432761                0.00010000                3.22800542               -1.49213839               -4.80808547               -5.02586820               22.51867252                4.09632807
              14.02029660                4.81108627               55.42581996                0.00010000                2.65789256               -0.78094384               -5.32433314               -7.68268029               24.78416176                2.46212606
              15.04077025                4.29622371               55.38972152                0.00010000                1.08695630                2.42346686               -6.07018890               -8.06714490               25.32104940               -0.68366588
              16.04203573                3.78835419               55.34393691                0.06002775               -0.10822410                7.66202025               -8.46215888               -3.13516980               15.32238314                0.09740567
              17.03860577                3.32669517               55.10294361                0.62381662               -0.34299620               10.91155531               -8.12496899                2.50827901                5.05584417               -5.57105683
               7.26057710                8.63709293               56.37056233                0.93342917               -0.08307446               -0.28724399                0.94283770               -0.03789345                0.04296801                0.71166466
               8.25974635                8.27810179               56.08591510                0.26087612                0.11274672                0.14931427               -0.41940026                0.03348935                0.36197464               -0.57495659
               9.26283203                7.91871041               55.80763398                0.00010000                1.35399327                0.59643542               -1.74753678               -0.60938676                9.24924545               -2.03733274
              10.28682622                7.54454155               55.70011280                0.00010000                2.76566364                0.26982772               -2.80854241               -1.26717416               18.51320080                0.59807639
              11.31814530                7.14617854               55.60717927                0.00010000                3.47061494               -0.27227138               -3.73068357               -2.22453368               20.33289168                2.24893163
              12.35623852                6.72509336               55.53383223                0.00010000                3.99727045               -0.76697902               -4.50662284               -3.27209281               22.55014677                2.89808283
              13.39809071                6.27970562               55.48080899                0.00010000                4.06476409               -0.82638270               -5.14075066               -4.71375600               24.72115267                3.10396040
              14.43753380                5.80924913               55.44466158                0.00010000                3.41472853                0.09444120               -5.69340314               -6.06130219               26.58889616                2.68337859
              15.46638528                5.32225736               55.42224052                0.00010000                2.21071517                2.23594424               -6.27679224               -5.66742651               28.95835400                2.10829231
              16.48174810                4.84197186               55.42879264                0.10997473                1.17940959                3.96695550               -6.64280608               -2.21939284               16.58932751                3.86600687
              17.48997348                4.40117976               55.15528429                0.64050750                0.82253738                5.15509338               -5.73230084                0.32996275                2.67913382                0.60647901
               7.61700721                9.63465437               56.27689549                0.90151058                0.00752788               -0.20386404                0.64883243               -0.04054552                0.02006255                0.75380322
               8.61708249                9.28004270               55.98555040                0.25224508                0.21759249                0.23874243               -0.71752607                0.03569030                0.25928644               -0.56623170
               9.62135906                8.92514064               55.69894152                0.00010000                2.09971639                0.68348885               -2.04380365               -1.03026232               11.18173780               -2.03567799
              10.65907681                8.54692678               55.62528499                0.00010000                4.18993827                0.14738862               -3.19790647               -1.96781245               22.36289098               -0.11424799
              11.70515782                8.14315476               55.56188177                0.00010000                4.88453683               -0.42234056               -4.13721495               -2.67885415               23.75785516                1.23147746
              12.75676755                7.71834703               55.51410908                0.00010000                5.20118419               -0.70415393               -4.87243635               -3.19712616               25.65264969                2.11809418
              13.80918151                7.27427213               55.48509609                0.00010000                4.98756332               -0.49037924               -5.38544456               -3.83519629               27.63178211                2.89170245
              14.85651882                6.81297510               55.47240776                0.00010000                4.27587424                0.31992869               -5.70436026               -4.34527146               29.15436583                4.12026213
              15.89469899                6.34094259               55.46898857                0.00010000                3.11033289                1.36670828               -5.68951754               -4.18871699               30.73645276                5.21788846
              16.91872547                5.86769330               55.48300948                0.16463730                1.60451090                1.91507702               -3.75057160               -1.82218361               16.26606131                2.50727666
              17.92678921                5.42979704               55.18777214                0.65397599                0.80637346                2.06705680               -3.59108004               -0.10450457                0.95015889                0.28726677
               7.96898953               10.63301565               56.18332468                0.89760759                0.09843537               -0.12367722                0.35897245               -0.04402663                0.00880695                0.74640340
               8.96997388               10.28287664               55.88531847                0.29008522                0.31765859                0.32941015               -1.02086302                0.02915688                0.18728863               -0.56047716
               9.97534270                9.93238019               55.59081468                0.00010000                2.97409861                0.74811327               -2.33877684               -1.61519258               12.95968750               -1.79702906
              11.02945585                9.54748932               55.54746902                0.00010000                5.89026364               -0.25971900               -3.58018748               -2.69925525               25.91774498               -0.26083353
              12.09314797                9.13773172               55.51083685                0.00010000                6.58613843               -0.89129937               -4.53105607               -2.64985630               27.10103255                0.73717622
              13.16117862                8.71101028               55.48880099                0.00010000                6.68053735               -0.89644000               -5.19462467               -2.52555518               29.07115241                1.53347471
              14.22675872                8.26989804               55.48831014                0.00010000                6.13896430               -0.61881293               -5.47866299               -2.52329687               31.67123449                2.65296600
              15.28395791                7.81564770               55.51448070                0.00010000                5.05670093               -0.08696859               -5.13733963               -2.54377007               33.41238946                5.00993076
              16.32789274                7.34959153               55.54497393                0.02928420                3.62460384                0.25153017               -4.45724010               -2.51098823               30.47511954               10.96329196
              17.35644999                6.88027340               55.50821950                0.22684372                1.78915916                1.05510852               -2.59379168               -1.54366083               13.75956209                1.01744361
              18.36367592                6.44252090               55.20120122                0.66407350                0.72259363                1.03669505               -2.66199445               -0.00712654                0.29230720               -0.69744538
               8.31640470               11.63218082               56.08950465                0.86572354                0.18963830               -0.04093626                0.06591998               -0.04735954                0.01810329                0.63946270
               9.31830108               11.28663090               55.78510327                0.33405199                0.40189119                0.42177495               -1.33149111               -0.00208839                0.34965210               -0.49956957
              10.32444252               10.94010291               55.48724558                0.00010000                4.07195459                0.78631940               -2.64210528               -2.52325568               14.73800753               -1.12898353
              11.39974018               10.54173240               55.46976212                0.00010000                8.20986059               -1.59006587               -3.91525031               -2.63299734               29.11603019               -0.09303813
              12.48863974               10.12532877               55.45587921                0.00010000                8.71749788               -1.55710058               -4.84877235               -1.82525553               30.26393528                0.40668214
              13.57409013                9.70041823               55.45679517                0.00010000                8.27192049               -1.31854097               -5.42035209               -1.33954002               32.54757658                0.87424266
              14.65407815                9.26189587               55.48440919                0.00010000                7.59298951               -1.04467357               -5.43211654               -1.20705346               36.06807913                1.68638269
              15.72594992                8.81123573               55.55148887                0.00010000                6.28876934               -0.91974186               -4.48368438               -1.28395908               41.99174507                3.71691747
              16.77985353                8.34597319               55.69239484                0.11032372                3.44864836               -0.31802817               -1.06487651               -0.96443671               30.29569278                9.28833850
              17.79492289                7.88879547               55.52106472                0.32218349                1.11490712                0.80970054               -2.49744379               -0.89075346                7.30509520                0.45358750
              18.80215167                7.45053094               55.20484632                0.67147588                0.72287846                0.74245299               -2.34422584                0.03472875                0.07887269               -0.87211641
               8.65914218               12.63219693               55.99388638                0.93874491                0.28678436                0.00161044               -0.23218756                0.18526940                0.28836036                0.54039809
               9.66201003               12.29131214               55.68590476                0.71599968                0.53169502                0.46812386               -1.64724047                0.16637700                0.99867043               -0.43089652
              10.66977608               11.94810658               55.39202446                0.43040577                6.47800088                0.80036706               -2.95587743               -4.24785084               16.55461598               -0.67408453
              11.79157004               11.51568800               55.39388534                0.33946300               11.40904748               -2.60443994               -4.17037507               -2.89285640               31.93528245                0.00395270
              12.89795703               11.10658971               55.39641973                0.33171196               10.31253389               -1.87390582               -5.02802533               -0.62069738               33.15924311                0.29908266
              13.99782072               10.68463946               55.41493614                0.33794628                9.69215605               -1.57787700               -5.48418345               -0.50619836               35.69605385                0.60248709
              15.09180015               10.24900457               55.46257361                0.35809797                8.81903407               -1.28913040               -5.32792172               -0.59712887               39.84437559                1.11882935
              16.17420140                9.79725287               55.55928278                0.39317387                6.96220509               -1.39828608               -3.93463505               -0.46353194               46.16986966                2.59239755
              17.23104426                9.34323097               55.72918994                0.59458425                2.99378852               -0.27422271               -0.86668840                0.07979945               31.41192577                4.15989755
              18.23407717                8.89646741               55.53137782                0.70662671                0.49276582                0.76719328               -2.48468310               -0.37762209                6.73679908                0.40128516
              19.24089957                8.45736996               55.21318959                0.83817879                0.68223986                0.68390216               -2.20816009               -0.03495515                0.68328118               -0.67452176
               5.28664159                2.77525085               57.95089957                1.00000000               -0.68623171               -0.85305028                2.95456279               -0.26474042               -0.70201836                0.73238933
               6.27977927                2.38423079               57.68144755                1.00000000               -0.49669033               -0.40813394                1.54090341               -0.20150086               -0.89760476                0.11917930
               7.27670778                1.99242184               57.40788110                1.00000000               -0.11915055                0.02260504                0.15144812               -0.20766731               -0.80875751               -0.15027875
               8.27739626                1.59870099               57.13986827                0.71194570                0.13077678                0.50257879               -1.28302279               -0.32866532                0.35261728               -0.69714664
               9.27932331                1.20126729               56.88904880                0.77492562                0.46073208                1.07462417               -2.87117846               -0.31164326                1.45209730                0.02375863
              10.28661090                0.80246087               56.64215621                0.79376692                0.94003921                1.49383208               -4.40360309               -0.29760467                1.56086128               -0.23788353
              11.29812410                0.39985747               56.39283156                0.43240525                0.33123669                2.00049013               -5.90330971               -1.46090985                3.22677584               -0.63615252
              12.29323563               -0.02992518               56.17973675                0.00950483              -12.53896031                2.11542596               -6.37348127              -25.11468514               10.22337217               -0.88312551
              13.04734489               -0.94707845               56.11135060                0.00010000               -9.81883153                7.13542876               -7.64370067              -25.78011733               15.79789081                1.04002194
              14.09685900               -1.66579770               56.09624739                1.00000000                4.43021843                3.18406904              -12.21765222              -16.66753157                9.01185791                1.54712440
              15.13594926               -2.04423467               55.87130888                1.00000000                3.90902589                3.71540948              -13.96932078               -0.87325968               -0.14618571               -1.20111503
               5.67501424                3.76672034               57.85430073                1.00000000               -0.58354777               -0.80616413                2.63929557               -0.03312467               -0.10507003                0.99494018
               6.66917876                3.38014945               57.58477308                1.00000000               -0.38091188               -0.36648194                1.22489116                0.02612546               -0.13153459                0.19082934
               7.66739600                2.99264789               57.31454767                1.00000000                0.02540564                0.06530157               -0.17101409                0.02913148               -0.01833590               -0.27918260
               8.66968688                2.60372678               57.04701965                0.65017437                0.34654695                0.53520792               -1.60678710               -0.04612497                1.63696392               -0.92385053
               9.67432694                2.21201354               56.80953989                0.79374319                0.73264428                1.08650794               -3.26745988               -0.08728656                2.93095737                0.02683349
              10.68433976                1.81739919               56.56655049                0.86304453                1.26905421                1.52752523               -4.81372724               -0.09333739                2.58350657               -0.37295272
              11.69970803                1.41986238               56.32067941                0.36851704                1.56084906                2.01420448               -6.27756862               -1.52274290                5.89536217               -1.00523931
              12.71555674                0.99122908               56.14213343                0.00010000               -4.61140261               -3.03317049               -4.74337637              -26.18807304               20.60089202                5.06134599
              13.60747997                0.12427584               56.18729539                0.00010000              -11.83974742                5.77096590               -5.76717231              -34.84787856               30.23412275                3.16043845
              14.47876179               -0.63395700               56.25367723                1.00000000               -5.09131700                2.56059097               -9.23567057              -18.56366240               14.76261289                2.82314592
              15.50565363               -1.00708057               56.02347302                1.00000000                2.68918399                3.06235664              -10.88640195               -0.67101666                1.62860224               -0.55062166
               6.05912088                4.75912756               57.76282570                1.00000000               -0.47466531               -0.70779667                2.30022424               -0.03275373                0.10446923                1.19896208
               7.05437423                4.37690115               57.48938396                1.00000000               -0.27039042               -0.27669745                0.89966159                0.02528877                0.23663980                0.15870285
               8.05371308                3.99372787               57.21846162                0.83816319                0.13669395                0.15835835               -0.48937731                0.02673616                0.46937691               -0.55909953
               9.05710811                3.60940515               56.94946243                0.14515762                0.50960474                0.60416600               -1.87436529               -0.03286923                3.04461744               -1.14506020
              10.06390517                3.22299745               56.72980203                0.10000678                0.98936000                0.44150247               -3.70684468               -0.81546242                4.47470823                1.23343456
              11.07689531                2.83301137               56.48754253                0.14255686                1.49670918               -0.01520333               -5.25986896               -1.45201568                3.14893263                4.03363782
              12.09383936                2.44014156               56.23961888                0.05858631               -0.59173010               -1.80889487               -6.60345993               -8.67345044               14.41046103                9.02449922
              13.06506071                1.90941141               56.22093273                0.00010000               -5.91329769               -6.93659424               -1.18022048              -26.59408007               28.20623988                7.04240145
              13.97557340                1.16834087               56.28248587                0.00010000              -10.40592728                4.67358353               -4.19524784              -36.42038391               35.77505537                2.70429616
              14.85694216                0.38541412               56.40633699                0.74853312               -5.33986709                1.35879362               -2.96995580              -20.17097671               19.19321760                1.98946785
              15.86877606                0.01701247               56.15436833                1.00000000                1.18338963                1.91369890               -6.02038902               -0.46046303                0.89742146               -1.92211810
               6.43881200                5.75256441               57.67020121                1.00000000               -0.37277663               -0.59436695                1.94718712               -0.04446174                0.22161302                1.01291054
               7.43508423                5.37461550               57.39193839                0.78790357               -0.16926368               -0.17103709                0.55824705                0.01549774                0.51041820               -0.18706792
               8.43542673                4.99581506               57.11938337                0.21484817                0.23378380                0.27385966               -0.79705853                0.00341218                1.06332198               -1.07518693
               9.43975991                4.61581010               56.85200569                0.01245920               -0.05076279                0.66968078               -2.15792609               -0.82555392                5.80535357               -0.56538056
              10.43441147                4.22084359               56.67417435                0.00010000               -0.08022858               -0.19441114               -3.31320049               -2.05142620               10.22596194                3.05240519
              11.43815534                3.81709512               56.49933224                0.00010000                0.77137584               -1.68294533               -4.43245048               -3.88075410               12.57861580                7.62051670
              12.44983899                3.38368448               56.36692142                0.00010000                0.86602501               -4.87259473               -4.56491969               -9.84771291               19.08411724               13.00026279
              13.45547584                2.85249719               56.31136203                0.00010000               -2.33847038               -4.15000914               -4.50070970              -17.28452173               26.77676242                6.51511770
              14.40306958                2.21774751               56.32688362                0.00010000              -11.44025874                3.43307012               -3.87599624              -26.99964942               38.33383159               -2.06997498
              15.22667066                1.39321887               56.51821160                0.04516230               -8.49109452               11.07435415               -0.97559687               -9.13949552               23.76002544              -18.17176598
              16.23324769                1.03119341               56.25070757                0.70189674                0.65770256                2.65808661               -4.18162834               10.21802423                1.35032546              -17.95489794
               6.81412947                6.74724023               57.57492653                1.00000000               -0.26959338               -0.47532918                1.58415787               -0.04774571                0.10984397                0.77662589
               7.81143354                6.37348041               57.28953880                0.44989345               -0.07713774               -0.05682201                0.18376723                0.02715221                0.54691616               -0.52600588
               8.81258672                5.99920506               57.01282177                0.00010000                0.20674813                0.39292035               -1.14993143               -0.01763286                2.47309202               -1.65626423
               9.81556850                5.62279877               56.76582166                0.00010000                0.45024515                0.25022220               -1.92501304               -1.13995476                9.95300657                2.96796910
              10.82159162                5.21910923               56.63991247                0.00010000                1.04354162               -0.34313342               -3.25125181               -2.07492966               15.76321844                3.68327695
              11.83643934                4.79935247               56.50980979                0.00010000                1.99457036               -1.76824548               -4.14014266               -3.52102719               17.33434331                5.72364791
              12.86148303                4.34268967               56.41024593                0.00010000                2.44339542               -3.34217191               -4.76333050               -7.14781497               21.47391144                6.00285082
              13.88530724                3.82641122               56.35271679                0.00010000                1.66878532               -2.15071360               -5.14849336              -12.21705358               25.89666007                2.64358693
              14.89485874                3.23700227               56.33351517                0.00010000               -1.23004445                2.28364114               -5.45316249              -14.05968148               25.11237823               -4.54131092
              15.86070636                2.60690121               56.25581616                0.01690934               -4.88356355               16.35202384               -6.23228936               -2.40725484               15.18348233              -22.58900027
              16.79718747                2.07017420               56.04499261                0.62207566               -6.35188898               10.17150004               -7.60145578                1.49620779                8.15351200              -24.34158272
               7.18537672                7.74305783               57.47748016                0.98028760               -0.17142843               -0.37154393                1.25395988               -0.04089776                0.04039605                0.68214409
               8.18366244                7.37347906               57.18528863                0.30904185                0.01894931                0.04595992               -0.13206650                0.04165892                0.48861067               -0.59911786
               9.18575571                7.00367346               56.90200316                0.00010000                0.66971039                0.47865749               -1.49267733               -0.51131257                7.07194640               -1.95346518
              10.19705665                6.62081454               56.74115136                0.00010000                1.53017322               -0.07827204               -2.47799443               -1.33066320               14.44826487                3.27119937
              11.21635917                6.21398092               56.60686807                0.00010000                2.35488537               -0.56970620               -3.46363465               -2.49887888               17.43880562                2.96684048
              12.24415435                5.78173021               56.50395160                0.00010000                3.17323788               -1.53557466               -4.38415979               -4.14738902               20.40172089                3.54930584
              13.27982393                5.31684104               56.42427417                0.00010000                3.63339051               -2.03650598               -5.16917179               -6.92616476               23.20138599                3.15907958
              14.31682216                4.80948292               56.36933949                0.00010000                3.07810170               -0.93842391               -5.95199717              -10.05663285               25.37545116                0.90107749
              15.34138596                4.26342033               56.32368891                0.00010000                1.42657368                2.97305011               -7.15965840              -10.79970983               24.87721127               -3.10987320
              16.34535364                3.72025934               56.24946545                0.03270303               -0.23800529                9.74134782              -10.01892618               -5.21161620               15.43729628               -3.49065212
              17.33662586                3.23462341               56.00873949                0.61652727               -0.87277783               14.32343297              -10.63001588                1.30567052                6.78818206               -8.86636632
               7.55246906                8.73980935               57.38014837                0.92182296               -0.08179744               -0.28287486                0.97087759               -0.04012749                0.03838086                0.73376192
               8.55165108                8.37439960               57.08158561                0.25252777                0.12779633                0.13682592               -0.44369406                0.03998890                0.37931022               -0.57276081
               9.55502498                8.00877821               56.78981210                0.00010000                1.34983515                0.54988332               -1.81647267               -0.93882638                9.41251149               -2.05132093
              10.57864779                7.62123332               56.67131720                0.00010000                2.78366953                0.07677186               -2.92130169               -2.02960775               18.80809380                0.25722583
              11.61069837                7.20771511               56.56870482                0.00010000                3.59918232               -0.55943718               -3.92343985               -3.25075175               20.68755561                1.69160952
              12.65063143                6.76864097               56.48692332                0.00010000                4.22543279               -1.08686873               -4.83308610               -4.66949371               22.95029107                2.12928561
              13.69520703                6.30195955               56.42648693                0.00010000                4.34819319               -1.04089262               -5.69162101               -6.52402605               25.12225819                2.06380954
              14.73759530                5.80764274               56.38318927                0.00010000                3.64405423                0.25131395               -6.60475328               -8.15457652               26.86573778                1.32168617
              15.76808811                5.29646327               56.35198491                0.00010000                2.38378297                3.13512275               -7.80634194               -7.40487689               28.94299355                0.61820250
              16.78527096                4.80172816               56.34648172                0.07702367                1.32423172                6.45875111              -10.70083503               -3.05905539               17.82036540                3.87341561
              17.79457275                4.35664286               56.08708000                0.62705371                0.93017935                8.65117946               -9.23888942                0.37271778                5.28501669                0.69731103
               7.91539366                9.73740033               57.28353820                0.89406226                0.00996929               -0.20183173                0.67714635               -0.04239242                0.01913729                0.78256572
               8.91549335                9.37621558               56.97819220                0.24453730                0.23759025                0.23058934               -0.75104172                0.03132174                0.28028762               -0.56807975
               9.92014546                9.01467113               56.67802357                0.00010000                2.10171241                0.64318053               -2.13975590               -1.40606471               11.29496843               -2.06862446
              10.95752760                8.62234998               56.59222501                0.00010000                4.18955131                0.08633897               -3.39653645               -2.78723247               22.55448420               -0.49986571
              12.00393649                8.20279217               56.51879147                0.00010000                4.94962188               -0.51575086               -4.45021944               -3.71968931               24.01708545                0.60654427
              13.05652004                7.75999284               56.46282011                0.00010000                5.32025757               -0.77295676               -5.35224561               -4.51264391               25.93865213                1.29593306
              14.11034164                7.29602319               56.42745909                0.00010000                5.13534373               -0.40856549               -6.13184391               -5.36745374               27.90315664                1.93664972
              15.15922691                6.81450920               56.40970024                0.00010000                4.44306846                0.73258781               -6.88392485               -5.80993836               29.45366386                3.29670913
              16.19920301                6.32612279               56.40405527                0.00010000                3.23830171                2.37039391               -7.57385136               -4.82048015               32.07281576                4.78110046
              17.22399294                5.84943437               56.43839365                0.13327004                1.75239075                3.41570862               -6.26819112               -1.85670840               17.88356836                3.99262898
              18.23425082                5.40764700               56.14778923                0.63642376                1.02578793                3.50744841               -5.11028640               -0.17932130                2.06411711                1.54144767
               8.27399071               10.73577271               57.18706508                0.89125018                0.10160022               -0.12507000                0.38814549               -0.04639079                0.00884367                0.77894550
               9.27500672               10.37901139               56.87487044                0.27944194                0.33892855                0.33142908               -1.06616696                0.01498336                0.21603860               -0.57328081
              10.28076929               10.02164182               56.56676221                0.00010000                2.98876876                0.74531257               -2.48250147               -1.98444688               13.03634578               -1.85671452
              11.33478209                9.62296010               56.51017088                0.00010000                5.89462214               -0.20541553               -3.87980603               -3.45214656               26.02154470               -0.60902563
              12.39866173                9.19740009               56.46323512                0.00010000                6.61827234               -0.82139754               -4.97522214               -3.55096014               27.28901958                0.18139439
              13.46714754                8.75318184               56.43358729                0.00010000                6.73399340               -0.75518332               -5.83578567               -3.56772726               29.31452812                0.82063078
              14.53334160                8.29378824               56.42897510                0.00010000                6.20746954               -0.32342477               -6.41820665               -3.59626123               32.10279381                1.92021824
              15.59129693                7.82229450               56.45721940                0.00010000                5.17058731                0.44293683               -6.46454804               -3.34642323               34.04346256                4.70811900
              16.63675334                7.34387115               56.49337908                0.02475143                3.76578235                0.90416013               -6.30741813               -2.70367195               32.02671698               12.60176001
              17.66661258                6.87004234               56.48007054                0.20013359                1.89038592                1.57453369               -3.30593403               -1.48901166               15.01043518                1.49544075
              18.67456106                6.42679183               56.17367144                0.63988176                0.79484842                1.41948593               -3.08378352               -0.09659465                0.51427533               -0.00736598
               8.62798848               11.73489893               57.09032627                0.85776813                0.19354229               -0.04750539                0.09865335               -0.04898228                0.01972636                0.66998974
               9.62992391               11.38284416               56.77148906                0.31862088                0.42596647                0.43412136               -1.38892103               -0.01486460                0.38892521               -0.52086508
              10.63650781               11.02957738               56.45996713                0.00010000                4.14012478                0.81810740               -2.84969648               -2.84566282               14.82017135               -1.19346404
              11.71272640               10.61824167               56.42875960                0.00010000                8.30938689               -1.50930531               -4.30757908               -3.14347829               29.20356046               -0.29590142
              12.80269555               10.18636422               56.40464902                0.00010000                8.80254690               -1.39646183               -5.40611276               -2.38797589               30.44952560                0.07128466
              13.88877734                9.74488917               56.39878477                0.00010000                8.33041015               -1.04744863               -6.20009080               -1.93037621               32.84747531                0.43843708
              14.96930375                9.28955469               56.42508407                0.00010000                7.67190975               -0.62927595               -6.52688696               -1.74719974               36.75367043                1.27471093
              16.04221553                8.82336793               56.50090644                0.00010000                6.40389912               -0.39536399               -5.85745971               -1.69930879               44.18902147                3.72119477
              17.09738174                8.34420599               56.67886559                0.12857475                3.45382509                0.13057503               -2.02398006               -1.10339982               31.12156692               10.68262000
              18.11129204                7.88092504               56.49485744                0.31261309                1.07191065                0.96931139               -2.78120152               -0.83881303                6.59728886                0.33114075
              19.11881995                7.43603672               56.18181532                0.64301039                0.75279120                0.79081047               -2.35573730                0.00490346                0.20866434               -0.57628023
               8.97712061               12.73482260               56.99173125                0.93370195                0.29103611               -0.00763253               -0.19687391                0.20033441                0.29855907                0.56807942
               9.98003097               12.38769382               56.66909477                0.70773412                0.56689527                0.48496606               -1.71113905                0.16977517                1.05584565               -0.45592992
              10.98845852               12.03800397               56.36153453                0.42801641                6.75473556                0.84265907               -3.18870483               -4.55092048               16.69549961               -0.71840638
              12.11512568               11.59277400               56.35022541                0.33929964               11.78980946               -2.54676720               -4.59935566               -3.18672761               32.14089778               -0.03336741
              13.22425471               11.16947085               56.34327881                0.33173969               10.51119300               -1.68933701               -5.63264118               -0.87114081               33.49886405                0.19037605
              14.32534955               10.73223287               56.35618126                0.33772579                9.78320665               -1.26563065               -6.31865520               -0.75618601               36.17153374                0.46080928
              15.41991884               10.28120272               56.40429114                0.35712209                8.86549562               -0.83519713               -6.46853512               -0.83077351               40.85324140                1.03273468
              16.50265946                9.81438722               56.51487436                0.39092452                6.86047002               -0.89807131               -5.20372825               -0.69161117               48.34838899                2.99604385
              17.55712824                9.34648265               56.71750089                0.61050941                2.76730664                0.22766627               -1.67612418               -0.27328234               31.68822146                3.89620749
              18.55800559                8.88942856               56.50590304                0.70695976                0.36537692                0.85035233               -2.58668756               -0.52237540                5.80892807                0.22859400
              19.56443578                8.44260804               56.19220511                0.82248576                0.64301889                0.65713206               -2.04868754               -0.12046963                0.67811026               -0.45218625
               5.55635751                2.88062400               58.98032077                1.00000000               -0.67411951               -0.84353969                2.91943278               -0.26457964               -0.66568309                0.70918949
               6.54961631                2.48365736               58.69670233                1.00000000               -0.48254273               -0.39986495                1.50705250               -0.20213972               -0.84665590                0.11496505
               7.54670665                2.08592263               58.40918623                1.00000000               -0.10111682                0.02982462                0.11440517               -0.20688439               -0.77008858               -0.13977328
               8.54759398                1.68635264               58.12678431                0.70190235                0.15508530                0.50770830               -1.32047928               -0.33881940                0.28079277               -0.66717535
               9.54980836                1.28287825               57.85994358                0.74388901                0.48319688                1.08058528               -2.92491477               -0.32678496                1.30871659               -0.00938761
              10.55725791                0.87753498               57.59761410                0.73268220                0.92596786                1.51639909               -4.47227685               -0.34536830                1.44462889               -0.29267965
              11.56832772                0.46739442               57.33325599                0.35174096               -1.14980887                2.06268062               -5.96508391               -3.55493257                3.67727753               -0.64965818
              12.53426174               -0.01218471               57.11635796                0.00010000              -15.91456621                2.29414353               -5.94457300              -28.35188120                8.03515037               -2.10752128
              13.25003639               -1.02205535               57.03371483                0.00010000              -11.03132598                8.20836500               -7.45016961              -29.61742112               12.78166532                1.64757679
              14.31363522               -1.82297653               56.95222774                1.00000000                5.78292944                4.86213454              -15.82026359              -20.02361915                6.52779016                2.46349814
              15.36569498               -2.22789983               56.70614150                1.00000000                5.20597640                5.63474477              -18.33571437               -0.54586895               -0.78263148               -0.87245415
               5.95067834                3.87218860               58.88058782                1.00000000               -0.57327438               -0.79728028                2.60864744               -0.03497247               -0.08695281                0.96689078
               6.94494560                3.47965872               58.59688561                1.00000000               -0.36940852               -0.35877186                1.19542588                0.02320595               -0.10127534                0.18386952
               7.94329017                3.08622088               58.31265996                1.00000000                0.03911866                0.07169168               -0.20095554                0.02762328                0.00009359               -0.27009554
               8.94572797                2.69142972               58.03074229                0.64629796                0.38295834                0.54025200               -1.63518312               -0.05758748                1.50508702               -0.87205621
               9.95094934                2.29368411               57.77638305                0.76630361                0.79090879                1.08682461               -3.32812092               -0.09209183                2.71054234               -0.04469133
              10.96154615                1.89269897               57.51758743                0.80318951                1.33444499                1.54649185               -4.92446133               -0.12472610                2.43230332               -0.46115321
              11.97763824                1.48802123               57.25679549                0.29001522                1.69608302                2.05877285               -6.43008499               -3.61034868                7.58392169               -1.00298022
              12.99546781                1.01075672               57.10016058                0.00010000               -5.91900747               -4.89164645               -3.34012807              -31.39715940               21.88886920                4.34485185
              13.85925809                0.06002830               57.12741527                0.00010000              -13.95732707                6.95152493               -6.06531382              -39.19612670               27.34150301                3.32352644
              14.71632127               -0.77435518               57.13332750                1.00000000               -4.70492488                4.31276234              -15.97715023              -20.87073081               12.85639431                6.61969013
              15.76515959               -1.17155238               56.88394632                1.00000000                4.88383251                4.88478032              -18.28117836               -0.78005794                2.52216145                1.76246301
               6.34071782                4.86467839               58.78575845                1.00000000               -0.46696706               -0.70020921                2.27802501               -0.03635676                0.12155347                1.16006448
               7.33604815                4.47648193               58.49826536                1.00000000               -0.26148568               -0.27035158                0.87498867                0.01970401                0.26236103                0.14066120
               8.33548811                4.08735646               58.21341139                0.82458062                0.14654220                0.16429507               -0.51506412                0.02340579                0.50449952               -0.54839588
               9.33897900                3.69715768               57.93057311                0.13987003                0.56045807                0.61026053               -1.89044906               -0.05111582                2.83355599               -1.08268150
              10.34669727                3.30461474               57.69216147                0.09250040                1.07236365                0.18459553               -3.76809735               -0.98099475                4.14688938                1.55801445
              11.36042627                2.90846482               57.43397811                0.13102476                1.56828606               -0.49532189               -5.37540382               -1.64422597                3.04970681                4.57830663
              12.37806299                2.50856988               57.17253943                0.04428085               -1.30574000               -3.02419732               -6.73454912              -12.67130144               17.60729812               10.21486360
              13.33431147                1.88998236               57.20435712                0.00010000               -6.34186150               -8.13357852               -2.39019096              -31.72992189               31.59442471                6.34715406
              14.25122576                1.11697515               57.23972830                0.00010000              -10.32550932                5.20620095               -4.71902194              -39.57283836               37.07408320                2.29195547
              15.12780128                0.26327872               57.36833808                0.85841698               -5.33687733                2.61124579               -4.23421875              -22.13938302               20.99287776                5.87997388
              16.14448822               -0.13020422               57.08016683                1.00000000                1.66869326                3.22542595               -8.19502544               -0.90122988                0.41181748                0.19797978
               6.72634413                5.85818441               58.68966147                1.00000000               -0.36825269               -0.58833189                1.93553226               -0.04772574                0.23713847                0.96398455
               7.72266160                5.47425168               58.39742461                0.75916349               -0.16307982               -0.16747383                0.53884127                0.01181827                0.54501222               -0.22854941
               8.72308253                5.08950678               58.11123755                0.19317417                0.23928849                0.27868062               -0.82669608                0.00369838                1.11646445               -1.08539755
               9.72744737                4.70363493               57.83029330                0.01013457               -0.15301154                0.59708082               -2.17027260               -1.13490389                5.95910174               -0.21186061
              10.72002230                4.29737602               57.64097375                0.00010000               -0.13704392               -0.72544219               -3.28284134               -2.66697081               10.50842967                3.54673273
              11.72470650                3.88279254               57.45474783                0.00010000                1.13361833               -2.72723781               -4.43579463               -4.91837725               13.40301399                8.39154743
              12.74269467                3.42753728               57.32075897                0.00010000                1.38787994               -6.81586136               -4.67984444              -12.50957051               20.70397069               13.84435293
              13.75246409                2.84808515               57.26541668                0.00010000               -2.40948545               -3.51100379               -4.77203070              -20.32105729               29.03492381                4.17054190
              14.69450496                2.16415232               57.28721055                0.00010000              -11.58755575                3.45906796               -4.29944351              -30.86484430               42.29631658               -3.90971639
              15.52071298                1.27786973               57.50095649                0.11722752               -8.02020437               12.12094389               -3.14102783              -11.59411467               27.08305345              -20.71731933
              16.53410087                0.89295614               57.19767024                0.80933777                1.33878947                3.41446534               -6.78031164                9.34458956                2.04514260              -20.48526091
               7.10762877                6.85291175               58.59069075                1.00000000               -0.26666147               -0.46820618                1.58099897               -0.04644809                0.11851709                0.74396472
               8.10496216                6.47313245               58.29129669                0.42826045               -0.07249709               -0.06122207                0.17169044                0.03180584                0.58254055               -0.55765949
               9.10617883                6.09293008               58.00114953                0.00010000                0.17247632                0.38227625               -1.17697108               -0.07764698                2.87311663               -1.69229211
              10.10841168                5.70909930               57.74745261                0.00010000                0.40107128               -0.10881306               -1.68615815               -1.71413747               10.28890061                3.00837768
              11.11420025                5.29010590               57.60746174                0.00010000                1.17428899               -0.91156881               -3.20112642               -2.95126788               16.01821509                3.73965464
              12.13189746                4.85392006               57.46808873                0.00010000                2.41893562               -2.76166701               -4.16847720               -4.80974682               18.03817226                5.72344641
              13.16257897                4.37225265               57.36175152                0.00010000                2.96889100               -4.48984524               -4.91335357               -9.53001128               22.51652197                5.41895304
              14.19127528                3.81976228               57.29950793                0.00010000                2.07826652               -2.47249013               -5.51452575              -15.50846739               27.25016270                1.22077382
              15.20414430                3.18615651               57.27620420                0.00010000               -1.20800536                2.57020940               -6.09843627              -17.51905687               26.60573175               -7.47655761
              16.16711517                2.50569760               57.19158561                0.01719369               -5.14685500               17.50029283               -6.46775019               -5.15266631               16.24822041              -28.77866853
              17.10120720                1.93808509               56.96465697                0.63932442               -6.59079779               10.71621522               -8.46820510               -0.67522815                9.03023283              -29.25369186
               7.48497377                7.84882029               58.49001822                0.96441976               -0.16943747               -0.36008088                1.26657884               -0.03723249                0.05888381                0.70131889
               8.48327940                7.47302724               58.18387546                0.29585879                0.02944890                0.03052763               -0.14835130                0.05193412                0.51367546               -0.60708447
               9.48556275                7.09715230               57.88681622                0.00010000                0.63547018                0.43667511               -1.53386692               -0.81983634                7.31681616               -1.99733097
              10.49598880                6.70145867               57.71636235                0.00010000                1.53067150               -0.52434444               -2.44395997               -2.11619890               14.87051156                2.84266194
              11.51617618                6.27914464               57.57203931                0.00010000                2.51880051               -1.10092844               -3.46004660               -3.59047155               17.85192438                2.61200685
              12.54636481                5.82755920               57.45934794                0.00010000                3.50380233               -2.25547517               -4.49202692               -5.79197463               20.91091265                3.02158268
              13.58625223                5.33774037               57.37094417                0.00010000                4.10130370               -2.72278768               -5.45511924               -9.36164400               23.79705487                2.24579990
              14.62839088                4.79863535               57.30678002                0.00010000                3.59681422               -1.22200886               -6.53073509              -13.20542842               25.78891903               -0.66814730
              15.65818851                4.21555651               57.24652835                0.00010000                1.86700974                3.40492714               -8.15633404              -14.64756795               24.45628622               -5.75284127
              16.66573108                3.62787559               57.14355839                0.00343502               -0.11835884               11.24071863              -10.77507203               -8.61654651               15.12242911               -8.75380877
              17.65582133                3.10728044               56.89034329                0.60874661               -0.99097458               16.89955756              -12.27192073               -1.39601196                7.50001205              -13.08296886
               7.85847022                8.84571013               58.38997989                0.91140919               -0.08013909               -0.27156597                0.98865215               -0.04130441                0.03008394                0.77275262
               8.85766883                8.47374300               58.07704122                0.24414191                0.14402273                0.11845182               -0.46127310                0.04384533                0.39184302               -0.58380444
               9.86135067                8.10166358               57.77130453                0.00010000                1.32132706                0.48328701               -1.87684536               -1.37338663                9.58775696               -2.11276374
              10.88409537                7.69861241               57.64168677                0.00010000                2.74698143               -0.16914414               -2.97990142               -3.00832204               19.13412084               -0.16320731
              11.91629030                7.26808733               57.52871048                0.00010000                3.66834334               -0.91946446               -4.03119927               -4.55367949               21.04133160                1.07665972
              12.95746223                6.80881056               57.43717051                0.00010000                4.39898159               -1.49787370               -5.06251321               -6.48911392               23.29281771                1.33422279
              14.00426993                6.31779690               57.36697657                0.00010000                4.59441718               -1.36117127               -6.15230844               -8.96880845               25.37710572                0.97825604
              15.04935058                5.79532211               57.31256652                0.00010000                3.88413829                0.31218987               -7.46229169              -11.14684076               26.87684649               -0.20356143
              16.08195270                5.25425505               57.26611368                0.00010000                2.68548671                3.98069577               -9.40451934              -10.77683779               27.44162010               -1.34570238
              17.10306031                4.73051197               57.21477594                0.03490209                1.62622764                9.30407406              -14.88815633               -5.56235075               18.15540602                2.30428358
              18.11447725                4.27607624               56.97050650                0.60961472                1.14169389               13.33770535              -14.99232511               -0.77062076                8.87654221               -0.58102627
               8.22808194                9.84338897               58.29043842                0.88684334                0.01209143               -0.19518255                0.69937891               -0.04499611                0.01731552                0.81913849
               9.22820286                9.47539628               57.97052957                0.23687863                0.25718337                0.21855779               -0.77730330                0.01788834                0.29538163               -0.58737636
              10.23322561                9.10681804               57.65614640                0.00010000                2.05978734                0.58193849               -2.23800155               -1.89509950               11.38928549               -2.17846519
              11.26939861                8.69807579               57.55735426                0.00010000                4.08394124                0.00809049               -3.56294562               -3.83721104               22.74562425               -0.99159653
              12.31490444                8.26075535               57.47287738                0.00010000                4.87371811               -0.62926374               -4.69132526               -5.06262064               24.26702046               -0.10415342
              13.36687297                7.79760172               57.40706417                0.00010000                5.27300372               -0.86761631               -5.73725240               -6.29857175               26.14022740                0.39362813
              14.42036451                7.31051695               57.36245921                0.00010000                5.10614714               -0.35597354               -6.80886877               -7.59050095               27.95161357                0.83193832
              15.46899591                6.80487915               57.33472926                0.00010000                4.35486897                1.16408867               -8.09944920               -8.21369583               29.28105181                2.15566433
              16.50746189                6.29517043               57.31751154                0.00010000                3.18334855                3.62806809               -9.68032517               -6.36494158               32.45351069                3.67594577
              17.53266288                5.81395707               57.35764566                0.09348238                2.09092462                6.16032266              -12.03955592               -2.39149303               19.87889954                6.07182592
              18.54928038                5.37403455               57.08556641                0.61929117                1.66175015                6.61356258               -9.59030390               -0.37813374                5.30489483                3.40900378
               8.59355568               10.84180648               58.19108759                0.88547248                0.10418417               -0.12372629                0.41381720               -0.04964713                0.00731469                0.82284498
               9.59459752               10.47811416               57.86399513                0.26909490                0.36067455                0.32964952               -1.10404565               -0.01341300                0.22250684               -0.60602425
              10.60076917               10.11330235               57.54116465                0.00010000                2.94081589                0.73216340               -2.66630136               -2.44950707               13.05575456               -2.03344885
              11.65341384                9.69877422               57.46987290                0.00010000                5.73713925               -0.11579704               -4.19274883               -4.40347033               26.10158617               -1.08799824
              12.71551196                9.25550206               57.41133241                0.00010000                6.41576805               -0.70222871               -5.38041252               -4.73076695               27.45825424               -0.48562668
              13.78172920                8.79145823               57.37208528                0.00010000                6.48352658               -0.55043587               -6.40682728               -5.05465042               29.42726492               -0.01414625
              14.84518249                8.31067743               57.35994601                0.00010000                5.93469922                0.07785538               -7.35279114               -5.30944909               32.20340854                0.95455820
              15.90042318                7.81860388               57.38518974                0.00010000                5.01967275                1.15627577               -8.01281610               -4.84540433               34.05495676                4.02153225
              16.94557594                7.32681642               57.41882556                0.01070016                3.79715712                2.01666803               -9.15391964               -3.20067384               33.82079154               14.21433776
              17.97636633                6.85371842               57.44210082                0.16332060                2.05918375                2.78143557               -5.27865690               -1.36064384               17.02252219                2.99587210
              18.98675962                6.40834749               57.13952555                0.61637075                1.03932907                2.32185584               -4.43569828               -0.38065296                1.28152245                1.32385475
               8.95447365               11.84091445               58.09147772                0.84990567                0.19650839               -0.05289582                0.13055518               -0.05098512                0.01941262                0.71413092
               9.95643873               11.48198927               57.75732485                0.30610520                0.45508810                0.44339871               -1.43930887               -0.03634970                0.37563129               -0.56020848
              10.96357541               11.12146131               57.43025165                0.00010000                4.13453781                0.86506531               -3.16761491               -3.22215776               14.81436446               -1.35937370
              12.03912949               10.69575985               57.38361054                0.00010000                8.20148346               -1.33425862               -4.77494089               -3.77603266               29.26045912               -0.60151942
              13.12760508               10.24671078               57.34775696                0.00010000                8.57375507               -1.11821959               -5.98329424               -3.13501690               30.60479813               -0.35131020
              14.21060459                9.78659300               57.33279335                0.00010000                7.97124015               -0.61977841               -6.95504275               -2.80634257               32.95887607               -0.09845106
              15.28702988                9.31207406               57.35387145                0.00010000                7.26721208                0.02838516               -7.73357435               -2.67994731               36.99720515                0.68007314
              16.35594883                8.82800466               57.43433968                0.00010000                6.06519929                0.53170118               -7.75273114               -2.45170103               46.05755874                3.48880752
              17.40833387                8.33550379               57.65191523                0.14042463                3.39850498                0.85340535               -3.98620063               -1.51074102               32.19714079               12.49378840
              18.42391893                7.86958578               57.46544069                0.29154082                1.20376608                1.26148295               -3.18577850               -0.79234647                6.35106836                0.41914523
              19.43240919                7.42047167               57.15773157                0.61300695                0.84902593                0.95995913               -2.72603784               -0.15650978                0.47812009               -0.13551141
               9.31038633               12.84074857               57.98994890                0.92884026                0.29373321               -0.01658785               -0.15888156                0.21462458                0.31672284                0.61025614
              10.31332366               12.48698213               57.65168198                0.70225666                0.60845530                0.49928643               -1.76776192                0.18124713                1.06018404               -0.49702944
              11.32255543               12.13060365               57.32825036                0.42857245                6.96600293                0.91423437               -3.54624079               -4.84665210               16.74204486               -0.81561124
              12.45264372               11.67208905               57.30189823                0.33911078               11.97115134               -2.36708038               -5.15296342               -3.52187646               32.29047308               -0.12544678
              13.56197846               11.23313767               57.28376690                0.33182647               10.37976738               -1.35731108               -6.32413498               -1.21398091               33.78839004                0.03248428
              14.66023907               10.77906267               57.28856304                0.33752293                9.40967102               -0.75303385               -7.20410360               -1.13117924               36.43943874                0.25963929
              15.75017188               10.31124513               57.33320291                0.35609584                8.38601830               -0.08289286               -7.83765029               -1.17703837               41.45620357                0.84834257
              16.82795943                9.82923790               57.45520821                0.38853150                6.18040598                0.12332396               -7.15735566               -1.16697020               50.38558099                3.45931541
              17.87378000                9.34388452               57.69566746                0.62422323                2.37960414                0.83807363               -2.97416577               -0.96987788               32.34740926                3.76582058
              18.87555152                8.87894808               57.47964406                0.70132883                0.40388250                0.93622986               -2.67643904               -0.65363423                5.23728529                0.07214542
              19.88185765                8.42754667               57.17221584                0.80584850                0.63061355                0.70750033               -2.17123759               -0.19529503                0.72952796               -0.16664141
               5.84056479                2.98890053               60.00928823                1.00000000               -0.65841030               -0.82800570                2.86465684               -0.26221679               -0.63503828                0.69039658
               6.83398069                2.58616354               59.71158860                1.00000000               -0.46703772               -0.38997303                1.46759076               -0.20103820               -0.80365737                0.11100882
               7.83122403                2.18267891               59.41016921                1.00000000               -0.08629613                0.03419087                0.08680740               -0.20438559               -0.73925680               -0.13046799
               8.83225476                1.77744151               59.11345868                0.69030216                0.17219090                0.50553332               -1.33261389               -0.34283794                0.19829379               -0.64001084
               9.83466785                1.36820061               58.83055050                0.71047077                0.49681510                1.07012094               -2.93180867               -0.33656542                1.16051806               -0.04627970
              10.84219106                0.95666061               58.55271067                0.66948268                0.91289666                1.51515076               -4.48241366               -0.38253262                1.35538420               -0.35214798
              11.85292579                0.53978532               58.27352988                0.28345832               -4.43556320                2.07340183               -5.94569778               -8.22831892                4.60613723               -0.64493190
              12.75347980               -0.03968083               58.06084529                0.00117651              -19.29086822                2.98077847               -4.36901984              -29.14220146                4.66347031               -4.13751396
              13.46710842               -1.10152780               57.96234720                0.00010000               -9.92458322                8.62606960               -6.84037429              -31.54885254                9.09012531                3.73357233
              14.55498814               -1.97872726               57.77984212                1.00000000                7.26803477                6.10537180              -17.30255861              -23.35122985                3.00778809                2.84397057
              15.61246912               -2.41729339               57.50459459                1.00000000                5.74809798                7.14367533              -20.47125570                0.38239780               -1.55620659               -0.64729143
               6.24067961                3.98062047               59.90647368                1.00000000               -0.55984962               -0.78226627                2.55993362               -0.03699871               -0.07079576                0.94510014
               7.23508111                3.58226381               59.60868160                1.00000000               -0.35692092               -0.34940844                1.16185485                0.01940876               -0.07402094                0.17705878
               8.23354119                3.18302082               59.31052856                1.00000000                0.04922099                0.07517306               -0.22019363                0.02521590                0.01593106               -0.26389035
               9.23606553                2.78249685               59.01431599                0.64011033                0.40757286                0.53794998               -1.63778723               -0.06723049                1.36244856               -0.82173359
              10.24169265                2.37890182               58.74297747                0.73626324                0.82539262                1.06832154               -3.32422392               -0.09573058                2.45904212               -0.11210709
              11.25257339                1.97181212               58.46806126                0.73954753                1.35603348                1.53782470               -4.93444795               -0.15310302                2.24273575               -0.53310745
              12.26881332                1.56051933               58.19207771                0.22068261                1.50704789                2.03450220               -6.44104528               -7.95023258               10.13965997               -0.95407012
              13.28271434                0.99012695               58.07533087                0.00010000               -7.38351055               -4.46103933               -2.06731507              -34.97529523               21.62156935                1.44643675
              14.12114311               -0.01526710               58.06598912                0.00010000              -15.16778546                7.79562513               -6.30824773              -41.09173987               19.96584509                4.30142376
              14.97935863               -0.91767354               57.93413423                1.00000000               -3.31419386                5.70559331              -22.63135996              -22.46082391                7.95803180               15.16373702
              16.05485923               -1.34585664               57.65784945                1.00000000                7.55005956                6.22707683              -25.64938833               -0.77402026                2.46133964                9.15973128
               6.63653814                4.97325520               59.80838620                1.00000000               -0.45696241               -0.68543341                2.23928815               -0.04053911                0.13615070                1.12975650
               7.63196851                4.57917537               59.50688373                1.00000000               -0.25214121               -0.26253128                0.84735189                0.01272275                0.28626206                0.12335376
               8.63149531                4.18418237               59.20816034                0.80355010                0.15303184                0.16740754               -0.52993801                0.01856381                0.54403906               -0.54637221
               9.63502915                3.78820051               58.91165345                0.13094479                0.59713262                0.60982724               -1.88176702               -0.07375609                2.62124703               -1.02331639
              10.64343797                3.38956704               58.65444009                0.08313163                1.12411688               -0.12119243               -3.73846589               -1.11752638                3.77989215                1.93809751
              11.65751149                2.98741711               58.38003445                0.11666629                1.60841668               -1.04983357               -5.35227197               -1.76173330                2.90234213                5.20163594
              12.67560630                2.58047536               58.10492790                0.02975440               -1.38755784               -4.45799458               -6.71799980              -16.59412452               20.07001410               11.44003109
              13.62976033                1.87109838               58.17312891                0.00010000               -6.12660937               -7.46848647               -3.82332660              -36.95411330               34.94880398                5.30851632
              14.55307411                1.05438470               58.18810543                0.00010000               -9.66995695                5.91721919               -5.82700247              -42.17003897               38.89263635                2.72936631
              15.43636119                0.13538461               58.32165262                0.93262739               -4.98596009                3.66492433               -4.18620786              -23.43115751               22.84481853               14.80830176
              16.45335491               -0.29275185               57.99046783                1.00000000                1.69937180                4.14273431               -8.18374927               -1.52045523               -0.66836678                7.95352470
               7.02802849                5.96691180               59.70891185                1.00000000               -0.36200905               -0.57462162                1.90854960               -0.05237172                0.25257774                0.93405383
               8.02440840                5.57701318               59.40271521                0.73017987               -0.15705835               -0.16495037                0.51938231                0.00571124                0.57590839               -0.26714105
               9.02488732                5.18636897               59.10284945                0.16758219                0.23986695                0.27990890               -0.84577619                0.00390123                1.17782371               -1.10420223
              10.02920574                4.79469339               58.80860024                0.00593354               -0.23808987                0.43483772               -2.15712370               -1.49429225                6.15820990                0.28366844
              11.02012553                4.37647797               58.60851753                0.00010000               -0.13876705               -1.33651364               -3.17971382               -3.29980529               10.85815614                4.13449048
              12.02643040                3.95081545               58.41061635                0.00010000                1.65620123               -3.90979079               -4.36084432               -5.98585094               14.20363713                9.29952260
              13.05324955                3.47135944               58.27332453                0.00010000                2.16461664               -8.97959159               -4.79749724              -15.26351273               22.22487077               14.86745677
              14.06972273                2.84075722               58.21592141                0.00010000               -1.98967272               -3.08175103               -5.18415627              -24.10923352               31.07938836                2.93790215
              15.01345610                2.10307728               58.24089475                0.00010000              -10.59253451                3.68843052               -5.02779850              -35.16553466               45.07084404               -4.68637394
              15.85787204                1.15562495               58.45539105                0.21649493               -6.63665215               12.66706642               -6.36477348              -15.26112138               29.39139603              -20.63901366
              16.88072305                0.73699805               58.11510134                0.92453292                2.28510126                4.25895810               -9.76671405                7.05203473                2.59550967              -20.33020777
               7.41528794                6.96176277               59.60654651                1.00000000               -0.26623691               -0.45583653                1.58084369               -0.04806960                0.11686530                0.73725447
               8.41262557                6.57587636               59.29297261                0.40656430               -0.06974063               -0.07101726                0.16415397                0.03736618                0.61319448               -0.59374076
               9.41389313                6.18978055               58.98928235                0.00010000                0.12043648                0.36014396               -1.18807834               -0.21306378                3.43485219               -1.74103068
              10.41503430                5.79689727               58.73209850                0.00010000                0.37133363               -0.56298829               -1.33577610               -2.34528644               10.67924443                2.98353342
              11.42131980                5.36283677               58.57588994                0.00010000                1.39393469               -1.57528259               -3.10148149               -3.86947164               16.18472951                3.87837754
              12.44291300                4.90922129               58.42644025                0.00010000                2.95372334               -3.88676787               -4.13819196               -6.24579479               18.71325756                5.85801753
              13.48039427                4.40088353               58.31197886                0.00010000                3.64724122               -5.74137265               -5.02170186              -12.23372670               23.42090465                5.12451184
              14.51585782                3.80946336               58.24242628                0.00010000                2.72507114               -2.88479184               -5.87335600              -19.27182914               28.30827880                0.31680256
              15.53489569                3.12815331               58.21154645                0.00010000               -0.93199121                2.76883706               -6.90932346              -22.02300998               28.11335450               -9.45876661
              16.49721800                2.38872594               58.12646116                0.02860801               -5.16231432               18.31839416               -6.31240373               -9.48053840               17.21753790              -33.31576624
              17.43164941                1.79242731               57.87562850                0.66580737               -6.55685913               11.50582222               -9.62159366               -4.01320084                9.78050947              -32.12204810
               7.79883991                7.95779507               59.50281174                0.94998593               -0.17019667               -0.34592854                1.28110992               -0.03721731                0.05683756                0.72856444
               8.79713795                7.57559284               59.18232160                0.28177764                0.03826153                0.00965248               -0.15625643                0.06572505                0.53225250               -0.62429548
               9.79960515                7.19357185               58.87132582                0.00010000                0.60529222                0.37061055               -1.55709835               -1.19588840                7.62126734               -2.07090931
              10.80924379                6.78343363               58.69227216                0.00010000                1.54034633               -0.99600019               -2.36609831               -2.98547905               15.38368342                2.27242983
              11.83041207                6.34497232               58.53766714                0.00010000                2.71119753               -1.72132720               -3.39084375               -4.78160365               18.26868745                2.31516805
              12.86346774                5.87308009               58.41411106                0.00010000                3.89604379               -3.08060456               -4.52232814               -7.65658183               21.37305455                2.66610496
              13.90833295                5.35653199               58.31517179                0.00010000                4.67743097               -3.54369472               -5.65151882              -12.15299195               24.25803436                1.61608442
              14.95701636                4.78306139               58.23872479                0.00010000                4.27001858               -1.69205432               -7.01360043              -16.89703368               25.98594512               -1.79088964
              15.99373332                4.15845402               58.16056223                0.00010000                2.34854592                3.52063607               -8.81800467              -19.06265789               24.26804961               -7.95379074
              17.00398728                3.52199283               58.03396401                0.00010000               -0.03385092               12.25003123              -11.14334440              -12.22856353               14.88006428              -14.54386525
              17.99305630                2.96711449               57.76330107                0.60252156               -1.09309801               17.86859514              -13.02147147               -4.03818052                7.26762127              -17.85011819
               8.17894807                8.95484420               59.39992141                0.90197953               -0.07847653               -0.25598389                0.99646506               -0.04159063                0.02580250                0.81442402
               9.17816330                8.57606941               59.07236015                0.23577667                0.15932547                0.09606503               -0.47021506                0.04518066                0.40113334               -0.60386997
              10.18213458                8.19719276               58.75227519                0.00010000                1.28804753                0.38349299               -1.93029220               -1.87954105                9.78276987               -2.23365106
              11.20392425                7.77697726               58.61171918                0.00010000                2.69533447               -0.45508559               -2.99150435               -4.11586138               19.52568858               -0.62920923
              12.23604127                7.32841022               58.48808084                0.00010000                3.71487192               -1.34425719               -4.05958707               -6.01065724               21.43741242                0.51496796
              13.27822169                6.84760920               58.38567306                0.00010000                4.56559353               -2.00647295               -5.18424385               -8.60627861               23.62104476                0.70990768
              14.32735314                6.33000963               58.30344076                0.00010000                4.88867126               -1.84197347               -6.48195833              -11.93055262               25.52592628                0.13786790
              15.37599512                5.77562227               58.23394343                0.00010000                4.36789765                0.09689389               -8.15462047              -14.93321735               26.59096457               -1.47818578
              16.41471109                5.19856604               58.16389452                0.00010000                3.39955708                4.42378999              -10.91324011              -15.51361030               25.05854112               -3.19939430
              17.44398626                4.63372656               58.04871860                0.00010000                2.29656933               11.07765884              -16.45824316               -9.96190212               16.10302451               -1.50177772
              18.46064248                4.14979921               57.78723350                0.58791581                1.66562185               16.98467649              -18.80457899               -3.82018946                9.01696041               -3.09897401
               8.55555768                9.95267539               59.29752577                0.88034763                0.01353264               -0.18269414                0.71338982               -0.04743253                0.01404593                0.86709476
               9.55569300                9.57751414               58.96264613                0.22968819                0.27743987                0.20131052               -0.79274970               -0.01085956                0.28997402               -0.62313604
              10.56110647                9.20124171               58.63326354                0.00010000                2.00080490                0.48374215               -2.34910671               -2.46550981               11.45948923               -2.40508811
              11.59570910                8.77433191               58.52096610                0.00010000                3.92302590               -0.10166981               -3.70435418               -5.02163653               22.98551746               -1.57848074
              12.63956699                8.31808717               58.42496496                0.00010000                4.70168301               -0.78011204               -4.84710851               -6.59040543               24.59407597               -0.79563272
              13.68974276                7.83295063               58.34807506                0.00010000                5.10709141               -1.02197323               -5.98829788               -8.47685535               26.36309600               -0.37807773
              14.74170882                7.31969252               58.29128172                0.00010000                5.00264260               -0.42712360               -7.33406819              -10.54995971               27.88035718               -0.13848257
              15.78979561                6.78499926               58.24771125                0.00010000                4.18240018                1.37462289               -9.19458847              -11.76206513               28.85643116                0.96102897
              16.82535682                6.24692982               58.21044877                0.00010000                3.18602256                4.75940885              -11.66552427               -9.99531261               30.48767198                1.95795393
              17.85351606                5.74354601               58.19760253                0.03925893                2.95751973                9.42190911              -19.44246314               -4.88725120               21.13335367                7.85018600
              18.88450722                5.30680802               57.95598316                0.59660509                3.09911540               11.56522755              -19.24045541               -1.43882021               11.30050666                5.50360665
               8.92832193               10.95119032               59.19534142                0.88041744                0.10578698               -0.11775779                0.43246127               -0.05322985                0.00346136                0.87976268
               9.92937980               10.58009562               58.85278952                0.26166593                0.38423384                0.32195024               -1.12888525               -0.06765583                0.16424969               -0.66044791
              10.93600660               10.20686760               58.51343618                0.00010000                2.86331279                0.70312436               -2.91640451               -2.98744071               12.97921553               -2.40539103
              11.98664605                9.77494387               58.42631591                0.00010000                5.48039168               -0.00729773               -4.56362770               -5.46692235               26.22188859               -1.73139579
              13.04561444                9.31280798               58.35562687                0.00010000                6.02165920               -0.55918244               -5.74328960               -6.08662129               27.76447521               -1.19986080
              14.10707924                8.82716973               58.30545075                0.00010000                5.93454355               -0.32541203               -6.82499183               -6.96216064               29.59145283               -0.77740652
              15.16430531                8.32146716               58.28191928                0.00010000                5.32186362                0.51033683               -8.14457071               -7.90311456               32.11323502               -0.02896627
              16.21351651                7.80311473               58.29696308                0.00010000                4.59763909                1.90631729               -9.65440641               -7.60928180               33.34033817                2.92397149
              17.25625809                7.29375421               58.31030069                0.00010000                3.64232611                3.51550201              -12.45876650               -4.80416374               35.52140474               15.03560633
              18.28636303                6.82216475               58.37449740                0.11517132                2.45419765                5.41093449              -11.55115589               -1.68347247               20.39446453                6.78696153
              19.30534204                6.38110376               58.08495748                0.59744707                1.89790118                4.69140873               -9.21260760               -1.14142981                4.37481758                4.41919613
               9.29668247               11.95032024               59.09293738                0.84281440                0.19801343               -0.05524793                0.15810490               -0.05336008                0.01590783                0.77544263
              10.29866260               11.58395314               58.74270288                0.30231115                0.49134741                0.44716770               -1.47673338               -0.07313242                0.22374033               -0.62269330
              11.30650941               11.21530419               58.39661483                0.00010000                4.08838358                0.94133586               -3.64931089               -3.63453117               14.62710987               -1.68935924
              12.38043027               10.77418596               58.33326078                0.00010000                7.95496419               -1.06270918               -5.43210395               -4.48140586               29.36571885               -1.06973888
              13.46560870               10.30690353               58.28498314                0.00010000                8.07050479               -0.73536666               -6.62628539               -4.00001556               30.95847550               -0.83744591
              14.54184037                9.82644239               58.25968391                0.00010000                7.10464160               -0.06417294               -7.57485446               -3.96905963               33.13949086               -0.61119105
              15.60770153                9.32989926               58.27041258                0.00010000                6.17412782                0.90197481               -8.77984682               -4.26121756               36.85293305                0.00043762
              16.66532292                8.82312561               58.34585182                0.00010000                5.12610019                1.93608633              -10.15199770               -3.91346888               47.21932666                2.85344992
              17.71022353                8.31723986               58.59914158                0.13393849                3.35870705                2.02702015               -8.14785293               -2.39892141               34.02805649               14.67859516
              18.73249707                7.85176470               58.43114187                0.25609757                1.67885280                2.01499915               -4.10395377               -0.83818921                7.39474267                1.50133185
              19.74380059                7.40063620               58.12729457                0.58981546                1.13035248                1.46014541               -4.10013610               -0.68581323                1.21165703                0.70255826
               9.65998892               12.95008536               58.98855362                0.92425517                0.29442773               -0.02348804               -0.12133142                0.22600691                0.34263397                0.67195117
              10.66293319               12.58903898               58.63373953                0.70485857                0.65471244                0.50858335               -1.81125022                0.20750736                0.92616443               -0.56162286
              11.67308317               12.22569432               58.29060971                0.43696128                7.12427051                1.03901248               -4.03351711               -5.11008956               16.56730064               -1.00956186
              12.80541860               11.75368968               58.24716614                0.33886847               12.01372645               -2.04962752               -6.04075431               -3.88085028               32.39382033               -0.30100509
              13.91335769               11.29810065               58.21679611                0.33188347                9.96418548               -0.88028767               -7.22146926               -1.61527076               34.26082558               -0.17094553
              15.00470231               10.82588628               58.21209919                0.33732500                8.45200222               -0.05561156               -8.02633162               -1.64350497               36.78062459                0.03110091
              16.08239774               10.33950666               58.24753813                0.35513151                7.16021061                0.96074010               -9.12648364               -1.73286996               41.60022147                0.55950710
              17.14790653                9.84183646               58.37172725                0.38624359                4.86214171                1.87108487              -10.11212589               -2.00224188               52.22865989                3.85767016
              18.17964057                9.33429462               58.65801757                0.62744916                1.91481934                1.70547536               -5.67513739               -2.02688256               34.15028748                4.64361826
              19.18620291                8.86246473               58.45237426                0.68631623                0.71211049                1.07000297               -3.01900062               -0.82881254                5.61630508                0.03777554
              20.19388278                8.41030667               58.14878035                0.79292879                0.76798700                0.96704724               -3.13233207               -0.20758661                1.08425533                0.21590690
               6.13905600                3.10006103               61.03761390                1.00000000               -0.63938117               -0.80683944                2.79181287               -0.25789049               -0.60896246                0.67540003
               7.13266219                2.69169154               60.72605415                1.00000000               -0.45022815               -0.37867811                1.42320916               -0.19851105               -0.76700900                0.10713040
               8.13005144                2.28259457               60.41092238                1.00000000               -0.07418159                0.03573646                0.06840361               -0.20038906               -0.71433938               -0.12221742
               9.13117855                1.87183781               60.10013203                0.67733872                0.18576470                0.49624691               -1.32150907               -0.33984521                0.10834787               -0.61635917
              10.13376673                1.45709872               59.80130741                0.67605716                0.51038310                1.04536555               -2.89809413               -0.34053124                0.99616503               -0.08214488
              11.14138622                1.03979084               59.50796583                0.60702620                0.92745549                1.49222088               -4.44080304               -0.39348963                1.26056541               -0.40860358
              12.15231584                0.61740013               59.21434204                0.21674752              -10.13361965                2.01416844               -5.85932237              -16.10024891                6.67897037               -0.66657375
              12.93871382               -0.12390613               59.02897757                0.00402169              -21.97368825                5.13079710               -2.11759561              -27.07599606                3.83638664               -4.80867283
              13.71284207               -1.15466773               58.89690734                0.00010000               -5.35851166                7.49662798               -6.52130683              -28.84580480                5.79534772                7.70936914
              14.83154359               -2.07468134               58.60617657                1.00000000                8.61119148                6.17903929              -16.17453279              -24.42658537               -0.34014789                2.26351154
              15.88506590               -2.54735538               58.29671639                1.00000000                5.35223129                7.31243949              -19.51751524                0.92159793               -2.03908526               -0.79508159
               6.54484658                4.09199263               60.93178649                1.00000000               -0.54362784               -0.76128403                2.49459828               -0.03929897               -0.05624150                0.92850423
               7.53941030                3.68790476               60.62012270                1.00000000               -0.34360868               -0.33880720                1.12468893                0.01481871               -0.04886363                0.17007795
               8.53797441                3.28295194               60.30825609                1.00000000                0.05588623                0.07567771               -0.22941414                0.02216322                0.03069894               -0.26093027
               9.54052803                2.87680028               59.99798655                0.63203898                0.42052480                0.52846432               -1.61681890               -0.07269615                1.21996274               -0.77419317
              10.54638490                2.46755238               59.70989857                0.70602258                0.83862965                1.03689580               -3.27047538               -0.09699223                2.19854187               -0.16784470
              11.55730062                2.05471305               59.41889847                0.67694519                1.33884666                1.50758064               -4.86302361               -0.17057424                2.05033588               -0.58565887
              12.57316184                1.63754181               59.12797458                0.15908924               -0.16564150                1.93617799               -6.32174896              -14.66291205               13.09346311               -0.91811198
              13.55398779                0.92740184               59.05881427                0.00010000               -8.66951047               -1.02658649               -2.64570929              -35.29235314               20.66190246               -0.50364586
              14.39977163               -0.07970145               59.00125032                0.00010000              -13.51831126                7.56622887               -6.85727055              -38.62900345               10.63220207                6.91875096
              15.28362156               -1.01289094               58.68070030                1.00000000               -1.64078485                5.64346356              -24.40283420              -22.18689356                1.06088872               28.13163411
              16.36695593               -1.47423099               58.37095855                1.00000000                8.33343657                5.94848851              -27.70712619               -0.71277629                1.12225134               22.12994547
               6.94644577                5.08483534               60.83054422                1.00000000               -0.44465125               -0.66437245                2.18477903               -0.04487553                0.14873638                1.10811907
               7.94199925                4.68491539               60.51521240                1.00000000               -0.24232963               -0.25423861                0.81733697                0.00523283                0.30868490                0.10690616
               8.94159917                4.28410813               60.20281263                0.77473584                0.15624675                0.16743941               -0.53449774                0.01356384                0.58820316               -0.55433121
               9.94512419                3.88240710               59.89293777                0.11909472                0.61574716                0.60314860               -1.85026070               -0.09280094                2.42749541               -0.96928876
              10.95391412                3.47783664               59.61739215                0.07321355                1.14305562               -0.44682030               -3.64772534               -1.18401164                3.42355338                2.36023857
              11.96798530                3.06994245               59.32693267                0.10143332                1.62273457               -1.61679290               -5.22861910               -1.75206691                2.75134155                5.85095308
              12.98636881                2.65612368               59.03817943                0.01783922               -0.89376416               -5.98531760               -6.58142562              -20.28275651               21.77858456               12.58416198
              13.95011002                1.85556214               59.12789059                0.00010000               -5.29070117               -4.49280027               -5.08385775              -40.34864920               37.38239429                4.52647755
              14.88055479                0.99665685               59.12318825                0.00010000               -8.38873795                6.33426370               -6.95282904              -43.03468101               41.81031369                5.03225486
              15.78233526                0.03818794               59.28461392                0.91648674               -4.35321584                3.65859318               -3.00854570              -23.71648609               25.66238882               28.31336507
              16.79349047               -0.42838561               58.91649184                1.00000000                1.11552091                3.77111469               -5.92510348               -1.67562742               -1.38863909               21.73960425
               7.34378897                6.07870518               60.72783246                1.00000000               -0.35467950               -0.55391923                1.86825380               -0.05511477                0.26670113                0.91921494
               8.34024218                5.68281998               60.40781226                0.70010359               -0.15174967               -0.16320750                0.49978391                0.00432474                0.60112511               -0.30263235
               9.34075398                5.28630073               60.09432202                0.13795402                0.23506588                0.27624834               -0.85448353                0.00970396                1.24531106               -1.13002071
              10.34494349                4.88886325               59.78715082                0.00010135               -0.27923309                0.13454746               -2.12043456               -1.87099818                6.41289789                0.95705839
              11.33516932                4.45861597               59.57737947                0.00010000               -0.04856290               -1.96564015               -3.04401109               -3.84235412               11.27672031                4.79408189
              12.34397224                4.02237719               59.36753095                0.00010000                2.33588528               -5.11783735               -4.24469049               -6.93460611               14.91371270               10.31147152
              13.38188702                3.51783546               59.22480902                0.00010000                3.12547022              -11.16140302               -4.87576256              -17.80945704               23.39105646               16.13853083
              14.40648164                2.83754583               59.16173356                0.00010000               -1.27174069               -2.61335880               -5.59277734              -28.15441923               32.59355937                3.11794202
              15.35645221                2.04698383               59.18665458                0.00010000               -8.60736679                4.03284215               -5.71704197              -38.77215957               45.81643624               -3.60995249
              16.23433431                1.06028092               59.37366102                0.31527510               -4.49308647               11.13106861               -9.41358112              -19.03719516               29.72429146              -17.25614603
              17.26659048                0.60119131               59.00233596                1.00000000                3.22561738                3.79150017              -11.94978988                4.34064979                2.45147323              -17.31729809
               7.73711387                7.07375696               60.62230763                1.00000000               -0.26236603               -0.43442519                1.56051726               -0.04548090                0.11011963                0.74618289
               8.73449021                6.68165124               60.29457977                0.38433771               -0.06819409               -0.08330960                0.15756886                0.05221598                0.64178913               -0.62821730
               9.73574998                6.28963309               59.97738796                0.00010000                0.04493859                0.32202740               -1.18355157               -0.46348165                4.19346896               -1.80419916
              10.73538898                5.88509805               59.72073709                0.00010000                0.39015571               -1.07883303               -0.99339872               -2.93658023               11.14732702                2.94430666
              11.74355310                5.43852384               59.54543211                0.00010000                1.73423589               -2.26794360               -3.00337223               -4.64853164               16.22728040                4.13767481
              12.77007370                4.96758571               59.38532489                0.00010000                3.57289641               -5.03643537               -4.08005288               -7.66395983               19.30734971                6.20619436
              13.81501103                4.43289562               59.26131749                0.00010000                4.38997850               -6.96176486               -5.07934363              -14.96892914               24.08148809                5.30288725
              14.85787327                3.80329496               59.18204081                0.00010000                3.36827395               -3.31227149               -6.10602218              -22.96721159               28.78794469                0.32802417
              15.88237651                3.07731369               59.13801773                0.00010000               -0.52446943                2.85744004               -7.53356869              -27.53137922               29.43725982               -9.63562229
              16.84738388                2.26080931               59.06533753                0.05479781               -4.19469051               17.72299630               -6.40986287              -15.18050421               17.35627598              -34.59568423
              17.79848270                1.64744439               58.77222509                0.70414931               -4.89011815               11.87408887              -11.28563182               -7.54103408                9.17737675              -30.29707576
               8.12709079                8.07001668               60.51564042                0.93616056               -0.16804234               -0.32361916                1.27391539               -0.03654289                0.04997255                0.76342952
               9.12541036                7.68115379               60.18075033                0.26851232                0.04733771               -0.01550849               -0.15446989                0.07860505                0.54337699               -0.64478631
              10.12803754                7.29274127               59.85567425                0.00010000                0.59553914                0.27098694               -1.56710140               -1.59850693                7.97388027               -2.18940064
              11.13732115                6.86728659               59.66904038                0.00010000                1.58367427               -1.38818839               -2.30523852               -3.80348299               15.98369401                1.60341287
              12.15971103                6.41325710               59.50422243                0.00010000                2.95000532               -2.37174835               -3.30806181               -5.90532705               18.69210451                2.19245281
              13.19632125                5.92164848               59.36890138                0.00010000                4.35440790               -3.92704961               -4.50716585               -9.51037145               21.76730798                2.63699536
              14.24679918                5.37860016               59.25791379                0.00010000                5.31990444               -4.42256491               -5.74979381              -14.94205131               24.52611205                1.51505304
              15.30271934                4.77130040               59.16650801                0.00010000                5.07555464               -2.32615174               -7.29393277              -20.58123445               25.94077316               -2.07668880
              16.34831028                4.10413263               59.07016826                0.00010000                2.89370911                3.15334690               -9.07784613              -23.52938530               23.98421326               -9.00525697
              17.36059352                3.41474085               58.92069150                0.00010000               -0.29053225               13.80142934              -11.29802677              -15.55308013               14.50773457              -18.82934153
              18.34249963                2.83867308               58.62991386                0.60233300               -1.80938912               18.69851423              -13.59479012               -6.64157867                6.58946652              -20.38914843
               8.51410878                9.06728458               60.40990919                0.89397007               -0.07710675               -0.23529112                0.99422780               -0.04278249                0.02104938                0.86215112
               9.51333771                8.68134107               60.06763692                0.22866060                0.17691329                0.06751972               -0.46708172                0.03112304                0.38894954               -0.63177869
              10.51764704                8.29505283               59.73269868                0.00010000                1.27328891                0.24070080               -1.97967388               -2.39744525                9.99454463               -2.43133202
              11.53880349                7.85733428               59.58185668                0.00010000                2.67188113               -0.76885736               -2.97039002               -5.19387857               19.99617797               -1.04471020
              12.57108467                7.39108887               59.44751874                0.00010000                3.78598590               -1.79802170               -4.04018974               -7.41617982               21.88635837                0.15644321
              13.61452321                6.88904471               59.33348563                0.00010000                4.77167070               -2.56930024               -5.22581347              -10.75738319               23.95224117                0.47805979
              14.66651808                6.34444433               59.23733741                0.00010000                5.30964512               -2.46656912               -6.66563271              -15.03682546               25.58412948               -0.13531953
              15.72071611                5.75677193               59.14947411                0.00010000                5.09151370               -0.51101603               -8.61459504              -18.99127795               25.92838047               -2.03869142
              16.76834836                5.14038063               59.04784888                0.00010000                4.05328542                4.18953553              -11.71451567              -20.04601300               23.06455050               -4.43393306
              17.80178182                4.53683789               58.88561108                0.00010000                2.47191475               11.52205722              -15.92147172              -13.48819549               13.82745313               -6.48466455
              18.81778665                4.02141467               58.59441492                0.57115982                1.60048320               17.38548134              -18.63031526               -5.74084025                7.23495474               -7.88285936
               8.89812214               10.06531086               60.30470622                0.87517148                0.01424259               -0.16472218                0.71582788               -0.04967089                0.00885759                0.92299072
               9.89826457                9.68250419               59.95467457                0.22592640                0.29866432                0.17536879               -0.79035779               -0.06527625                0.23490423               -0.67076773
              10.90409543                9.29755529               59.60916427                0.00010000                1.95714839                0.33952050               -2.47038876               -3.07073433               11.47811191               -2.77194354
              11.93740754                8.85190945               59.48326718                0.00010000                3.77907838               -0.27413311               -3.78890701               -6.17005937               23.28329904               -2.24576457
              12.97967700                8.37729667               59.37593521                0.00010000                4.52052979               -0.98011023               -4.93001574               -8.05325077               25.03949307               -1.32162293
              14.02781813                7.87026248               59.28729821                0.00010000                4.93292330               -1.23717321               -6.12195659              -10.76426271               26.69120342               -0.73166273
              15.07833546                7.32926878               59.21577784                0.00010000                4.95696728               -0.67385464               -7.69397925              -13.98828118               27.80796594               -0.55759768
              16.12695748                6.76108008               59.15083749                0.00010000                4.44942930                1.10854089               -9.94483122              -16.16065045               28.22404118                0.20268757
              17.16732405                6.18792334               59.08420106                0.00010000                4.14190457                4.92275535              -13.65727471              -15.28883646               26.44713811                0.48143796
              18.20979557                5.64518199               58.96879640                0.00010000                4.56026091               10.95402107              -22.09759315               -9.68618096               17.55179207                6.78846045
              19.25852927                5.18638271               58.70075730                0.56943948                4.87336974               15.20026628              -25.75972719               -4.10247008               10.78900121                5.80672812
               9.27872870               11.06399013               60.19973682                0.87600884                0.10590545               -0.10498769                0.43954735               -0.05723596               -0.00357336                0.94948926
              10.27978775               10.68484845               59.84141743                0.26240912                0.40492004                0.30406067               -1.13161706               -0.15876859               -0.01786781               -0.73517140
              11.28682710               10.30184324               59.48283656                0.00010000                2.79365857                0.64726540               -3.19579952               -3.57662753               12.69799442               -3.02414635
              12.33566092                9.85185162               59.37860035                0.00010000                5.24197601                0.08026966               -5.06541727               -6.48442770               26.38060700               -2.69816744
              13.39166662                9.37148667               59.29646662                0.00010000                5.58024596               -0.42520242               -6.08344829               -7.34379521               28.33467758               -1.87251392
              14.44726584                8.86430125               59.23558544                0.00010000                5.21341177               -0.12708681               -7.08448672               -9.01863011               30.00140949               -1.16785910
              15.49593485                8.33096723               59.19705459                0.00010000                4.57913490                0.85975910               -8.67875141              -11.28866628               32.07370143               -0.49672332
              16.53884854                7.77894274               59.19210161                0.00010000                4.12674311                2.46147060              -11.38375247              -12.37413011               32.36642047                1.92421600
              17.57846972                7.23883574               59.16965023                0.00010000                3.53751429                4.67177341              -14.70996460               -9.33717652               34.76124388               14.26020797
              18.60959883                6.75591832               59.21107770                0.05166084                3.74330477                8.82767825              -23.01031791               -3.97752561               24.30710585               12.45751783
              19.65333581                6.32542000               58.95527340                0.57780857                4.37369852                9.21586229              -22.65136060               -2.75944814               12.58094593               10.14669335
               9.65526079               12.06321110               60.09463981                0.83593590                0.19752973               -0.05175106                0.17553886               -0.05564569                0.00735636                0.85788247
              10.65723609               11.68858540               59.72779018                0.31876729                0.51494596                0.44139714               -1.49257346               -0.13537009               -0.17889925               -0.71078498
              11.66555971               11.31050060               59.35726543                0.00010000                4.04197354                1.02897064               -4.13859069               -4.07114116               13.99951932               -2.20815520
              12.73807556               10.85351484               59.27496846                0.00010000                7.73958757               -0.67966910               -6.67763383               -5.15175862               29.48107685               -1.88846510
              13.82035146               10.36879262               59.21523125                0.00010000                7.49447018               -0.26969250               -7.45731946               -4.75993959               31.82709067               -1.33579645
              14.88796496                9.86772074               59.18129626                0.00010000                5.87845907                0.52764444               -7.96299285               -5.22424835               33.79645850               -0.87310220
              15.93792064                9.34646396               59.17827451                0.00010000                4.18207046                1.86084712               -9.50166246               -6.53989252               36.68299066               -0.37730530
              16.97160637                8.81030949               59.23129972                0.00010000                3.28421518                3.78488516              -12.30394187               -7.09502525               47.51134296                1.98108795
              18.00360495                8.28135881               59.48895818                0.10327644                3.60272115                4.00845816              -17.59137935               -4.54524597               38.39944921               16.25099707
              19.04366079                7.82173556               59.38336162                0.21458975                3.03659947                4.06602461               -7.92140782               -1.15714212               11.87095904                5.89921462
              20.06433694                7.37069996               59.07572885                0.58628611                2.06761409                3.17366186               -8.69788153               -2.23382200                3.79920310                3.49135404
              10.02686719               13.06295511               59.98752227                0.92009532                0.29236683               -0.02559897               -0.09000619                0.23276767                0.38134373                0.76059635
              11.02979086               12.69367639               59.61545697                0.72232582                0.68038249                0.50909920               -1.83007670                0.22885387                0.58668288               -0.65494481
              12.04047484               12.32242265               59.24758002                0.46118841                7.22714373                1.19220576               -4.37009542               -5.27939512               15.84793109               -1.34752984
              13.17433373               11.83825824               59.18108314                0.33876016               12.08935438               -1.52566032               -8.04467682               -4.19067485               32.30632120               -0.55363575
              14.28226192               11.36609282               59.13933752                0.33191885                9.53879028               -0.26998034               -8.45889140               -1.97915860               35.42743178               -0.42704956
              15.36510954               10.87485414               59.12803641                0.33708224                7.01431642                0.71333957               -8.62835976               -2.18097468               37.69068535               -0.14240655
              16.42254825               10.36818418               59.15067324                0.35418454                4.84718274                2.17202161              -10.00834200               -2.54792356               41.54542287                0.31813376
              17.46205319                9.85464045               59.25296569                0.38394811                2.67952413                4.43309530              -13.35497122               -3.41428188               53.97294820                3.36603762
              18.47613874                9.31900490               59.58216471                0.61655580                1.75308223                3.76460952              -14.20478732               -3.61670304               39.16059191                8.92748195
              19.49711483                8.83723881               59.41926405                0.66845073                1.72959194                1.55032520               -4.85892451               -1.16017915                8.84950178                0.61254260
              20.51073057                8.38889324               59.10956920                0.79381992                1.36157392                1.81932822               -6.56267763               -0.19519324                2.79964590                0.88656137
               6.45150505                3.21406335               62.06512449                1.00000000               -0.61730177               -0.78031079                2.70215443               -0.25170057               -0.58621428                0.66316913
               7.44533203                2.80016903               61.74005278                1.00000000               -0.43228403               -0.36619185                1.37444796               -0.19458932               -0.73491738                0.10322500
               8.44285937                2.38556714               61.41153728                1.00000000               -0.06476686                0.03448223                0.05907296               -0.19499105               -0.69346159               -0.11484158
               9.44403669                1.96940529               61.08702850                0.66378509                0.19489936                0.48019448               -1.28822549               -0.33102557                0.01284820               -0.59600944
              10.44675735                1.54937539               60.77258862                0.64192656                0.51655258                1.00847891               -2.82363753               -0.33968167                0.81223444               -0.11478922
              11.45436774                1.12662325               60.46389461                0.54701835                0.93680493                1.45088543               -4.34153249               -0.39569780                1.14315342               -0.45710577
              12.46549345                0.69918874               60.15634344                0.13257738              -15.33627595                1.91309518               -5.70293183              -23.58021470                9.66002574               -0.74947435
              13.14764222               -0.19552770               60.01849338                0.00010000              -22.98385396                7.66687123               -1.41413874              -25.25731211                9.58382345               -1.92030314
              14.00581637               -1.15602636               59.83192107                0.00010000                0.03669568                5.28533739               -6.21874011              -23.74036506                3.77589537               12.15099457
              15.14837614               -2.08250449               59.45635146                1.00000000                9.23957033                4.90262885              -12.98683044              -23.03344624               -2.44097429                1.57853610
              16.19060778               -2.58167936               59.11424429                1.00000000                4.22316413                5.86461757              -15.87710180                0.70051126               -2.01680789               -0.59060009
               6.86288235                4.20626024               61.95636564                1.00000000               -0.52481126               -0.73458676                2.41369518               -0.04173973               -0.04283298                0.91599117
               7.85763424                3.79650712               61.63117538                1.00000000               -0.32955138               -0.32725461                1.08438583                0.00967431               -0.02508559                0.16289143
               8.85629133                3.38591196               61.30594027                1.00000000                0.05940338                0.07313386               -0.22909370                0.01873787                0.04510122               -0.26106410
               9.85882231                2.97420724               60.98197961                0.62271590                0.42301160                0.51225841               -1.57374126               -0.07444672                1.08150789               -0.72940230
              10.86475156                2.55946018               60.67756796                0.67711920                0.83408887                0.99577592               -3.17532569               -0.09591738                1.94074032               -0.21005014
              11.87550409                2.14113210               60.37080079                0.61859945                1.30076102                1.45902232               -4.72842235               -0.18785921                1.87863051               -0.61889379
              12.89076678                1.71831970               60.06564273                0.11152305               -2.64137150                1.80677082               -6.12028284              -20.76322381               14.99295291               -0.92518870
              13.82267666                0.88114101               60.02241668                0.00010000               -8.94328308                2.71181759               -4.51307596              -33.83677549               22.78602117                1.75214283
              14.71190112               -0.10317299               59.92884371                0.00010000               -9.59042419                6.28259529               -7.28843157              -34.39392643                4.60970173               11.47120308
              15.63086817               -1.03347820               59.44607754                1.00000000               -0.75566804                4.55978427              -20.07342505              -20.59654758               -5.14562218               41.36980001
              16.69678776               -1.52303318               59.10370693                1.00000000                6.59195838                4.61710938              -22.96071780               -0.39457241               -0.19246432               36.62353593
               7.27017650                5.19937161               61.85208178                1.00000000               -0.43027030               -0.63637743                2.11527759               -0.04873835                0.15936284                1.09356561
               8.26587380                4.79362394               61.52323047                1.00000000               -0.23212488               -0.24569745                0.78536030               -0.00173495                0.32927029                0.09175429
               9.26553400                4.38702981               61.19747038                0.73756453                0.15628701                0.16406320               -0.52885168                0.00950836                0.63604172               -0.57218406
              10.26899954                3.97965046               60.87464824                0.10489394                0.61900689                0.59140039               -1.79743133               -0.10774839                2.25759218               -0.91946996
              11.27791414                3.56929091               60.58148558                0.06340981                1.13757510               -0.75702640               -3.51736979               -1.16592572                3.10009633                2.79989402
              12.29175104                3.15580369               60.27546207                0.08665282                1.61529630               -2.12397237               -5.04126982               -1.60978640                2.61964186                6.48488374
              13.31022007                2.73532416               59.97329939                0.00828638                0.03241802               -7.36638459               -6.36763190              -23.04968755               22.82932358               13.58715669
              14.29239940                1.85870865               60.07145176                0.00010000               -3.88315038               -1.60875823               -5.85260009              -41.43134557               38.76145974                6.06613054
              15.23255706                0.96962554               60.04904885                0.00010000               -6.80470100                5.96108704               -7.32988130              -42.20306109               45.83845505                9.78809990
              16.15630538                0.00869119               60.26148171                0.79590101               -3.53653860                3.16283098               -2.01543252              -22.65771973               29.37667256               42.21421201
              17.16182629               -0.48933717               59.87196576                1.00000000                0.55209071                2.89760091               -3.44261936               -1.02209135               -1.10623692               37.32361036
               7.67340293                6.19353269               61.74627693                1.00000000               -0.34615857               -0.52465706                1.81264783               -0.05547488                0.27875579                0.91481210
               8.66994134                5.79159317               61.41271089                0.66924963               -0.14739763               -0.16250021                0.47973578                0.00838764                0.61857205               -0.33394685
               9.67045498                5.38919322               61.08575978                0.10469275                0.22324523                0.26572604               -0.85232088                0.02566322                1.31705860               -1.16093903
              10.67440625                4.98603524               60.76619155                0.00010000               -0.25875830               -0.28783095               -2.06035897               -2.19682072                6.70671422                1.74100862
              11.66527981                4.54431965               60.54763730                0.00010000                0.14344282               -2.52718007               -2.92662434               -4.20095616               11.71705649                5.50287547
              12.67727510                4.09865265               60.32572254                0.00010000                3.07941307               -6.19144729               -4.12218758               -7.59520340               15.48443165               11.37666318
              13.72686807                3.57099200               60.17580928                0.00010000                4.12366298              -13.07438300               -4.88455188              -19.72993803               24.09533109               17.70748713
              14.75974836                2.84896585               60.10406587                0.00010000               -0.45053591               -2.37296308               -5.78104617              -31.62130904               33.56579874                4.77639248
              15.71785735                2.01604875               60.12655391                0.00010000               -6.15359357                4.11508226               -6.04280041              -40.57001622               45.14148678               -0.17080856
              16.63667649                1.02977841               60.26711942                0.37767211               -2.27273488                7.05452920              -10.68447435              -21.36495701               28.17307564              -12.20526743
              17.67240266                0.53491884               59.87610554                1.00000000                3.57261637                2.41225291              -12.03230374                2.49381889                1.52545427              -13.00272905
               8.07294605                7.18887847               61.63775685                1.00000000               -0.25650319               -0.40352946                1.52040855               -0.03962309                0.10228195                0.76557270
               9.07038102                6.79037394               61.29612399                0.36276372               -0.06704310               -0.09766031                0.15256211                0.07480855                0.66493749               -0.65853103
              10.07160519                6.39234433               60.96561132                0.00010000               -0.02221623                0.26399460               -1.16484331               -0.80711867                5.07297627               -1.88098974
              11.06993670                5.97389384               60.71223053                0.00010000                0.48362090               -1.58264768               -0.88895399               -3.38168908               11.66884814                3.02459856
              12.08127761                5.51874731               60.51582249                0.00010000                2.16189603               -2.87924499               -2.96113243               -5.14028675               16.17820739                4.52498626
              13.11317462                5.03197475               60.34483919                0.00010000                4.20152531               -6.04966975               -4.02670075               -8.85316843               19.77547825                6.79432322
              14.16530811                4.47383650               60.21039198                0.00010000                5.08709280               -8.00894373               -5.07371332              -17.31724393               24.49266139                6.01103928
              15.21491647                3.81124939               60.12030583                0.00010000                3.75180258               -3.74357664               -6.12170746              -25.90401583               28.85372690                1.43017617
              16.24034417                3.05192719               60.06087507                0.00010000               -0.23901579                2.62344903               -7.43032240              -33.00454364               30.26241672               -8.09523323
              17.21013616                2.14978178               59.99826390                0.09126806               -1.94611709               14.76770201               -7.36292348              -19.76497124               16.59826317              -29.56561893
              18.20142182                1.55890789               59.64991587                0.75144990               -0.87143323               10.11114295              -11.75381775               -7.38747604                5.50655243              -22.65098197
               8.46961954                8.18546210               61.52829004                0.92330734               -0.16478818               -0.29285238                1.24701509               -0.03383734                0.04352039                0.80459637
               9.46797165                7.78963996               61.17923221                0.25765977                0.05865829               -0.04321688               -0.14531099                0.08913928                0.53744026               -0.66414776
              10.47079270                7.39447311               60.83998379                0.00010000                0.61989209                0.13658857               -1.56578037               -1.95285768                8.32129627               -2.35310825
              11.48036950                6.95438229               60.64616739                0.00010000                1.68002341               -1.60187896               -2.30425375               -4.43236511               16.62240926                1.00196357
              12.50439317                6.48673475               60.47150590                0.00010000                3.23765225               -2.94605006               -3.27388044               -6.79305791               19.11192161                2.32728250
              13.54512254                5.97765926               60.32396774                0.00010000                4.84276921               -4.66005950               -4.49501616              -11.08241967               22.07066898                3.00314811
              14.60124855                5.41081313               60.20017591                0.00010000                5.92274102               -5.21986543               -5.76047734              -17.29129055               24.61140055                2.04789784
              15.66357736                4.77409431               60.09284613                0.00010000                5.89927700               -3.03652118               -7.27914754              -23.65803100               25.67808997               -1.45746944
              16.71923409                4.06851773               59.97900531                0.00010000                3.54095042                2.19636946               -8.93431461              -27.47204494               23.35162305               -8.29785114
              17.73439637                3.32513246               59.80800348                0.00010000               -0.64165897               15.30733003              -10.54978005              -18.37714581               13.75008146              -20.69528693
              18.70640091                2.73714169               59.49140527                0.61219381               -2.79954551               18.11953465              -13.52854543               -9.48347301                6.38307186              -19.82080179
               8.86391359                9.18302142               61.41980597                0.88693661               -0.07607940               -0.20772616                0.97603495               -0.04225330                0.01652167                0.91307074
               9.86315280                8.78950960               61.06301852                0.22590120                0.19460590                0.03391579               -0.44809523                0.00080322                0.33956899               -0.66024468
              10.86780571                8.39507610               60.71268171                0.00010000                1.29374815                0.05959243               -2.00833206               -2.81849686               10.18905727               -2.69332670
              11.88902776                7.94185626               60.55231138                0.00010000                2.71668874               -1.08546691               -2.96896921               -6.05075811               20.48842694               -1.29096470
              12.92213948                7.45982630               60.40727704                0.00010000                3.92100423               -2.20139573               -4.03379492               -8.55750263               22.32281259                0.12781708
              13.96744784                6.93877356               60.28115679                0.00010000                5.04538837               -3.07208465               -5.25547756              -12.58927263               24.25587454                0.76045019
              15.02304725                6.36943919               60.17012811                0.00010000                5.83017039               -3.09948757               -6.74580933              -17.75871437               25.53322238                0.30675830
              16.08405125                5.75051896               60.06165153                0.00010000                5.84089380               -1.38343995               -8.73963718              -22.56543763               25.14217466               -1.59050284
              17.13986513                5.09585458               59.92960421                0.00010000                4.49590142                3.31197487              -11.52412536              -23.87420009               21.38238992               -5.03919504
              18.17396928                4.45592838               59.73028916                0.00010000                2.39343803               11.43580714              -14.85193223              -16.04783550               12.22940077               -9.31805978
              19.18773389                3.92129858               59.41462720                0.56509624                1.37646073               16.24712069              -17.24420925               -6.96475389                5.96747748              -10.86660506
               9.25579812               10.18130758               61.31184233                0.87080270                0.01349207               -0.13874596                0.70255810               -0.05014769                0.00470872                0.98191203
              10.25593304                9.79031828               60.94683898                0.22979379                0.31389931                0.13834921               -0.76292669               -0.14363557                0.10373176               -0.72093550
              11.26207610                9.39566496               60.58385577                0.00010000                1.93355483                0.16037038               -2.55012621               -3.63337308               11.42515161               -3.23123733
              12.29460413                8.93267295               60.44518796                0.00010000                3.71248591               -0.62885100               -3.77786638               -7.06788761               23.60199290               -2.85139639
              13.33632582                8.44270684               60.32636465                0.00010000                4.45600327               -1.18823184               -5.00495390               -9.16359856               25.51575614               -1.52671620
              14.38372420                7.91621757               60.22563593                0.00010000                4.90015191               -1.44795269               -6.23933417              -12.74059246               27.06459343               -0.47086400
              15.43432886                7.34882338               60.13740213                0.00010000                5.10645121               -1.02015842               -7.92731942              -17.17880650               27.84059617               -0.12475533
              16.48585322                6.74642551               60.04881463                0.00010000                5.10059103                0.53089289              -10.38392256              -20.49340594               27.10363264                0.17082749
              17.53634068                6.13475723               59.93730328                0.00010000                5.10712164                3.91733373              -14.72144475              -19.99675828               23.30992045                0.28589294
              18.58799566                5.55384860               59.75565067                0.00010000                5.00123753               10.04107535              -20.54997929              -12.98802087               13.70296555                1.51191647
              19.63636543                5.06208411               59.44078861                0.55377745                4.83697738               14.38837513              -24.51354921               -5.13466501                7.19728976                0.05626716
               9.64488924               11.18024651               61.20413237                0.87264476                0.10334601               -0.08075736                0.42893204               -0.06045502               -0.01296358                1.02755019
              10.64592270               10.79227658               60.83015718                0.28111726                0.39471645                0.26898104               -1.09865268               -0.27185142               -0.35082407               -0.82313065
              11.65278357               10.39828351               60.44952019                0.00010000                2.73527163                0.53663328               -3.30267503               -4.28759597               12.02296083               -3.73326905
              12.70062813                9.92927924               60.32500756                0.00010000                5.12696639                0.06304570               -5.43839508               -7.23699954               26.30567943               -4.35782385
              13.75532290                9.43606167               60.23395790                0.00010000                5.29456582               -0.26950693               -6.53001013               -7.99839254               29.04131082               -2.31004972
              14.80651945                8.90981450               60.16376101                0.00010000                4.69701370                0.01559081               -7.29664640              -10.80117842               30.64878919               -0.88864607
              15.84926317                8.34903602               60.10834425                0.00010000                4.08649154                0.99555655               -9.08084316              -14.58243287               32.03703192               -0.06522161
              16.88824928                7.76113682               60.06928803                0.00010000                4.16218523                2.77288847              -12.80598806              -17.79109372               32.12932614                2.07474443
              17.93250688                7.17420125               60.01610139                0.00010000                4.93163512                4.74940484              -16.74752234              -15.72884974               29.52750877               10.60778506
              18.98688198                6.65674988               59.91429104                0.00010000                6.80313446               10.38570217              -29.24062640               -8.49926268               20.21017754               16.03938901
              20.06856957                6.20906608               59.63193026                0.55606147                8.16875822               12.70416850              -33.92727032               -4.83414234               13.59148485               12.60674048
              10.03052886               12.17969243               61.09644815                0.82970129                0.19301448               -0.03570682                0.17253504               -0.05659594               -0.01329760                0.96064988
              11.03245900               11.79569790               60.71285142                0.37175799                0.43963347                0.41649581               -1.46712194               -0.23041998               -0.79376974               -0.82142386
              12.03932153               11.40639763               60.31384302                0.00010000                3.98134934                0.99155147               -4.02359096               -4.50659905               12.43288597               -2.66763153
              13.11208599               10.93393387               60.19970811                0.00010000                7.82505910                0.05541811              -10.17166455               -5.49607676               29.18912379               -3.60394036
              14.19582271               10.43731670               60.13583675                0.00010000                7.13201429                0.26427278               -8.20595370               -4.88871592               33.26626911               -1.61487125
              15.25472627                9.91652938               60.10042406                0.00010000                4.77675875                0.98716749               -8.17345909               -6.39606668               34.82310879               -0.63685612
              16.29135788                9.36873451               60.08037933                0.00010000                2.50699237                2.60179328              -10.14319005               -8.77661803               37.05856555               -0.05230312
              17.30486612                8.80188328               60.09977298                0.00010000                1.73963702                5.23442225              -14.17809753              -11.56822246               44.95982505                1.85551635
              18.32615062                8.22974533               60.24731399                0.02610140                3.91397252                7.61149669              -28.22010908               -8.81367325               45.44697123               14.40805143
              19.38314557                7.76156264               60.27271371                0.17160758                5.44497812                7.30804141              -22.65060633               -3.23356861               23.45229684               13.85749320
              20.43505019                7.31616748               59.95333694                0.61534499                5.19046139                7.56455577              -23.48895417               -4.50472435               11.18004295               10.15653094
              10.41174639               13.17953237               60.98675349                0.91588313                0.28627142               -0.01600636               -0.08193026                0.22916670                0.43101819                0.88194175
              11.41460911               12.80060650               60.59713799                0.76434736                0.63346144                0.49086033               -1.79272473                0.14411907                0.20638779               -0.78180675
              12.42441562               12.41811454               60.20320780                0.51033621                7.25892123                1.17169137               -4.03867011               -5.00153543               13.73728293               -1.59532567
              13.55978753               11.93038760               60.08627260                0.33847420               12.52687217               -0.35462623              -13.33218818               -4.06821677               31.15982739               -0.46505571
              14.67495306               11.44134712               60.04761828                0.33195014                9.36963865                0.40304264               -9.28364766               -2.12845197               37.30693745               -0.80693421
              15.74718030               10.92955785               60.03953199                0.33689022                5.67119230                1.30284715               -9.03054768               -2.76835875               39.13987755               -0.13025386
              16.78837691               10.40107189               60.04737129                0.35312825                2.43468557                3.23373801              -10.93504882               -3.48472664               41.81815280                0.36394700
              17.79587401                9.86582527               60.10462782                0.38168652                0.40885720                6.39419841              -15.47537484               -4.63124590               53.62749935                1.60149217
              18.79655405                9.32643119               60.37392182                0.56873532                1.99572225                9.66858591              -30.24386720               -6.10538475               50.51368664               13.67209939
              19.83578846                8.80291071               60.35519577                0.65723819                3.63556755                4.13480711              -16.30858383               -3.03941062               21.21083589                6.08888979
              20.86926540                8.36035720               60.01752680                0.82670984                3.34769450                4.41897201              -18.04595688               -0.83382953                9.28197886                2.90185693
               6.77747512                3.33084209               63.09165699                1.00000000               -0.59240714               -0.74869290                2.59666187               -0.24359135               -0.56538926                0.65245279
               7.77155105                2.91151084               62.75354311                1.00000000               -0.41343153               -0.35259486                1.32169800               -0.18922519               -0.70547989                0.09921192
               8.76920649                2.49149175               62.41210384                1.00000000               -0.05834346                0.03057971                0.05859677               -0.18820022               -0.67437383               -0.10811024
               9.77038418                2.07001541               62.07436752                0.64986484                0.19694100                0.45770925               -1.23373802               -0.31774308               -0.08145119               -0.57813750
              10.77314531                1.64484426               61.74483466                0.60902135                0.50551464                0.96101616               -2.70753506               -0.33563006                0.61959658               -0.14518507
              11.78049447                1.21683636               61.42113518                0.49088634                0.88861388                1.39313541               -4.17695595               -0.42121146                1.01660111               -0.50010648
              12.79091758                0.78381204               61.10028340                0.05223465              -16.28409029                1.82700411               -5.47103612              -26.30101538               12.11537945               -0.87097308
              13.45481266               -0.17015879               61.00069479                0.00010000              -22.02078415                7.96451076               -2.46198271              -25.29580036               16.89059403                2.48579935
              14.35050190               -1.10549312               60.77253254                0.00010000                2.27941110                3.80879468               -5.48538470              -20.83990969                3.30873088               15.52218092
              15.50040089               -2.02256278               60.34643996                1.00000000                8.92210988                3.19375916               -9.02261081              -21.08547678               -3.27712417                1.08905215
              16.52894410               -2.53809267               59.97917435                1.00000000                2.85432133                3.86109355              -11.10809351                0.33738740               -1.57627178               -0.18790345
               7.19437045                4.32335516               62.98006040                1.00000000               -0.50364874               -0.70233591                2.31816625               -0.04400068               -0.03022714                0.90573742
               8.18933396                3.90798489               62.64181042                1.00000000               -0.31491234               -0.31479362                1.04135725                0.00436994               -0.00233383                0.15543863
               9.18807220                3.49179755               62.30367422                1.00000000                0.05982660                0.06765938               -0.21963470                0.01516813                0.05948406               -0.26364547
              10.19053049                3.07459250               61.96651172                0.61285686                0.41531619                0.48951768               -1.50956169               -0.07332365                0.95072484               -0.68699555
              11.19637853                2.65445442               61.64639205                0.65030064                0.81339827                0.94604624               -3.04240870               -0.09339357                1.69130235               -0.24268735
              12.20679846                2.23076772               61.32433003                0.56593646                1.25132404                1.39410075               -4.53932392               -0.21512334                1.71758750               -0.63635932
              13.22140501                1.80208209               61.00556893                0.06866898               -3.01456096                1.69441159               -5.87817184              -23.26166987               15.89649925               -0.95134448
              14.14650724                0.90948632               60.96855275                0.00010000               -7.65501052                3.26971756               -5.43278787              -33.73550843               26.75457160                5.92733662
              15.06830480               -0.06740517               60.85548169                0.00010000               -7.03306719                5.01008815               -6.81120638              -32.16597313                2.63192830               16.34159201
              16.00584590               -0.99062519               60.27923180                1.00000000               -1.02284634                4.19965362              -13.39119022              -19.27628251               -8.97799400               51.18927960
              17.04784787               -1.49948174               59.91174420                1.00000000                4.20019736                4.18903283              -15.47064238                0.18702117               -0.63093841               48.19002726
               7.60733563                5.31679537               62.87284977                1.00000000               -0.41395794               -0.60144052                2.03108761               -0.05175400                0.16806228                1.08287784
               8.60319606                4.90521497               62.53091961                1.00000000               -0.22166948               -0.23686816                0.75181302               -0.00768117                0.34759095                0.07809522
               9.60290225                4.49284494               62.19223560                0.69179887                0.15323904                0.15717320               -0.51286158                0.00665380                0.68554030               -0.59873552
              10.60626084                4.07980576               61.85698915                0.08898280                0.60999850                0.57543197               -1.72499031               -0.12050006                2.10953390               -0.87270075
              11.61510222                3.66376518               61.54704476                0.05380234                1.11517485               -1.00589240               -3.35648221               -1.07432258                2.80956035                3.21412209
              12.62856433                3.24471838               61.22610727                0.07262920                1.59316864               -2.51171926               -4.81159078               -1.36872324                2.49843837                7.07413841
              13.64696559                2.81770028               60.91082680                0.00010000                1.05127086               -8.35947417               -6.10450250              -24.27187542               23.53122855               14.46788269
              14.64958975                1.89523556               61.01083859                0.00010000               -1.98358235               -1.26333550               -5.95764081              -42.12229431               39.66416965                9.18593291
              15.60729394                0.99470865               60.97659062                0.00010000               -5.13189728                4.95732995               -6.78010921              -40.29408381               49.90407542               15.48373180
              16.54695180                0.06143030               61.24430527                0.67612637               -2.84481556                3.50092808               -1.67143478              -20.33111897               32.96571843               52.99126079
              17.55039763               -0.45431202               60.84763945                1.00000000                0.34458249                3.13341759               -1.98754943               -0.01025851               -0.35557735               50.32126190
               8.01649617                6.31132635               62.76408542                1.00000000               -0.33654001               -0.48700351                1.74153060               -0.05340202                0.28905285                0.91511807
               9.01313077                5.90324753               62.41740697                0.63839870               -0.14408400               -0.16278321                0.45961379                0.01765506                0.62664870               -0.35986815
              10.01361449                5.49494101               62.07727561                0.00892419                0.20347416                0.24721731               -0.83764023                0.05271674                1.38967701               -1.19498622
              11.01720025                5.08610114               61.74594365                0.00010000               -0.18175173               -0.70957889               -1.97976826               -2.41552599                6.99828971                2.44442538
              12.00997946                4.63433657               61.51884699                0.00010000                0.41443223               -2.93051089               -2.86715006               -4.30807179               12.09252626                6.20384333
              13.02548890                4.18053333               61.28508720                0.00010000                3.77354312               -6.97457053               -4.02975126               -7.84972640               15.90008906               12.43270341
              14.08545032                3.63489260               61.12711798                0.00010000                5.07820432              -14.44752518               -4.84269668              -20.69408531               24.46448058               19.45852086
              15.12705298                2.88421961               61.04611263                0.00010000                0.53890341               -2.60586705               -5.70437090              -33.41381053               34.19762183                7.33599058
              16.09622839                2.03174143               61.06579857                0.00010000               -3.94044010                3.41244888               -5.85722612              -40.12266992               44.17708363                4.85070750
              17.04824418                1.07939338               61.15997154                0.39838633               -0.85505295                3.35912911               -9.58980613              -21.25991370               25.81249233               -7.76518095
              18.07912733                0.56318661               60.76168988                1.00000000                3.08831449                1.67185201               -9.88882358                1.12493274                0.42126059               -8.34989108
               8.42242523                7.30705530               62.65271580                0.99175945               -0.24907382               -0.36334285                1.46257421               -0.03056441                0.09383394                0.78825326
               9.41993449                6.90195931               62.29763101                0.34404531               -0.06611289               -0.11356115                0.15114334                0.10343184                0.67903796               -0.68094851
              10.42110297                6.49778929               61.95409110                0.00010000               -0.06898660                0.18338488               -1.13234826               -1.12156653                5.87072750               -1.96999695
              11.41855476                6.06561418               61.70295801                0.00010000                0.67028054               -1.94280617               -1.26599277               -3.57936799               12.30388724                3.42809109
              12.43450858                5.60515496               61.48620946                0.00010000                2.62295052               -3.29941832               -2.96106611               -5.31087825               16.10884570                4.98020097
              13.47101377                5.10522697               61.30479088                0.00010000                4.74445119               -6.75697437               -4.02191479               -9.64147315               20.09717909                7.55507130
              14.52939761                4.52874977               61.15984322                0.00010000                5.67254708               -8.75353035               -5.03786157              -18.87051308               24.70822925                7.12367305
              15.58446471                3.84311822               61.05960666                0.00010000                4.01345826               -4.17071454               -5.92456901              -27.76966954               28.92714602                3.38080779
              16.60966677                3.06295762               60.98941128                0.00010000                0.29218174                1.88525222               -6.69862989              -35.52741671               30.44670935               -5.43850165
              17.59030835                2.12861288               60.91807906                0.13505959               -0.21784807                9.47082354               -7.30208666              -20.44407966               16.18667090              -18.99731730
              18.60530981                1.57912502               60.53714874                0.80195497                1.50014641                5.71795530               -9.28679783               -3.73727805                1.74973617              -13.51516411
               8.82607687                8.30405949               62.54058072                0.91197579               -0.16114489               -0.25307985                1.20039342               -0.02887476                0.03714490                0.84511939
               9.82446542                7.90097631               62.17784411                0.25167462                0.07257070               -0.07149494               -0.12709957                0.09340345                0.50318996               -0.67473557
              10.82752828                7.49860871               61.82435865                0.00010000                0.68908981               -0.02374832               -1.54758106               -2.13494673                8.59435373               -2.54583015
              11.83824722                7.04724501               61.62295531                0.00010000                1.83104097               -1.65598842               -2.33612683               -4.74192864               17.16882664                0.62499997
              12.86414910                6.56834820               61.43874482                0.00010000                3.54087031               -3.31842465               -3.33270088               -7.38321228               19.46792584                2.71657225
              13.90906462                6.04539385               61.27900105                0.00010000                5.29998510               -5.13207185               -4.53774444              -12.13751707               22.24475282                3.67199340
              14.97014881                5.45982200               61.14270425                0.00010000                6.41935594               -5.76982498               -5.73285816              -18.86491765               24.58523330                3.08733962
              16.03745174                4.80080532               61.02092506                0.00010000                6.50182940               -3.70624226               -7.00154318              -25.53783654               25.33511791               -0.06612665
              17.10018539                4.06944647               60.89148197                0.00010000                4.28717246                0.91705696               -8.24130882              -30.71518598               22.77419719               -6.12428746
              18.12319519                3.26880985               60.70969590                0.00010000                0.15860419               13.71083142               -8.49754425              -21.04311302               12.46182477              -19.21980659
              19.10335748                2.67754572               60.35934295                0.63694385               -1.98377141               13.77871055              -11.33572997              -10.96889675                5.50677456              -15.53236766
               9.22801411                9.30199370               62.42942989                0.88099112               -0.07607614               -0.17183994                0.93691954               -0.03912191                0.01294338                0.95994789
              10.22725334                8.90052941               62.05867501                0.23117064                0.20606137               -0.00147478               -0.41095948               -0.04095193                0.24275125               -0.67763777
              11.23213533                8.49731432               61.69253204                0.00010000                1.33616766               -0.12583236               -1.98134650               -3.06568999               10.28041864               -2.95195928
              12.25397670                8.03249441               61.52247730                0.00010000                2.82800873               -1.25298400               -2.93860824               -6.49182759               20.88340949               -1.26527767
              13.28869551                7.53878647               61.36684284                0.00010000                4.14064699               -2.41333584               -4.11461393               -9.22569166               22.63760853                0.39278052
              14.33678964                7.00258553               61.22837608                0.00010000                5.39961386               -3.35764352               -5.35892627              -13.82126515               24.42909395                1.45060376
              15.39668778                6.41335327               61.10242122                0.00010000                6.36469335               -3.56322353               -6.79512901              -19.58861380               25.42174405                1.33087440
              16.46408350                5.76899337               60.97468136                0.00010000                6.53353691               -2.19725905               -8.52842447              -25.01886337               24.45553085               -0.35099396
              17.52735852                5.08129876               60.81736637                0.00010000                4.86316694                1.88487666              -10.54313907              -26.98314234               20.17625232               -4.45036440
              18.56134684                4.40282951               60.58857244                0.00010000                2.05508054               11.13042986              -13.16242614              -18.47125886               10.99680843              -10.32379128
              19.56846013                3.85469923               60.24953074                0.57353649                0.71132910               14.63296333              -15.52472758               -8.37094246                4.88548864              -11.59045160
               9.62822302               10.30062269               62.31875738                0.86732995                0.01027425               -0.10291951                0.66718165               -0.04730364                0.00245012                1.03416357
              10.62832577                9.90094681               61.93941604                0.24902907                0.30132273                0.09219952               -0.70469276               -0.22002635               -0.09822846               -0.75460590
              11.63424948                9.49609206               61.55816174                0.00010000                1.93063749               -0.00618531               -2.45802422               -3.92304364               11.27733639               -3.55801939
              12.66693852                9.02218533               61.40770985                0.00010000                3.76473368               -1.11597098               -4.01982205               -7.63252366               23.72097432               -3.29975229
              13.70954415                8.52008149               61.27583614                0.00010000                4.55669999               -1.14864496               -5.18707934               -9.94502410               25.75880966               -1.45781432
              14.75807252                7.97824098               61.16251153                0.00010000                5.12122674               -1.54226664               -6.46136522              -14.12291604               27.31112671                0.28589837
              15.81196869                7.38855752               61.05723145                0.00010000                5.55282343               -1.33338372               -8.12086937              -19.34600748               27.78927871                0.93572285
              16.86912899                6.75686014               60.94315904                0.00010000                5.73588640                0.02429531              -10.55910438              -23.59095498               26.13037221                0.84885895
              17.92668642                6.10714401               60.78977216                0.00010000                5.56202800                2.98409814              -14.19400918              -23.43916662               20.82965288                0.22033205
              18.98036955                5.49141844               60.55779681                0.00010000                5.27563798                7.84067732              -18.57599596              -15.01561783               11.24526453               -2.38061925
              20.03219917                4.97020499               60.21048632                0.55799763                5.18296297               10.51536264              -21.68010169               -6.04999955                5.76339128               -5.73450027
              10.02641980               11.29993531               62.20831546                0.86967504                0.09636520               -0.04098601                0.39230139               -0.05792695               -0.02007508                1.09832069
              11.02738345               10.90237340               61.81944437                0.32831847                0.30080716                0.21146502               -1.01461749               -0.35523172               -0.71991584               -0.89510732
              12.03243594               10.49719061               61.41678306                0.00010000                2.49766775                0.36841460               -2.88440986               -4.95435728               11.16810406               -3.94322972
              13.07733680               10.01017499               61.26983245                0.00010000                5.06517231               -0.10071718               -5.46561782               -7.42256289               26.09459431               -7.14745236
              14.13373938                9.51581357               61.16586641                0.00010000                5.42592373                0.13766657               -7.29479203               -8.15090264               29.44434525               -2.08545717
              15.18585528                8.97174020               61.08965251                0.00010000                4.87045455                0.04858323               -7.57782630              -12.36579673               31.20467344                0.01454524
              16.23114848                8.38668560               61.01543773                0.00010000                4.39113225                0.89166672               -9.58920376              -16.72432869               31.81916612                0.94074329
              17.27367792                7.76947928               60.93598185                0.00010000                4.64342030                2.76099469              -13.43664679              -20.54828207               31.31105866                2.62141113
              18.32401688                7.14098073               60.83469979                0.00010000                6.21477931                5.22776985              -19.09924342              -19.84595034               25.59924815                5.63789696
              19.39797351                6.55964305               60.62626517                0.00010000                8.29350895                8.32811223              -27.46466994              -12.48300008               14.29336495               11.48720858
              20.48988706                6.06500649               60.27672799                0.55307586                9.19135524               10.90145260              -32.97963131               -4.73904808                7.94831069                7.50613414
              10.42218832               12.29980297               62.09809051                0.82415924                0.17775162                0.00239786                0.13190263               -0.04774834               -0.05077091                1.05918870
              11.42396583               11.90517611               61.69844774                0.47116864                0.25862108                0.35468524               -1.35821785               -0.31308820               -1.17528748               -0.91260099
              12.42736074               11.50346036               61.27679361                0.07790834                3.79492352                0.72979773               -2.93895168               -4.56775869                8.28545736               -2.59062683
              13.49986430               11.02017099               61.07153517                0.00010000                7.88000785                2.28265700              -17.02186438               -5.24212700               25.25456952               -6.31098589
              14.58496089               10.52283482               61.05111218                0.00010000                7.00101251                0.52887498               -8.10110902               -4.97782259               35.41197130               -1.14264902
              15.63988455                9.97921264               61.01782708                0.00010000                4.73910687                1.11464963               -8.73389541               -7.70725798               35.50474925                0.06616504
              16.67974303                9.40639086               60.97541071                0.00010000                3.19918319                2.73968016              -10.96430481              -10.22328039               37.04015913                0.66415557
              17.70386822                8.81208003               60.94773777                0.00010000                2.99303023                5.37406625              -16.22273896              -13.01583669               39.71564748                2.49852182
              18.73960364                8.21169940               60.92455599                0.00010000                5.14077840                9.91252466              -29.97264796              -12.11358520               42.52290569                6.48282284
              19.80668378                7.65798069               60.93034949                0.09617355                9.35438551               11.72047177              -41.56994555               -7.18561493               29.26115828               15.46693082
              20.92669135                7.18823404               60.60594977                0.62716831               12.00075624               12.67720816              -45.74072198               -2.88361356               18.33763868               10.46886741
              10.81471855               13.29998327               61.98588367                0.91156155                0.27457514                0.01802967               -0.13824538                0.20140666                0.47280558                1.00566686
              11.81746430               12.90946710               61.57960248                0.83471962                0.56836683                0.42909899               -1.62647316               -0.05998817                0.14196976               -0.89696404
              12.82608589               12.51178657               61.16680662                0.59190099                6.78277498                0.83262126               -3.04015084               -2.80943352                7.71429156               -1.46165048
              13.95311980               12.05582813               60.91443938                0.34326244               12.45276983                3.56571432              -18.02025683               -3.94422508               24.82546922               -3.50764027
              15.07514128               11.52639107               60.95366456                0.33190560                9.75171370                0.35562525               -9.48701081               -4.07170823               40.39210378               -0.93311355
              16.14815408               10.99403319               60.94742545                0.33672527                5.93370977                1.48205515               -9.73544675               -3.41864111               39.63069410               -0.08336298
              17.19381548               10.44147920               60.93197226                0.35228832                2.99492840                3.50883432              -12.20610436               -4.44638460               42.19018443                0.32408463
              18.20805264                9.87696061               60.94345820                0.37945277                2.10145195                6.48805766              -17.89250829               -4.69395645               46.70248054                1.54971601
              19.23584452                9.33923122               60.97728737                0.49486916                3.48369665               12.75318156              -35.67254392               -4.52131775               53.32759461                4.69577866
              20.27772658                8.79405249               61.09309238                0.61537160                6.79317872               13.60717992              -41.48089009               -3.92974933               36.82203324               14.65128212
              21.37170809                8.31855065               60.74865006                0.84820205                9.39815160               13.03166116              -44.32829414               -3.04850934               21.44887924                8.31755330
               7.11642503                3.45030559               64.11705772                1.00000000               -0.56494438               -0.71233833                2.47636672               -0.23342144               -0.54512727                0.64169233
               8.11077558                3.02561865               63.76648674                1.00000000               -0.39387748               -0.33792558                1.26526243               -0.18225497               -0.67686101                0.09498696
               9.10854748                2.60026417               63.41270921                1.00000000               -0.05493674                0.02431145                0.06640440               -0.18000269               -0.65506999               -0.10180127
              10.10967685                2.17355413               63.06235374                0.63642008                0.19170737                0.42915615               -1.15955370               -0.30115227               -0.16910051               -0.56119788
              11.11238163                1.74335689               62.71843792                0.57830010                0.47870863                0.90394387               -2.55309894               -0.32836825                0.43489803               -0.17351620
              12.11925102                1.31023142               62.38035549                0.43963330                0.79298997                1.32014022               -3.95246075               -0.46513886                0.90589314               -0.53925739
              13.12824143                0.87119823               62.04692271                0.01941600              -15.30230302                1.75511830               -5.17545817              -25.96469184               13.77174343               -0.98568183
              13.81320496               -0.08152764               61.96925373                0.00010000              -20.09978016                7.10715842               -3.75550648              -24.66892631               20.43956083                4.41682334
              14.72624582               -1.01148103               61.72221337                0.00010000                3.14934431                3.10818021               -4.81199800              -19.47749343                3.51837448               17.68270871
              15.87619185               -1.92630713               61.27589925                1.00000000                8.36838721                1.87492138               -5.60094722              -20.06941098               -3.21980418                0.69837122
              16.89361357               -2.45057712               60.89208242                1.00000000                1.74217186                2.28793821               -6.92365147                0.12606450               -1.03948819                0.03624976
               7.53877776                4.44318221               64.00272897                1.00000000               -0.48040167               -0.66507239                2.20906984               -0.04562984               -0.01824175                0.89525609
               8.53397375                4.02223939               63.65200253                1.00000000               -0.29990272               -0.30146748                0.99607021               -0.00053600                0.01948112                0.14756224
               9.53277971                3.60050729               63.30154758                1.00000000                0.05726117                0.05947700               -0.20149347                0.01170474                0.07385168               -0.26767150
              10.53511897                3.17784570               62.95178838                0.60321145                0.39897970                0.46051934               -1.42544567               -0.07033762                0.82905448               -0.64622895
              11.54075930                2.75239633               62.61671979                0.62614615                0.77799980                0.88807634               -2.87458469               -0.09036383                1.45539216               -0.26741749
              12.55067896                2.32343282               62.28001431                0.51908781                1.18573674                1.31489368               -4.29816517               -0.24800851                1.55473434               -0.64185690
              13.56447404                1.88874941               61.94807930                0.04102858               -2.14118177                1.59672650               -5.59228905              -23.30084916               16.58243514               -0.96322964
              14.50785533                0.98954395               61.91376092                0.00010000               -5.53067003                2.31975347               -5.44044734              -33.12173199               28.96413596                8.21332485
              15.45386064                0.01960077               61.79261958                0.00010000               -5.64047730                4.02321652               -5.78101338              -31.30878995                2.35629420               19.80753645
              16.39504578               -0.90755792               61.17825374                1.00000000               -1.73582177                5.70419041               -7.86561926              -18.94597187              -10.61219494               56.98028945
              17.41914420               -1.42769774               60.79429408                1.00000000                2.40984171                5.88597536               -9.18128541                0.70765822               -0.55496080               55.51178683
               7.95739807                5.43700415               63.89270353                1.00000000               -0.39582850               -0.56065931                1.93310927               -0.05332888                0.17502600                1.07196217
               8.95343979                5.01958930               63.53826673                1.00000000               -0.21114025               -0.22774956                0.71740868               -0.01200229                0.36313709                0.06582640
               9.95317527                4.60145371               63.18721315                0.63805190                0.14706345                0.14653553               -0.48596243                0.00536802                0.73360202               -0.63133910
              10.95638106                4.18276452               62.84014843                0.07200467                0.59059785                0.55545973               -1.63440858               -0.13268019                1.97912579               -0.82800037
              11.96498722                3.76111842               62.51435594                0.04416689                1.07783567               -1.15822592               -3.16651822               -0.95038724                2.54462657                3.55346380
              12.97793777                3.33652929               62.17923025                0.05901412                1.55630470               -2.74048524               -4.54415912               -1.08293679                2.37393054                7.57944434
              13.99611332                2.90313276               61.85120934                0.00010000                2.09905971               -8.88017073               -5.79316843              -24.05018258               24.15000378               15.24434564
              15.01991896                1.96486743               61.95229894                0.00010000                0.05292853               -2.13131789               -5.73082362              -41.84922871               40.58687560               11.95531981
              15.99717189                1.06898330               61.91344667                0.00010000               -3.76740215                4.03207374               -5.85464935              -37.17056352               53.11298388               19.94559462
              16.94457092                0.18777667               62.22805301                0.64099155               -2.45627586                5.41294609               -1.68748914              -16.99258345               35.68938228               59.86903377
              17.94804637               -0.33285762               61.83221477                1.00000000                0.34754512                5.30547354               -1.48305584                0.84892007                0.19784313               59.06235310
               8.37254088                6.43196902               63.78110754                1.00000000               -0.32567513               -0.44279551                1.65582843               -0.04875091                0.29732534                0.91338048
               9.36928413                6.01768440               63.42190316                0.60823043               -0.14145203               -0.16357359                0.44032123                0.03078334                0.62454594               -0.37898326
              10.36971184                5.60343800               63.06900697                0.00223209                0.17582647                0.22038201               -0.80781000                0.08939834                1.45772879               -1.23074776
              11.37280066                5.18895489               62.72659618                0.00010000               -0.08625286               -0.86602613               -1.87799174               -2.33455848                7.22921287                2.75929932
              12.36798679                4.72923181               62.49029430                0.00010000                0.71026131               -3.13324640               -2.87094644               -4.18486725               12.31394255                6.85629672
              13.38700589                4.26862312               62.24512752                0.00010000                4.35727307               -7.36834882               -4.00087769               -7.72695716               16.13757261               13.38255809
              14.45513225                3.71114600               62.07895534                0.00010000                5.90071640              -15.12045291               -4.83207871              -20.65809660               24.62349149               21.13840993
              15.50502022                2.94691759               61.98997845                0.00010000                1.62039375               -3.04071573               -5.52668313              -33.34656928               34.64969061               10.02080442
              16.48754012                2.10024224               62.00940938                0.00010000               -2.39925940                2.42452306               -5.34266415              -37.62912628               43.54061959                9.58173469
              17.45703503                1.20070100               62.07532330                0.40694961               -0.50744703                1.61671961               -6.78377942              -19.01346574               23.95505332               -4.25461253
              18.47739118                0.67841173               61.67832907                1.00000000                2.03561538                1.19045746               -6.49438203                0.28261430               -0.24476471               -4.05669446
               8.78499231                7.42814824               63.66700834                0.97383708               -0.24058246               -0.31593110                1.38838870               -0.01830301                0.08629247                0.80420747
               9.78258648                7.01631782               63.29914686                0.33110512               -0.06497812               -0.12915767                0.15518415                0.13432562                0.67943037               -0.69127601
              10.78369274                6.60586135               62.94296435                0.00010000                0.06547972                0.08387836               -1.08781773               -1.15085441                6.26719323               -2.06915558
              11.78389607                6.16544400               62.68691067                0.00010000                0.89644558               -2.07959441               -1.78450788               -3.54243372               12.75315738                3.93160997
              12.80162165                5.69845349               62.45660117                0.00010000                2.87941828               -3.43994954               -3.01935566               -5.32812635               16.12087492                5.41984187
              13.84148444                5.18916232               62.26440089                0.00010000                5.15176308               -7.05545962               -4.10589704               -9.93387523               20.19107338                8.34028395
              14.90465692                4.60072370               62.10963475                0.00010000                6.12034452               -9.05820368               -5.04641145              -19.46061180               24.79453733                8.40453149
              15.96389133                3.90405312               62.00181445                0.00010000                4.30745171               -4.46102550               -5.64902122              -28.33840791               29.10658451                5.63045991
              16.99080595                3.11747376               61.92690248                0.00010000                1.11203947                0.89173238               -5.75175283              -34.27674879               31.02315815               -2.01902292
              17.98613212                2.22011107               61.85222217                0.18684503                0.37356255                3.47709750               -5.10118026              -18.38926877               16.36485254               -9.41336602
              18.99827720                1.69095153               61.46417991                0.85480886                1.21450806                1.78503055               -5.41411020               -0.92339717                0.24934619               -6.80864769
               9.19583565                8.42565040               63.55229791                0.90172653               -0.15781185               -0.20522560                1.13367061               -0.02042098                0.03333256                0.87289446
              10.19425753                8.01510125               63.17669021                0.25418289                0.08664676               -0.09664519               -0.09876309                0.08921731                0.43395020               -0.66851581
              11.19756858                7.60511557               62.80903217                0.00010000                0.75511625               -0.18137653               -1.48787097               -2.09095937                8.75037521               -2.71435485
              12.20935985                7.14736300               62.59944485                0.00010000                2.00686804               -1.68239177               -2.37445216               -4.80968343               17.49773765                0.68534879
              13.23770594                6.66043282               62.40485189                0.00010000                3.83491601               -3.39314439               -3.49025469               -7.62389319               19.59010125                3.14541732
              14.28605817                6.12751392               62.23321285                0.00010000                5.66616351               -5.24435799               -4.67356116              -12.57419992               22.22463720                4.43171560
              15.35102921                5.52998192               62.08551875                0.00010000                6.77219135               -5.95971139               -5.74532203              -19.46484580               24.49223399                4.32800139
              16.42150200                4.85769708               61.95281527                0.00010000                6.74589924               -4.13940054               -6.59520575              -25.87898245               25.17007157                1.79840589
              17.48594720                4.11807689               61.81417913                0.00010000                4.71349393               -0.44583319               -6.99037262              -32.43804884               22.83780067               -3.42987774
              18.51577188                3.27024295               61.63805259                0.02233587                1.56475536                9.06202873               -5.35737432              -21.41777935               11.35096164              -13.45638726
              19.51724230                2.71411234               61.26469067                0.68276054                0.14704258                7.36973235               -6.84472989               -7.35056833                2.77063865               -8.83509354
               9.60568220                9.42404372               63.43854436                0.87632083               -0.07765354               -0.12725615                0.87251936               -0.03117262                0.01158818                0.98829385
              10.60490566                9.01438492               63.05479933                0.24909137                0.19647997               -0.03222224               -0.35509061               -0.07516618                0.10930656               -0.66971237
              11.60961180                8.60223382               62.67305478                0.00010000                1.37397443               -0.24310024               -1.82698385               -3.04141615               10.27475625               -3.03889984
              12.63238515                8.13179616               62.49353921                0.00010000                2.96905353               -1.40201238               -2.95869823               -6.48269237               20.98955120               -1.33268902
              13.66899287                7.63059060               62.32498477                0.00010000                4.40330934               -2.29529237               -4.27494907               -9.42633056               22.59663800                0.74393187
              14.72045134                7.08427516               62.17397826                0.00010000                5.80919888               -3.34274125               -5.58624432              -14.32839435               24.35129330                2.23053499
              15.78517685                6.48152947               62.03422553                0.00010000                6.88826872               -3.77302989               -6.86874014              -20.22861709               25.23407367                2.55723201
              16.85821671                5.82126511               61.89108304                0.00010000                7.21611264               -2.77974341               -8.15403187              -25.92772077               24.13245751                1.24598259
              17.92949910                5.10855709               61.71874142                0.00010000                5.17621855                0.18767835               -9.11247924              -28.37823478               19.41328362               -2.47240929
              18.96174108                4.40135164               61.46704064                0.00010000                1.70139780                9.91502622              -10.09126286              -19.68980026               10.69594709              -11.36970744
              19.96352706                3.83834618               61.10413264                0.60809477                0.17859710               10.30422530              -12.25550265               -9.84994919                5.04059642              -11.54314789
              10.01452980               10.42310528               63.32518596                0.86475349                0.00343054               -0.05819703                0.60152399               -0.03746240                0.00445539                1.06065068
              11.01456410               10.01445680               62.93274512                0.28777824                0.23996080                0.04789063               -0.61278789               -0.23502988               -0.28444644               -0.74530383
              12.01932902                9.60025356               62.53469528                0.00010000                1.83925612               -0.07233859               -2.06746253               -3.94941345               10.70775254               -3.39095445
              13.05134923                9.11932276               62.36479152                0.00010000                3.86856613               -0.46456409               -3.95689381               -7.23375398               23.42094573               -3.51896408
              14.09670034                8.61452697               62.22262306                0.00010000                4.86010936               -0.57570585               -5.68934460              -10.16333942               25.75774927               -1.57992618
              15.14855141                8.06065910               62.09640862                0.00010000                5.63832918               -1.47426488               -6.75576026              -14.97076924               27.25845331                1.11331656
              16.20946692                7.45452133               61.97498474                0.00010000                6.36842737               -1.59289201               -8.35879373              -20.22082883               27.53256969                2.06078807
              17.27591996                6.80210221               61.83763254                0.00010000                6.44145222               -0.61393949              -10.39618866              -24.78495910               25.47137144                1.92395920
              18.33829597                6.12183046               61.65342309                0.00010000                5.81334127                2.18091314              -12.74838148              -25.44246600               19.79432042               -0.34843714
              19.39218679                5.46854348               61.38413075                0.00010000                5.39791373                5.62948686              -16.00505049              -16.63268105               10.17600064               -5.09539526
              20.44625424                4.92019685               61.00718658                0.58712647                5.40674532                6.26895693              -18.71365986               -6.68050874                4.49040290               -8.77892668
              10.42222991               11.42287978               63.21197839                0.86735922                0.08268766                0.01013586                0.32116420               -0.04024591               -0.01927540                1.12818526
              11.42305678               11.01534273               62.80986483                0.40509971                0.17638336                0.14154860               -0.87129028               -0.32033397               -0.83292103               -0.89170382
              12.42575758               10.60078705               62.39183199                0.00618111                2.51899383                0.21539853               -1.97517206               -4.01118084               10.30701550               -3.31814270
              13.47343666               10.12250488               62.21569520                0.00010000                4.93160805                2.18922328               -9.22406974               -9.51004912               24.40988524              -13.26696085
              14.52438974                9.61907648               62.08806206                0.00010000                5.38024700                0.60692972               -7.23856634              -10.33225699               29.43059704               -1.56689602
              15.58104160                9.05478986               62.01220449                0.00010000                5.74637119               -0.02896776               -8.09353134              -13.87167722               31.61129316                0.71534777
              16.63931716                8.44967163               61.91656018                0.00010000                5.70833983                0.54808845              -10.14579155              -17.65100458               31.17361852                1.90423149
              17.69520840                7.80898632               61.80055509                0.00010000                5.74456764                2.11375805              -13.44471295              -21.16912235               29.39100912                2.60371311
              18.75420851                7.15217536               61.63411653                0.00010000                6.77563386                4.74918725              -18.92060925              -21.96719428               22.84624766                2.70440186
              19.83072108                6.51394138               61.36499764                0.00010000                8.62008126                6.77652900              -25.26684698              -14.68309305               11.62030427                1.26916352
              20.92661014                5.96372532               60.97233764                0.58413363                9.58890630                6.67129553              -29.31944670               -4.80419758                5.82638379               -4.15598638
              10.82879898               12.42330800               63.09908621                0.81758625                0.14511767                0.05898092                0.03420940               -0.02527375               -0.09444056                1.07839204
              11.83025016               12.01728777               62.68568706                0.60531196                0.15721348                0.25075093               -1.11839932               -0.26388494               -0.98449820               -0.87260113
              12.83194325               11.60456153               62.25506398                0.22439143                0.63043275                0.40342334               -1.59391684               -1.80367876               -0.19004350               -2.00890870
              13.84285881               11.16310722               61.85927082                0.00010000                6.29134854                2.59607490              -12.75793719               -9.09468298               23.44925788              -11.27904255
              14.95777022               10.62666557               61.97381457                0.00010000                9.88319549               -0.07482041               -8.76541632               -8.88040757               41.35039943               -0.66227089
              16.04052272               10.06007974               61.92574615                0.00010000                7.22400763                0.69519942               -9.50542839               -9.03687921               35.18640125                0.51537588
              17.10225037                9.46548309               61.86109324                0.00010000                5.47555337                2.23794295              -11.98854182              -10.94358401               35.82120364                1.35881736
              18.15003379                8.84437737               61.77531820                0.00010000                4.58733223                4.81962107              -17.05870843              -12.96343859               35.37401506                2.01591330
              19.19399702                8.21681420               61.64786103                0.00010000                6.84705877                8.13543284              -26.15829773              -14.05200302               31.17446652                2.90150996
              20.28697496                7.60407406               61.44131480                0.03930874               12.83026941               12.82546041              -46.52221333               -9.65230465               19.09289145                4.12193294
              21.45060241                7.05362276               61.03852250                0.62524569               16.36274416               13.87911774              -54.16056372               -2.01925602                9.93133508               -2.08255398
              11.23376488               13.42405940               62.98398858                0.90677254                0.27606703                0.07514049               -0.28248431                0.12642509                0.48637753                1.01463001
              12.23652555               13.02035775               62.56460853                0.92251718                0.50498359                0.30699791               -1.28785663               -0.13265476                0.34255496               -0.83450787
              13.24386455               12.60885552               62.14240479                0.68969983                1.64567078                0.42939865               -1.95629261               -1.10443833                0.27860265               -1.10402852
              14.26943897               12.17442638               61.72586746                0.34519160               10.29722546                1.13191593              -10.74807972               -6.90575665               21.98067068               -1.74937264
              15.44980906               11.61758008               61.85787806                0.33205129               14.60237616               -0.90854910              -10.09075046               -6.08274253               44.34273600               -2.02927259
              16.56148649               11.06869385               61.84482306                0.33647866                9.31693961                0.86141033              -10.78018659               -4.06110243               39.24366669               -0.00755676
              17.63614785               10.49443049               61.80324920                0.35130716                6.15610135                2.89473968              -13.71374675               -4.77600746               40.40727151                0.41579433
              18.68460852                9.90537874               61.74677766                0.37715775                3.86619567                6.10013666              -19.68416696               -5.51985106               41.90880658                0.80440883
              19.71347177                9.31488401               61.66047095                0.44568977                5.81289557                9.80698106              -30.54228915               -4.79893259               40.04342891                0.09066354
              20.80086643                8.77045059               61.52557797                0.56442183               13.68279235               16.63765302              -56.55888934               -2.28967064               27.90280080                3.84618537
              21.98712761                8.24130767               61.13096092                0.83966589               18.62611861               18.76849163              -63.75116468                0.73822962               18.35502808               -1.92390905
               7.46771453                3.57233344               65.14118433                1.00000000               -0.53521967               -0.67189688                2.34269988               -0.22104515               -0.52434671                0.62931785
               8.46236233                3.14237902               64.77884836                1.00000000               -0.37382203               -0.32228697                1.20552129               -0.17345809               -0.64772790                0.09048089
               9.46023809                2.71177900               64.41343193                0.99881206               -0.05444367                0.01611833                0.08144507               -0.17031240               -0.63397667               -0.09569626
              10.46127346                2.27992218               64.05117644                0.62378205                0.18017120                0.39510505               -1.06796139               -0.28184897               -0.24472667               -0.54375649
              11.46384151                1.84481019               63.69377268                0.55042508                0.44270382                0.83778577               -2.36604782               -0.31753842                0.26666625               -0.19944449
              12.47012754                1.40673357               63.34208596                0.39358649                0.68063518                1.23222475               -3.68077656               -0.51063726                0.81010716               -0.56956181
              13.47745422                0.96178524               62.99677424                0.00648216              -14.09071574                1.67456274               -4.82906185              -24.69322589               14.65762225               -1.08614947
              14.18831322                0.02916329               62.92558466                0.00010000              -18.16151729                6.15443106               -4.73483522              -23.42818440               21.90976005                4.78469582
              15.11422387               -0.89265135               62.67629258                0.00010000                3.89112680                3.01636212               -4.67061363              -18.45198220                4.46151766               18.64842952
              16.26613576               -1.81330434               62.23442102                1.00000000                8.07820617                1.01311794               -3.28369926              -19.87780945               -2.45996028                0.35470399
              17.27578800               -2.34179101               61.84070132                1.00000000                0.96522372                1.24126603               -4.06676181                0.03932966               -0.55713067                0.02279368
               7.89545850                4.56561447               65.02424179                1.00000000               -0.45535278               -0.62387002                2.08794539               -0.04607155               -0.00681364                0.88194625
               8.89090498                4.13915615               64.66173183                1.00000000               -0.28475584               -0.28740795                0.94910533               -0.00437251                0.04009624                0.13914864
               9.88976339                3.71194018               64.29964435                1.00000000                0.05171991                0.04898828               -0.17528886                0.00857890                0.08792188               -0.27158707
              10.89193937                3.28387323               63.93800281                0.59433314                0.37485226                0.42578828               -1.32298043               -0.06625120                0.71883481               -0.60651220
              11.89726043                2.85318805               63.58890036                0.60485958                0.72971326                0.82248750               -2.67531480               -0.08729967                1.23790591               -0.28500421
              12.90653364                2.41905582               63.23836672                0.47766937                1.10233354                1.22302450               -4.00954500               -0.27975859                1.38986106               -0.63499519
              13.91930710                1.97853087               62.89372315                0.02047988               -1.26419805                1.49629503               -5.24641208              -22.44527350               17.10464389               -0.95427994
              14.88124968                1.09070760               62.85974381                0.00010000               -3.41846193                1.44805711               -5.45318582              -31.51209468               29.96871260                9.05558058
              15.85093786                0.13751227               62.73986142                0.00010000               -4.46610921                3.47410439               -5.16034191              -30.71525392                2.92523679               21.57414192
              16.79192749               -0.80317316               62.12191942                0.86261171               -2.31349483                8.75228739               -4.40711001              -19.55275150              -10.77398965               59.85990457
              17.80466797               -1.32937835               61.72811849                1.00000000                1.27404735                9.23455349               -5.18590890                0.89162970               -0.29251431               59.47513583
               8.31970975                5.55985604               64.91151195                1.00000000               -0.37605732               -0.51626599                1.82307678               -0.05287182                0.18036835                1.05632302
               9.31594918                5.13663086               64.54526778                1.00000000               -0.20085805               -0.21842024                0.68311054               -0.01399982                0.37558005                0.05492000
              10.31569259                4.71275876               64.18251635                0.57671818                0.13756958                0.13173397               -0.44771578                0.00598719                0.77665986               -0.66573578
              11.31870057                4.28843794               63.82430098                0.05464009                0.56101691                0.53258285               -1.52727133               -0.14705066                1.86309548               -0.78188203
              12.32691293                3.86125994               63.48371439                0.03431296                1.02444882               -1.19853915               -2.94908353               -0.83886673                2.30339654                3.77657925
              13.33918954                3.43119406               63.13522409                0.04549158                1.49920223               -2.80209842               -4.23967569               -0.82515630                2.24406421                7.94306425
              14.35689697                2.99171114               62.79496343                0.00010000                2.99501947               -8.96477432               -5.43032678              -22.96537612               24.66835264               15.85517468
              15.39908993                2.05812443               62.89622212                0.00010000                1.84512903               -2.77937071               -5.66365398              -40.32686678               41.36100257               13.82856344
              16.39379955                1.17683073               62.85949764                0.00010000               -2.85592925                3.62040225               -5.23742787              -33.28124803               55.37083087               22.66925692
              17.34197135                0.36174141               63.21055549                0.72787357               -2.38842873                8.66525634               -1.85769665              -13.37163045               37.48186791               63.42304085
              18.34603098               -0.15709994               62.81797834                1.00000000                0.40596288                8.97329667               -1.52510931                1.29349104                0.37434626               63.72863209
               8.74085143                6.55528915               64.79720199                1.00000000               -0.31291743               -0.39534805                1.55744162               -0.04192639                0.30350553                0.90323547
               9.73772226                6.13478774               64.42621340                0.58318877               -0.13876927               -0.16420610                0.42269490                0.04518089                0.61229673               -0.38947950
              10.73807605                5.71457486               64.06111941                0.00010000                0.13874620                0.18111079               -0.75971365                0.13637884                1.51722537               -1.26784235
              11.74049718                5.29452489               63.70838381                0.00010000               -0.01745354               -0.85201142               -1.75683966               -2.20385375                7.35176300                2.83603901
              12.73772698                4.82921727               63.46142806                0.00010000                0.95410646               -3.11328632               -2.90512762               -3.94940487               12.32565446                7.32190091
              13.75957931                4.36301385               63.20506964                0.00010000                4.76711194               -7.36233773               -4.03544135               -7.36848837               16.14684934               14.09425526
              14.83306921                3.79923538               63.03047641                0.00010000                6.50067216              -15.07170744               -4.92825346              -19.84579242               24.56869909               22.51935239
              15.88959275                3.03512018               62.93557897                0.00010000                2.43133550               -3.26169158               -5.46117475              -31.95381641               34.97865361               12.32659876
              16.88169592                2.20992031               62.95894529                0.00010000               -1.55835959                2.04883417               -4.86157084              -33.95327736               43.71336473               13.00803612
              17.85842556                1.37013197               63.02429595                0.44640493               -0.67377154                0.79374299               -3.70193831              -16.07380581               23.41496795               -1.80866964
              18.86822049                0.85008758               62.63180224                1.00000000                0.97949318                0.68452058               -3.27395087                0.01307489               -0.30997845               -1.24572267
               9.15987404                7.55194908               64.68048357                0.95753612               -0.23069543               -0.26538952                1.29986509               -0.00486008                0.07971772                0.80385934
              10.15756709                7.13334674               64.30073469                0.32675749               -0.05955089               -0.14171120                0.16498434                0.15599044                0.65769238               -0.68598252
              11.15868302                6.71638098               63.93233474                0.00010000                0.12069994               -0.01718393               -1.02278212               -1.01219586                6.39267297               -2.14857300
              12.15998109                6.27139772               63.66726785                0.00010000                1.03764185               -2.01007178               -2.01963070               -3.27508458               12.80632891                4.15421481
              13.17943586                5.79899422               63.42582235                0.00010000                3.09102864               -3.31721555               -3.16758096               -5.14971272               15.98581705                5.75044684
              14.22180166                5.28394731               63.22267294                0.00010000                5.42194658               -6.92815330               -4.28345720               -9.77030129               20.02731706                8.97862396
              15.28787479                4.69027700               63.05891499                0.00010000                6.37635099               -8.87220671               -5.16278743              -19.18674277               24.74290883                9.57889275
              16.34932868                3.99289060               62.94662624                0.00010000                4.59237149               -4.38076693               -5.48261012              -27.49347724               29.44293344                7.74130918
              17.37972222                3.21780742               62.87437623                0.00010000                1.54996429               -0.04551694               -4.83816810              -31.26330854               32.37727569                1.40507444
              18.38032796                2.37761627               62.81605546                0.26015616                0.33295140                0.73658315               -2.60405788              -15.99698125               16.86113118               -4.04694004
              19.38638125                1.85659047               62.42886653                0.92634462                0.60532857                0.54017675               -2.49351904               -0.23890045               -0.01888237               -2.79744652
               9.57795892                8.54998136               64.56325413                0.89305366               -0.15487491               -0.15387762                1.04865311               -0.00969029                0.03021041                0.87153050
              10.57641017                8.13195352               64.17586885                0.26770814                0.09111172               -0.11332428               -0.06219790                0.08058898                0.33946116               -0.63965142
              11.57978115                7.71423118               63.79460123                0.00010000                0.79860425               -0.27538855               -1.34905014               -1.87112595                8.73978262               -2.74450353
              12.59238225                7.25432345               63.57546627                0.00010000                2.12009874               -1.54518752               -2.43656513               -4.47507869               17.49819567                0.79960332
              13.62218313                6.76287296               63.36893973                0.00010000                4.02541258               -3.15501412               -3.70305626               -7.45596533               19.35280315                3.46035720
              14.67289050                6.22445079               63.18552983                0.00010000                5.91039721               -4.99734242               -4.90767702              -12.41543108               21.93601742                5.02935215
              15.74039107                5.62179125               63.02779781                0.00010000                6.96511419               -5.76225383               -5.85342650              -19.02781282               24.33030580                5.43416449
              16.81219279                4.94750485               62.88902095                0.00010000                6.56565067               -4.18974216               -6.24151287              -24.99466005               25.37132792                3.60981030
              17.87170408                4.20900997               62.75167451                0.00010000                4.37550489               -1.26003989               -5.52836427              -30.13484201               24.34352297               -0.87352257
              18.89970289                3.38486363               62.60254842                0.10572888                1.68950016                2.58704652               -2.51232369              -16.92861296               11.93756632               -6.98181488
              19.90549409                2.86089111               62.22244835                0.76016840                0.57912009                1.23749510               -2.94592407               -1.96191142                0.54500180               -4.73399876
               9.99573592                9.54887153               64.44688027                0.87278646               -0.08068744               -0.07898472                0.78401679               -0.01738276                0.01265192                0.97445596
              10.99492905                9.13108025               64.05157320                0.28026742                0.15773261               -0.04891437               -0.28516096               -0.06404852               -0.00382744               -0.62467432
              11.99889058                8.71087321               63.65599237                0.00010000                1.34543448               -0.23677092               -1.51294859               -2.70046531               10.04269801               -2.80007422
              13.02183774                8.24049396               63.46330333                0.00010000                3.06493205               -1.23366945               -3.02415313               -5.99659364               20.66184877               -1.09351335
              14.06018922                7.73589393               63.28134386                0.00010000                4.63685023               -1.87336450               -4.50737815               -9.27972978               22.15229542                0.76336869
              15.11457474                7.18400046               63.11665119                0.00010000                6.20376308               -3.10848519               -5.87713471              -14.14363104               23.89947485                2.81415420
              16.18426448                6.57503192               62.96504642                0.00010000                7.38210065               -3.71763079               -7.00464237              -19.69498060               24.89146672                3.54780786
              17.26221676                5.90909576               62.81160073                0.00010000                7.77010600               -3.08187884               -7.75699359              -24.72500126               24.06247055                2.72989277
              18.33966660                5.19260662               62.63511679                0.00010000                6.38289038               -1.21049052               -7.70545092              -28.76840140               19.54476346               -0.17086677
              19.38987456                4.42935720               62.38674718                0.03348143                2.77107277                5.33449542               -5.27687273              -19.04215317               10.08443144              -10.51948829
              20.39508805                3.88134037               62.00442068                0.68163297                0.52134897                3.27651721               -6.21029604               -6.28160859                3.54650008               -9.25137730
              10.41319382               10.54840167               64.33078786                0.86383626               -0.00662973               -0.01363763                0.50588061               -0.01636927                0.01108937                1.03091370
              11.41312752               10.13097523               63.92716028                0.34308420                0.15821587                0.02585668               -0.49554164               -0.14817632               -0.33508412               -0.67130694
              12.41635813                9.70949576               63.51681249                0.00010000                1.71510686               -0.02070732               -1.48147857               -3.37349347               10.31323994               -2.74683758
              13.44742966                9.22965006               63.32857198                0.00010000                3.83619506                0.49312558               -3.98856108               -6.83116978               22.40333957               -6.97047269
              14.49308203                8.72540567               63.16204924                0.00010000                5.17251215               -0.13048958               -6.06487097              -10.08580745               24.89844542               -1.34767993
              15.55087990                8.16228108               63.02739632                0.00010000                6.41570656               -1.36454163               -7.05301619              -15.14793748               26.92169673                1.49628807
              16.62139617                7.54743863               62.89005558                0.00010000                7.46190829               -1.81850918               -8.59615935              -19.72040273               26.87810900                2.83033721
              17.70011806                6.88586727               62.73523527                0.00010000                7.73392238               -1.26139364              -10.06597151              -24.04567365               24.93418720                2.88830967
              18.77607461                6.18480016               62.53480453                0.00010000                6.50040043                0.40121041              -10.95233154              -25.87405208               19.24819986                0.40669591
              19.83012607                5.49155354               62.23769580                0.01565857                4.99104810                4.92425361              -12.08723253              -17.80473929               10.25701175               -8.74870981
              20.87589557                4.92642146               61.83621312                0.65852047                4.57695020                3.46052355              -12.94632938               -6.68087351                2.70668611               -9.90589955
              10.83026141               11.54859878               64.21473874                0.86576491                0.06100168                0.04794780                0.21830406               -0.00493974               -0.01564609                1.06444930
              11.83087143               11.13159739               63.80201857                0.49678336                0.12422334                0.10025808               -0.68265976               -0.14845695               -0.63556103               -0.75105502
              12.83274588               10.71045906               63.37727961                0.10142632                1.92165061                0.16068136               -1.12973374               -2.38114678                5.35685762               -2.34673858
              13.86930444               10.25035648               63.08535105                0.00010000                4.65480832                2.73839092              -11.60970248               -8.72528503               21.54430520              -12.40206909
              14.92584204                9.73328414               63.02109509                0.00010000                6.01392924                0.71838660               -6.64712538              -12.06176633               32.28495050               -2.64243957
              15.98958302                9.15670963               62.92778189                0.00010000                7.02140971               -0.26897486               -8.55290701              -14.45841984               30.88766558                0.89109237
              17.06627024                8.53866174               62.81252190                0.00010000                7.71793655               -0.02802274              -10.55027048              -17.38214290               30.01252576                2.35626723
              18.14394176                7.88386788               62.66708759                0.00010000                7.51145243                1.01542318              -13.14416852              -20.67841244               27.38117621                2.77893786
              19.21649929                7.20063083               62.45628760                0.00010000                7.41083630                2.92875103              -16.10037866              -21.75019302               20.16159164                0.99920131
              20.29215848                6.52784227               62.12092823                0.02935576                8.76177279                4.41427403              -21.70344430              -14.11629564               10.53468375               -9.08119254
              21.39173474                5.95055084               61.69033906                0.66099681                9.95762610                3.07691095              -22.42459296               -4.97878891                1.51160270              -12.03717709
              11.24709780               12.54936062               64.09877470                0.81158402                0.12002919                0.09361697               -0.10130203                0.00921693               -0.09470524                0.94845407
              12.24829809               12.13298039               63.67607976                0.73699766                0.14391526                0.16683091               -0.78760435               -0.08117307               -0.53433500               -0.63292983
              13.24997611               11.71270939               63.24491527                0.36787262                0.09003908                0.22826648               -0.77655371               -0.54546941               -0.83168765               -1.33280245
              14.25009887               11.28441788               62.81637642                0.00010000                4.77587240                1.86454575               -2.51213734               -8.24902474               23.21139507               -7.46796560
              15.34549355               10.73977340               62.87580385                0.00010000               10.31175165               -0.78027571               -8.76790613              -10.51589621               40.96730247               -2.08330231
              16.45633391               10.15690159               62.82771851                0.00010000               10.05507497               -0.04906940              -10.04336113               -9.74109871               35.13281775                0.50986284
              17.54659505                9.54687818               62.73563988                0.00010000                8.41234082                1.34107111              -12.73495673              -10.84948912               33.67112178                1.52460385
              18.62458072                8.90617573               62.60656360                0.00010000                7.52506551                3.31309940              -16.62839317              -12.92188606               31.03726755                1.96186090
              19.69709636                8.24337518               62.40139004                0.00010000                8.66497112                5.75969166              -22.56612716              -14.24616093               20.67125797                0.39442260
              20.79788015                7.57983902               61.99990522                0.08743383               11.69031470                8.73037952              -36.10104779               -9.11406834                8.53794390               -8.83703842
              21.93090266                6.98795968               61.52273849                0.69025742               13.30225113                7.23223935              -36.28801768               -2.37253345               -2.74763777              -11.53455210
              11.66320621               13.55047112               63.98023398                0.90261011                0.26929890                0.11104904               -0.43147828                0.05712985                0.48162490                0.83366159
              12.66589920               13.13493400               63.55384534                0.99571020                0.35963967                0.19536098               -0.89186784               -0.01222547                0.45975897               -0.52449922
              13.67039900               12.71502439               63.12768076                0.77444068                0.56803686                0.23150008               -1.17885908               -0.32204081                0.12866138               -0.71246657
              14.67725994               12.28764739               62.69947778                0.34108478                8.63207037                0.32295124               -1.75031481               -7.15118192               22.96368188               -0.37063579
              15.84304041               11.71767863               62.75184955                0.33203329               15.51981655               -2.20947705               -9.19178034               -6.84127176               42.72795901               -2.05735279
              16.98765627               11.15572824               62.73182172                0.33622129               12.84829490               -0.11733458              -11.57622356               -4.47753744               38.42792538               -0.17992487
              18.10000631               10.56548316               62.65769732                0.35043983               10.06753817                1.86049774              -14.86728960               -4.93879291               37.29776375                0.34109819
              19.18900703                9.95012987               62.54977486                0.37494432                7.89532359                4.39541378              -19.84564327               -6.04029413               35.86583955                0.26007284
              20.25791278                9.31582466               62.36644158                0.41789666                8.81427943                7.24494769              -27.60013158               -6.30235868               25.55468958               -1.34173174
              21.36529262                8.70244986               61.96191459                0.57930734               13.50649875               12.26108420              -49.31448760               -4.29020428                9.46139540              -11.50820930
              22.52804276                8.09519563               61.47362677                0.86881403               16.27501364               10.72359495              -49.96190856               -1.01141352               -2.79822966              -14.35990592
               7.83061003                3.69677702               66.16391172                1.00000000               -0.50366060               -0.62835098                2.19777522               -0.20642991               -0.50257115                0.61423660
               8.82557343                3.26166133               65.79059717                1.00000000               -0.35350876               -0.30583861                1.14309704               -0.16261162               -0.61759427                0.08567049
               9.82353986                2.82592541               65.41433812                0.99527459               -0.05659309                0.00657171                0.10228074               -0.15902196               -0.61065772               -0.08966552
              10.82444156                2.38902628               65.04099451                0.61267634                0.16327882                0.35646437               -0.96223934               -0.26082991               -0.30667290               -0.52457426
              11.82680543                1.94911263               64.67111696                0.52577774                0.40050210                0.76418947               -2.15366397               -0.30257362                0.11804518               -0.22257034
              12.83245161                1.50627866               64.30673996                0.35224979                0.55448682                1.13161299               -3.37373217               -0.55658134                0.72581862               -0.59062940
              13.83789517                1.05557742               63.95034148                0.00010000              -13.02848952                1.58972026               -4.44323572              -23.29206772               14.95170682               -1.19310042
              14.57188182                0.14584799               63.87455702                0.00010000              -16.56276738                5.41701139               -5.29209136              -22.14042758               22.51499115                4.56220456
              15.50663982               -0.76565012               63.62880110                0.00010000                4.53510446                3.35286683               -4.91584453              -17.64789830                6.21600152               18.60859331
              16.66258391               -1.69420986               63.21022526                1.00000000                8.16352620                0.77155582               -2.31157814              -20.09277206               -1.01738727                0.18174009
              17.66991035               -2.22495559               62.81074718                1.00000000                0.73264410                0.94835474               -2.87609649                0.02396940               -0.18593763               -0.04088095
               8.26366142                4.69049351               66.04448788                1.00000000               -0.42883082               -0.58033027                1.95695716               -0.04486885                0.00385883                0.86377198
               9.25937312                4.25860294               65.67098463                1.00000000               -0.26971310               -0.27275998                0.90111925               -0.00644087                0.05897557                0.13022834
              10.25826716                3.82599112               65.29804180                0.99435418                0.04332677                0.03692672               -0.14191083                0.00616961                0.10120026               -0.27388237
              11.26023965                3.39259092               64.92532877                0.58708241                0.34431717                0.38598011               -1.20448860               -0.06166182                0.62042036               -0.56757322
              12.26515351                2.95675453               64.56321349                0.58693922                0.67068747                0.75048357               -2.44981328               -0.08347603                1.04222786               -0.29548692
              13.27365340                2.51759479               64.19982341                0.44130425                1.00181620                1.12044988               -3.68135520               -0.30807465                1.23215294               -0.61956588
              14.28518983                2.07147462               63.84315106                0.00316900               -0.62810464                1.39527845               -4.84633362              -21.34947585               17.34563142               -0.94152615
              15.26109131                1.20001810               63.80469721                0.00010000               -1.75000337                0.98777747               -5.63600432              -29.64365404               30.43378679                9.19162531
              16.25018976                0.26787855               63.68941274                0.00010000               -3.48911935                3.44673427               -5.33214515              -30.14485421                4.08211430               21.91140401
              17.19130892               -0.68649430               63.09011154                0.93607935               -2.46469952               12.40354084               -3.08552464              -20.51034588               -9.82183494               61.11546398
              18.20089577               -1.21547204               62.69057591                1.00000000                0.95868506               13.14934316               -3.64841515                0.64108833                0.02931408               61.39142410
               8.69349379                5.68517041               65.92916507                1.00000000               -0.35467959               -0.47156950                1.70372040               -0.05009072                0.18422656                1.03262846
               9.68994699                5.25620613               65.55192895                1.00000000               -0.19092604               -0.20875223                0.64971547               -0.01334687                0.38464447                0.04517714
              10.68967527                4.82666394               65.17825884                0.51007324                0.12489644                0.11358182               -0.39866998                0.00792634                0.81111277               -0.69624609
              11.69244492                4.39674588               64.80960300                0.03755594                0.52283872                0.50589377               -1.40463858               -0.16270081                1.75764256               -0.73472246
              12.70013204                3.96412231               64.45537427                0.02419550                0.95625491               -1.15963281               -2.70722659               -0.76988413                2.08593471                3.86775872
              13.71157002                3.52868766               64.09443674                0.03200940                1.41751497               -2.72677084               -3.89996912               -0.66990980                2.11473391                8.11767801
              14.72848234                3.08348299               63.74260280                0.00010000                3.55173920               -8.69465711               -5.01831217              -21.61385250               24.88880170               16.19265748
              15.78260480                2.16560354               63.83902586                0.00010000                3.08863983               -2.84863287               -6.00673736              -38.25826572               41.50707915               14.89736133
              16.79025514                1.30328457               63.80869811                0.00010000               -2.34386117                3.88229129               -5.60933935              -29.44209507               57.05442803               24.11075513
              17.73572758                0.55386096               64.19089908                0.93959157               -2.47837710               12.27609674               -2.43367310              -10.20423912               38.88197149               64.52666381
              18.74068760                0.03803127               63.80171258                1.00000000                0.49600159               12.90405602               -2.02059947                1.18119446                0.33774949               65.36030834
               9.12058818                6.68106212               65.81225637                1.00000000               -0.29755296               -0.34985665                1.44988629               -0.03389085                0.30688254                0.87942489
              10.11761265                6.25442790               65.43035706                0.56441650               -0.13511218               -0.16317044                0.40682134                0.05714029                0.59144588               -0.39072513
              11.11788594                5.82826276               65.05381270                0.00010000                0.09573099                0.13720663               -0.69134058                0.18093387                1.56086881               -1.29543828
              12.11952727                5.40270880               64.69145939                0.00010000               -0.00359463               -0.76500197               -1.61183258               -2.03053815                7.33998325                2.78730220
              13.11781404                4.93356187               64.43219175                0.00010000                1.06836261               -2.90857752               -2.91220209               -3.69242774               12.10127275                7.50181491
              14.14089452                4.46305937               64.16441869                0.00010000                4.90914289               -7.02065257               -4.08946345               -6.93061369               15.86680419               14.43922746
              15.21599690                3.89758148               63.98039027                0.00010000                6.76149450              -14.42514144               -5.11100185              -18.64672400               24.23560492               23.41774527
              16.27612441                3.14304544               63.88075495                0.00010000                2.85467685               -3.00831069               -5.67522284              -29.86865702               35.15258351               14.08306149
              17.27309044                2.34552438               63.91217797                0.00010000               -1.18234896                2.47807252               -4.87233596              -30.26753529               44.95632569               15.32252271
              18.25247743                1.55902764               64.00128454                0.52474035               -0.84557039                0.35294194               -1.53220823              -13.48892211               24.21490392               -0.39671406
              19.25617903                1.04260908               63.61285005                0.99133932                0.37015973                0.31626066               -1.20780271               -0.06236528               -0.14203714                0.08488756
               9.54608442                7.67817328               65.69300564                0.94286955               -0.21952582               -0.21889027                1.20174812                0.00805567                0.07525029                0.77876038
              10.54388916                7.25294272               65.30244654                0.33085001               -0.05356853               -0.14790931                0.17787272                0.16609003                0.61817732               -0.66391264
              11.54501304                6.82940807               64.92250871                0.00010000                0.13229443               -0.08474432               -0.92635862               -0.83079968                6.34344763               -2.15413396
              12.54653505                6.38144584               64.64651806                0.00010000                1.04599327               -1.76946037               -2.08281706               -2.89996615               12.63262589                4.13626447
              13.56593291                5.90595075               64.39324955                0.00010000                3.12015470               -2.97217077               -3.31366299               -4.81434179               15.60224241                5.85665117
              14.60893814                5.38827461               64.17873175                0.00010000                5.48144411               -6.44683321               -4.51047263               -9.29723374               19.57707160                9.31482364
              15.67556179                4.79498016               64.00637900                0.00010000                6.41753127               -8.25238463               -5.40952508              -18.23449866               24.51371856               10.42539440
              16.73728877                4.10543732               63.89216225                0.00010000                4.66802246               -3.90633254               -5.56676757              -25.66033508               29.97544622                9.45192065
              17.76892224                3.35284602               63.83013912                0.00010000                1.57878361               -0.28292507               -4.28919486              -27.91588881               34.23309794                4.10062993
              18.76886444                2.56091980               63.80014101                0.35381115                0.16775814                0.04436487               -1.20280196              -13.86088007               17.93853048               -1.79742283
              19.77227740                2.04435649               63.41430953                0.98263245                0.34129669                0.06345673               -1.08579078               -0.04815951               -0.06993185               -1.11409503
               9.97121041                8.67668431               65.57327097                0.88657098               -0.15107578               -0.10870804                0.95186508                0.00178792                0.02873738                0.82872262
              10.96969966                8.25146971               65.17544626                0.28926879                0.07782029               -0.11713556               -0.02312244                0.08557132                0.25509838               -0.58784371
              11.97276682                7.82656787               64.78205117                0.00010000                0.76428038               -0.26934992               -1.12862688               -1.52137677                8.53684604               -2.57049689
              12.98498526                7.36731959               64.55071355                0.00010000                2.09658100               -1.23128274               -2.49894371               -3.93569125               17.09345059                0.84523125
              14.01469844                6.87411846               64.33079076                0.00010000                4.04675894               -2.66011476               -3.90155347               -7.02194367               18.75138388                3.50958639
              15.06592044                6.33412271               64.13505931                0.00010000                5.97228859               -4.47914306               -5.18262352              -11.78922676               21.33280324                5.29646645
              16.13414421                5.73253379               63.96845022                0.00010000                6.95657034               -5.23761520               -6.06717836              -17.83545302               24.04091565                6.13071020
              17.20505185                5.06491879               63.82798501                0.00010000                6.25729874               -3.78943426               -6.10024302              -23.02804614               25.98947630                4.89715263
              18.25929019                4.33986588               63.70361185                0.00010000                3.93487566               -1.54181391               -4.51798830              -26.43390930               26.79610570                1.22194439
              19.28374936                3.55991493               63.58780612                0.21655066                1.45261372               -0.25526559               -1.10405481              -13.53631408               13.51846560               -3.36463643
              20.28834246                3.04387821               63.20577219                0.86512041                0.45930979               -0.24013112               -1.18941253               -0.26203990                0.02171635               -2.61876287
              10.39654938                9.67599912               65.45422469                0.87097764               -0.08323559               -0.04096127                0.68387973               -0.00009473                0.01423589                0.90034484
              11.39571702                9.25060001               65.04909611                0.31724438                0.10931254               -0.04422056               -0.21321607                0.00800445               -0.04531293               -0.54291553
              12.39873563                8.82402107               64.64279581                0.00010000                1.22768068               -0.12691564               -1.14326874               -2.11822622                9.64148406               -2.32790046
              13.42027064                8.35682018               64.43305615                0.00010000                2.99776430               -0.47270047               -2.96139697               -5.10393061               19.83034394               -1.31615259
              14.45869092                7.85274846               64.23483720                0.00010000                4.72338193               -1.31481570               -4.73524525               -8.84909900               21.24621377                0.55429649
              15.51473827                7.29869175               64.05643557                0.00010000                6.46828664               -2.73342716               -6.11561993              -13.47310176               23.08105731                2.98085955
              16.58805665                6.69022786               63.89413268                0.00010000                7.73287388               -3.44406000               -7.17568051              -18.19985812               24.28988152                4.02011684
              17.66939575                6.02964864               63.73594317                0.00010000                7.85956338               -3.02686267               -7.46636175              -22.17076045               23.98366813                3.58375889
              18.74524792                5.32200974               63.56463241                0.00010000                6.23650330               -1.55361560               -6.32305943              -25.61624550               21.40584389                1.07390641
              19.79412582                4.55581449               63.36150319                0.15450260                2.69310645               -0.02633544               -1.53910789              -13.51434046               10.29039751               -5.97287976
              20.79911004                4.03955387               62.97992672                0.79326470                0.49842264               -0.38588666               -1.42121806               -0.87551907                1.20411564               -4.87625212
              10.82200674               10.67586509               65.33530358                0.86415000               -0.01689530                0.00914041                0.40247656                0.01241899                0.01702190                0.92223241
              11.82183779               10.25058530               64.92283429                0.39805764                0.10876875                0.04010753               -0.37880135                0.01260705               -0.25547623               -0.53790345
              12.82418212                9.82402956               64.50506571                0.01822336                1.61707387                0.08642126               -0.99272990               -2.09465532                9.30099374               -2.02455016
              13.85417927                9.35786558               64.28502030                0.00010000                3.58313909                1.49194349               -4.65457619               -6.79853801               20.69055024               -9.52602839
              14.89584490                8.84782214               64.10132564                0.00010000                5.23998728               -0.01376863               -5.75881056              -10.47222078               24.02233585               -1.51518532
              15.95897901                8.27945417               63.95534830                0.00010000                7.16726292               -1.32011134               -7.26161781              -14.57698656               25.97023045                1.47312448
              17.03919016                7.66365259               63.80306156                0.00010000                8.54378712               -1.95075875               -8.72022152              -18.14336503               25.65750085                3.04880969
              18.12985475                7.00438154               63.63631311                0.00010000                9.08046353               -1.82059500               -9.61550598              -21.25942768               23.99849167                3.24520154
              19.22079943                6.30879356               63.43437646                0.00010000                8.30318376               -0.82179334               -9.26505252              -24.33207656               18.52013272                1.53075063
              20.29591843                5.55938822               63.14238610                0.14860171                4.12769469                0.71468095               -5.49696106              -12.96978049                8.97656901               -8.18992622
              21.30335332                5.03616048               62.74825999                0.77955828                0.74348921               -0.15487292               -4.46259108               -1.37724961                1.59619759               -7.14253724
              11.24735733               11.67618193               65.21634448                0.86645132                0.04473555                0.04583763                0.11612969                0.03642434               -0.01837130                0.89629966
              12.24780469               11.25140216               64.79621164                0.57267793                0.11024534                0.11085502               -0.49840674                0.05763357               -0.37009647               -0.51022466
              13.24956224               10.82574950               64.36923732                0.17658881                0.63513013                0.17373870               -0.68253436               -0.69561941                1.34209634               -1.55135967
              14.26050729               10.38665905               63.98350115                0.00010000                3.90478356                2.08778003               -6.44232316               -7.56287711               19.71506534              -10.62705070
              15.32765791                9.85247309               63.95511955                0.00010000                7.34304037                0.32114553               -6.50908878              -12.22201265               33.55106108               -2.98846400
              16.40736810                9.27228952               63.84114634                0.00010000                8.63020308               -0.66085001               -8.56446496              -13.84481848               29.35892169                0.55315204
              17.50026197                8.65121268               63.70555477                0.00010000                9.58490605               -0.64264194              -10.62952433              -16.07076106               27.92300045                2.35208308
              18.59906622                7.99323674               63.53767172                0.00010000               10.16688632               -0.17271110              -12.41155666              -18.52322917               24.98643205                2.77201607
              19.70359970                7.30557387               63.31210895                0.00010000               10.41485358                0.28775543              -13.28465340              -21.49237523               16.22561505                0.82457666
              20.80736329                6.57010811               62.93092875                0.17041625                5.72104198                1.34793538              -10.82971839              -11.43252539                6.84031754               -9.32862761
              21.81802054                6.03645641               62.52384578                0.79127453                1.06572477                0.17417625               -8.32046108               -1.03368028                0.56795669               -7.31992550
              11.67229477               12.67678184               65.09706017                0.80810629                0.11281208                0.08160760               -0.19781965                0.04292173               -0.03989330                0.73142282
              12.67342289               12.25280240               64.66993497                0.81758846                0.13590324                0.14672174               -0.51857744                0.05958760               -0.21022053               -0.33012277
              13.67501283               11.82750433               64.23953291                0.45496949                0.13876247                0.16628523               -0.47377084               -0.09690581               -0.38851057               -0.82074000
              14.67619814               11.39962118               63.80902807                0.00010000                4.53806751                0.70759460               -0.52829558               -6.46113796               20.69052936               -2.98631478
              15.76577418               10.85424505               63.79845644                0.00010000               10.35724565               -1.40657387               -6.92997233               -9.45088119               38.13990752               -2.39163246
              16.88334305               10.26623717               63.72487893                0.00010000               11.55267682               -0.77002942              -10.01566332               -9.33080888               33.21622900                0.11906172
              17.99682772                9.65079975               63.60639410                0.00010000               11.08429636                0.29624401              -12.77565897              -10.07109152               30.39268581                1.43492871
              19.10502898                9.00092732               63.44275034                0.00010000               10.86264192                1.54604728              -15.62819654              -12.10681240               26.20983242                1.74828661
              20.21408056                8.31454867               63.19653849                0.00010000               11.56782064                2.61862082              -18.31634157              -15.28771293               12.63097089               -0.05506454
              21.33638539                7.58634693               62.71929385                0.20552497                6.79512786                2.30797827              -15.77239203               -9.96794043                3.13284338              -10.12411974
              22.34998311                7.03964401               62.31276214                0.80374379                1.35977238                0.79382979              -10.79888244               -0.18438664                0.05347290               -7.00931552
              12.09617465               13.67781408               64.97535902                0.89935843                0.20992972                0.10322390               -0.47478954                0.04023977                0.44670246                0.59373345
              13.09827395               13.25433659               64.54677117                0.98687239                0.23153469                0.15341935               -0.62612835                0.04816229                0.42339766               -0.19843344
              14.10080534               12.82907520               64.11882760                0.81407307                0.31349333                0.15708699               -0.75872564               -0.09703102                0.32093580               -0.41392896
              15.10454381               12.40081095               63.69086117                0.33912479                8.56094794                0.11897665               -0.69093368               -7.40211200               20.65549728               -0.30360422
              16.27202430               11.82434161               63.67404246                0.33200601               15.98267074               -2.99034442               -7.09670264               -6.57108869               39.14761586               -1.40496455
              17.42419723               11.25688893               63.61329858                0.33607434               14.60628449               -0.93482357              -11.43802397               -4.27478458               35.13525509               -0.38591548
              18.56414999               10.65713756               63.50590341                0.34945541               13.44919097                0.63378124              -15.02288092               -4.90433491               32.30334745                0.26490481
              19.69318105               10.02415768               63.34986479                0.37281756               12.41379181                2.32303653              -19.17373643               -6.14435637               28.39443540                0.05685486
              20.81242583                9.35794629               63.10846831                0.40445096                9.48640519                4.33976178              -23.80561044              -10.55997340               10.27029566               -1.27139640
              21.88290915                8.61626767               62.53928822                0.62395332                4.76564159                2.99207389              -24.60961004              -10.62828821               -3.37743965              -14.46425846
              22.90773866                8.05233300               62.13172275                0.91401247                2.48295088                1.26889972              -18.98640860               -0.61791211               -3.29541603              -10.80423133
               8.20429221                3.82346586               67.18513983                1.00000000               -0.47081570               -0.58292937                2.04437346               -0.18983972               -0.48011194                0.59630469
               9.19958405                3.38331750               66.80171030                1.00000000               -0.33323089               -0.28885631                1.07892402               -0.14972630               -0.58708008                0.08061775
              10.19762759                2.94257832               66.41547754                0.99191419               -0.06114494               -0.00365030                0.12748024               -0.14619957               -0.58585258               -0.08385045
              11.19836115                2.50076218               66.03193166                0.60317723                0.14146878                0.31510881               -0.84594428               -0.23913603               -0.35409175               -0.50348463
              12.20045697                2.05616573               65.65069940                0.50448504                0.35291202                0.68552830               -1.92400472               -0.28506767               -0.01089615               -0.24359722
              13.20541940                1.60875408               65.27461132                0.31546092                0.41071622                1.02136463               -3.03953163               -0.61110827                0.64551691               -0.60120079
              14.20867129                1.15230408               64.90790952                0.00010000              -12.26329859                1.51349449               -4.02604633              -22.16388875               14.80134816               -1.30651668
              14.96015342                0.26012701               64.81974284                0.00010000              -15.28978139                4.99442495               -5.47652848              -21.34931203               22.48831690                3.84553213
              15.90287566               -0.64170277               64.57797569                0.00010000                5.18442549                3.75461085               -5.10344257              -17.04944034                8.46582951               17.58108990
              17.06384193               -1.56944209               64.18818945                1.00000000                8.40748703                0.79043981               -2.14736141              -19.97959599                0.68260297                0.10536272
              18.07102541               -2.10226608               63.78317939                1.00000000                0.71834724                0.97508112               -2.70556203                0.04761213               -0.11017124               -0.09025467
               8.64254217                4.81763657               67.06338094                1.00000000               -0.40116081               -0.53628730                1.81878048               -0.04204699                0.01343757                0.84026723
               9.63853056                4.38042894               66.67975421                1.00000000               -0.25494571               -0.25777655                0.85276443               -0.00652559                0.07546781                0.12088644
              10.63744326                3.94254181               66.29680613                0.98692437                0.03227632                0.02423136               -0.10255061                0.00487616                0.11328714               -0.27386450
              11.63917609                3.50391327               65.91391304                0.58264106                0.30835426                0.34253433               -1.07368060               -0.05719841                0.53481142               -0.52971037
              12.64361034                3.06302101               65.53990409                0.57246450                0.60315231                0.67355668               -2.20414637               -0.08023113                0.87057206               -0.30065681
              13.65123914                2.61896773               65.16473962                0.40960280                0.88677985                1.00991341               -3.32311902               -0.33728459                1.08355728               -0.59698747
              14.66134594                2.16743903               64.79679647                0.00010000               -0.37877036                1.30104983               -4.40544582              -20.37419390               17.20237253               -0.92881999
              15.64366373                1.31007126               64.74702372                0.00010000               -0.70900616                0.99434469               -5.78690212              -28.43064502               30.14672448                8.67878829
              16.64716582                0.39584334               64.63321852                0.00010000               -2.46680490                3.89916892               -6.48755897              -29.57348627                4.79825976               20.51470969
              17.59432763               -0.56153770               64.06020892                1.00000000               -2.14201495               15.52718912               -3.07054591              -21.28021194               -8.33637072               61.59389612
              18.60432552               -1.09251527               63.65515019                1.00000000                0.99978866               16.50490788               -3.62791061               -0.09108003                0.11654390               62.44317036
               9.07786652                5.81274011               66.94558636                1.00000000               -0.33182291               -0.42997433                1.57873212               -0.04553751                0.18653913                1.00014365
              10.07454830                5.37816197               66.55826209                1.00000000               -0.18128703               -0.19866483                0.61764987               -0.01064426                0.39006393                0.03600146
              11.07424078                4.94306294               66.17454295                0.44083829                0.10948471                0.09372058               -0.34073229                0.00993678                0.83515042               -0.71778605
              12.07673799                4.50761287               65.79620820                0.02137940                0.47785521                0.47213030               -1.26679082               -0.18421878                1.66035330               -0.67751160
              13.08379789                4.06963686               65.42956986                0.01390424                0.87588487               -1.08213656               -2.44448613               -0.77388637                1.89412594                3.84274128
              14.09425569                3.62895235               65.05722471                0.01872143                1.31429954               -2.57321682               -3.53152180               -0.69170231                1.99292976                8.08704341
              15.11008388                3.17832508               64.69459718                0.00010000                3.44402611               -8.18124690               -4.56853387              -20.44196668               24.56579407               16.19867174
              16.16313621                2.28001391               64.77608737                0.00010000                3.64655103               -2.32131190               -6.21799637              -36.24257340               40.77439360               15.33219029
              17.18301490                1.43628061               64.74731085                0.00010000               -1.82699520                4.95432102               -7.98492830              -26.28925899               56.60092732               24.68507413
              18.12659631                0.74110169               65.16188202                1.00000000               -2.59279704               15.72467240               -5.94898273               -8.03623054               40.74548345               62.65242689
              19.13115896                0.22783207               64.77756635                1.00000000                0.45626532               16.58518273               -4.79590297                0.56919837               -0.00127207               63.95428679
               9.51078771                6.80903708               66.82619971                1.00000000               -0.27928571               -0.31152124                1.33808027               -0.02660804                0.30708036                0.84219248
              10.50799485                6.37645564               66.43434982                0.55057620               -0.12983060               -0.15913399                0.39235487                0.06292066                0.56577029               -0.38465880
              11.50819109                5.94441622               66.04729259                0.00010000                0.04614738                0.09984459               -0.60661190                0.20699568                1.59264400               -1.30251239
              12.50891780                5.51335588               65.67614716                0.00010000               -0.06989802               -0.63720110               -1.40076338               -1.89415890                7.22563268                2.65671736
              13.50679313                5.04137828               65.40318402                0.00010000                0.98995377               -2.60543156               -2.79757192               -3.51916780               11.57248683                7.40444906
              14.52871687                4.56750339               65.12328037                0.00010000                4.73259569               -6.46745961               -4.10597951               -6.58031189               15.27898605               14.35287909
              15.60144505                4.00381409               64.92825637                0.00010000                6.60699284              -13.38000697               -5.34384656              -17.46117926               23.55488341               23.65197717
              16.66085673                3.26364503               64.82207451                0.00010000                2.94239044               -2.26574769               -6.16116217              -27.34715229               35.02793513               15.41857961
              17.66029286                2.49492976               64.86149857                0.00010000               -0.94025872                3.60527629               -6.00353505              -26.86493757               47.29698111               17.08714664
              18.64205155                1.75295575               64.99365178                0.59494785               -0.90220710                0.70222710               -0.51383460              -11.37047620               26.13591214                1.24242836
              19.64224871                1.23918838               64.60764619                0.99745714                0.01971599                0.67771780               -0.33014336               -0.10240626               -0.02494083                1.46028239
               9.94249724                7.80650969               66.70451853                0.93066892               -0.20696733               -0.18501586                1.10165965                0.01672999                0.07162427                0.72981541
              10.94042756                7.37497929               66.30429215                0.33883841               -0.05083874               -0.14542818                0.18907922                0.16436198                0.57212872               -0.62931764
              11.94148046                6.94505983               65.91380757                0.00010000                0.07325967               -0.09410415               -0.80231878               -0.65253790                6.15859925               -2.06077011
              12.94189276                6.49486885               65.62561151                0.00010000                0.88932770               -1.43329474               -2.03273771               -2.54688663               12.17361438                3.91733146
              13.95926702                6.01752823               65.35954909                0.00010000                2.91604411               -2.49506214               -3.35782601               -4.45968919               14.93679889                5.66883021
              15.00021364                5.49960316               65.13246348                0.00010000                5.27258213               -5.74135477               -4.70118593               -8.68165258               18.80139992                9.25201597
              16.06471866                4.91072494               64.95072449                0.00010000                6.24319259               -7.35811531               -5.75714321              -16.90327827               24.01888276               10.79481500
              17.12507749                4.23469895               64.83529088                0.00010000                4.58433811               -3.09890232               -6.03892729              -23.31874238               30.58935233               10.57669972
              18.15640542                3.50838613               64.78859233                0.00010000                1.49253334                0.20129058               -4.37543394              -24.60202447               36.49194157                6.02633410
              19.15492816                2.75514623               64.79199942                0.42218728                0.01200761                0.16264874               -0.70802067              -12.05697015               19.46125469               -0.83565941
              20.15664557                2.24138643               64.40715072                0.97639558                0.17174155                0.18551410               -0.61523729                0.01139747               -0.08471358               -0.37568322
              10.37418310                8.80533676               66.58229143                0.88176003               -0.14511576               -0.08319330                0.85770748                0.01005998                0.02813166                0.74741163
              11.37273194                8.37354708               66.17540640                0.30944957                0.05338395               -0.10726920                0.00960059                0.11107422                0.21104449               -0.52200007
              12.37525078                7.94253414               65.77202869                0.00010000                0.63898632               -0.18795909               -0.89117929               -1.12886714                8.17195989               -2.26784162
              13.38551167                7.48468998               65.52548739                0.00010000                1.88071296               -0.75023420               -2.49468368               -3.32733194               16.34169465                0.75304303
              14.41286504                6.99147704               65.29090866                0.00010000                3.81877209               -2.05416221               -4.00721448               -6.47733155               17.85401299                3.21887924
              15.46188711                6.45267630               65.08187736                0.00010000                5.77093233               -3.81372462               -5.38649530              -10.90692407               20.41759987                5.17067146
              16.52828369                5.85665178               64.90645424                0.00010000                6.74667866               -4.49510096               -6.36619239              -16.25867357               23.53650033                6.31034873
              17.59682068                5.20166698               64.76701609                0.00010000                5.97607027               -3.11280599               -6.30438314              -20.56916557               26.71268480                5.54763744
              18.64780509                4.49895557               64.66131475                0.00010000                3.55455857               -1.25330005               -4.37587209              -22.98201072               29.38376360                2.58462140
              19.66791186                3.75620873               64.58046732                0.30732121                1.10955872                0.00866954               -0.64445229              -11.52984354               15.21854858               -1.70902677
              20.66999627                3.24289866               64.19866010                0.95546231                0.20844096               -0.00294513               -0.57965719               -0.04712055               -0.06219464               -1.22300329
              10.80627781                9.80484582               66.46055787                0.87116187               -0.08261339               -0.03051149                0.59663652                0.01329473                0.01449107                0.77720376
              11.80545167                9.37283391               66.04730888                0.34576435                0.07412062               -0.02227221               -0.15655343                0.09893715               -0.02911090               -0.44513211
              12.80776022                8.94130065               65.63312699                0.00010000                1.04757772                0.00145555               -0.85924710               -1.40142624                9.12470619               -1.86629284
              13.82640323                8.47986416               65.40407539                0.00010000                2.69869274                0.19972525               -2.89202200               -4.26933028               18.63189182               -2.04996774
              14.86173407                7.97644498               65.18663895                0.00010000                4.52485940               -0.83287133               -4.73360058               -8.30998939               19.98863123                0.27768364
              15.91690041                7.42332867               64.99433879                0.00010000                6.44102167               -2.28217499               -6.21455841              -12.44802936               21.94229736                2.71474922
              16.99055451                6.82082292               64.82153281                0.00010000                7.72449891               -2.98295206               -7.32038239              -16.27940722               23.36866256                3.94410795
              18.07139039                6.17244283               64.66227349                0.00010000                7.58344776               -2.63121157               -7.37344264              -19.27752392               24.08645782                3.69566268
              19.14222346                5.48332013               64.50865560                0.00010000                5.44989018               -1.55084714               -5.36493328              -21.22620142               23.90677794                1.44225352
              20.18038820                4.75531962               64.35596502                0.27083448                2.00499145                0.10603591               -0.51749375              -10.70652690               11.74713794               -2.01597595
              21.18232329                4.24132753               63.97599632                0.90672747                0.19350947               -0.16235022               -0.31330788               -0.09543563                0.10343745               -1.78536142
              11.23847283               10.80472653               66.33883739                0.86691907               -0.02169697               -0.00388221                0.32926491                0.03160303                0.01191382                0.75974063
              12.23825586               10.37310164               65.91958425                0.43012210                0.08595863                0.07291513               -0.29596342                0.14808514               -0.15755691               -0.39034244
              13.24019200                9.94256325               65.49695789                0.04663543                1.33624377                0.18320104               -0.74270960               -0.99395384                7.70259448               -1.49049383
              14.26498073                9.48868449               65.23548045                0.00010000                3.15043748                1.69717616               -3.96421864               -5.82116783               18.65502612               -9.23883422
              15.30320075                8.97481961               65.04687303                0.00010000                5.17839289               -0.00304635               -5.19652300              -10.20838443               23.20702512               -2.06689177
              16.36854859                8.40703280               64.88216397                0.00010000                7.51903118               -1.25433113               -7.19369681              -13.42005187               24.33814649                1.13160867
              17.45358137                7.79699274               64.71565115                0.00010000                9.01122006               -1.92260334               -8.63762098              -16.01698424               24.02404249                2.77716584
              18.54877299                7.14904275               64.54292515                0.00010000                9.34114518               -1.97859290               -9.06279793              -18.16641462               22.70133876                3.07067512
              19.64040428                6.46793863               64.34950348                0.00010000                7.35004664               -1.41798987               -7.42546372              -19.25911043               19.76781796                1.25864089
              20.69577392                5.75832944               64.12775658                0.29473868                2.78337330                0.45211752               -0.98377120               -9.57235786                8.86441263               -1.74400928
              21.69607174                5.23965166               63.74696130                0.92046116                0.02978178               -0.08386745               -0.06657480               -0.12095159                0.51428704               -1.51189120
              11.67015966               11.80476818               66.21706133                0.86961190                0.04169937                0.01240025                0.06585510                0.05627803               -0.02585093                0.69647610
              12.67057666               11.37429221               65.79205043                0.59744023                0.10693135                0.13583842               -0.38563984                0.17807894               -0.19645400               -0.29386079
              13.67229829               10.94496467               65.36362893                0.19755076                0.35734286                0.20705271               -0.55247251                0.12181354                0.70223613               -1.03751803
              14.67772351               10.51380769               64.95650459                0.00010000                3.34598932                1.43235406               -1.58941140               -6.42877119               18.51061727               -8.94868509
              15.73921807                9.97638406               64.89091331                0.00010000                7.43013663               -0.09008808               -5.71150097              -11.31627703               31.53147134               -2.99373458
              16.82632624                9.39824204               64.75649259                0.00010000                9.44933975               -0.99511078               -8.21223558              -12.49204832               27.18422731                0.18594780
              17.92820487                8.78237085               64.59993141                0.00010000               10.53949832               -1.08823145              -10.24117540              -14.11875398               25.24825480                2.00604314
              19.03711621                8.13287098               64.41885645                0.00010000               10.97748430               -1.00471753              -11.22167814              -15.87752598               21.98187634                2.57560912
              20.14775456                7.45496034               64.19059453                0.00010000                9.00558977               -1.10120488              -10.02941643              -16.78705051               16.21904075                0.98445288
              21.21722801                6.76436197               63.90433387                0.34156845                3.47526369                0.53338584               -1.56454141               -8.33853622                6.09664337               -1.58990389
              22.21725983                6.23965018               63.52392984                0.95538075                0.00318228                0.01223698                0.06279321               -0.02299044                0.84987830               -0.92901787
              12.10055032               12.80497454               66.09481831                0.80813192                0.10706166                0.04899498               -0.20163608                0.04220116                0.01681815                0.54225044
              13.10162094               12.37581840               65.66570821                0.80648551                0.12812345                0.15003612               -0.41628979                0.10258410               -0.04735416               -0.12537617
              14.10311279               11.94670431               65.23543986                0.44476269                0.16824918                0.15958734               -0.42952329                0.09713009               -0.07230799               -0.49910401
              15.10498592               11.51733157               64.80581051                0.00010000                4.46640292                0.20507144               -0.26440377               -5.81274701               18.03636398               -1.66662520
              16.19244085               10.97301785               64.73720440                0.00010000               10.38674525               -1.89883712               -5.53699031               -8.29318746               33.72604520               -1.98147709
              17.31272083               10.38713058               64.62740525                0.00010000               12.20682540               -1.35357150               -9.28956848               -8.28077831               29.72530576               -0.14117770
              18.43657736                9.77522811               64.48012670                0.00010000               12.29560791               -0.53041069              -12.07293915               -8.84399997               26.35385096                1.15929029
              19.55863299                9.12894840               64.29399967                0.00010000               11.82974557                0.20835415              -13.78310216              -10.60494778               21.23313386                1.58935131
              20.67317227                8.44591453               64.03506321                0.00010000                9.28401851                0.57883711              -12.95008054              -11.69052620               12.29635076                0.63806099
              21.74431336                7.76899716               63.68445738                0.35915270                3.59316249                0.44069891               -1.97285366               -7.43783715                2.81686771               -1.84257235
              22.74503552                7.23989640               63.30676084                0.95536320                0.07221632                0.07698083               -0.29540050                0.09020110                0.79162553               -0.59934399
              12.52931595               13.80574808               65.97073819                0.89787386                0.15826156                0.07735405               -0.41977715                0.03104829                0.39103369                0.42193017
              13.53089857               13.37729293               65.54132278                0.98373039                0.17058857                0.14745292               -0.55169836                0.04817985                0.38921804               -0.01727488
              14.53272772               12.94815642               65.11250625                0.78935031                0.21282311                0.14521142               -0.62042229               -0.00769774                0.48337017               -0.22338779
              15.53515503               12.51790912               64.68565911                0.33859292                8.54137941                0.05775469               -0.44550468               -7.47054464               18.02623482               -0.18420068
              16.70355531               11.93840731               64.60991550                0.33208198               16.16726919               -3.46105321               -5.84603229               -6.22547902               33.77783759               -1.00915492
              17.85850041               11.37117061               64.50306124                0.33575622               15.29758705               -1.59599679              -10.43352693               -3.75427535               30.11122850               -0.41793455
              19.00950705               10.77176264               64.35723971                0.34851747               14.79152106               -0.34654731              -14.09457991               -4.41365827               26.29089062                0.23162278
              20.15433084               10.13703806               64.16630013                0.37064236               13.21941068                0.80896622              -16.85810418               -5.69149317               20.20574507                0.30827083
              21.27389527                9.46653708               63.89032938                0.39929461                6.00792795                2.06225476              -17.37507904               -8.12080588                7.40199083               -0.56265774
              22.27448940                8.77317595               63.46972239                0.67530592                0.16850550                0.41787881               -3.88743751               -8.24976047               -1.56171649               -3.01518342
              23.27726538                8.24118979               63.09389860                0.96730474                0.27759824                0.12933956               -2.11738389                0.02437008               -0.53002524               -1.01367348
               8.58786686                3.95222090               68.20479919                1.00000000               -0.43727448               -0.53685795                1.88551088               -0.17182760               -0.45795061                0.57660565
               9.58349411                3.50718585               67.81217565                1.00000000               -0.31327070               -0.27169779                1.01408533               -0.13516779               -0.55755778                0.07555134
              10.58160144                3.06159122               67.41688772                0.98892546               -0.06781210               -0.01427934                0.15604454               -0.13233807               -0.56125733               -0.07859041
              11.58213787                2.61499383               67.02407563                0.59610827                0.11532021                0.27263396               -0.72175163               -0.21799177               -0.38950561               -0.48197143
              12.58390785                2.16583129               66.63263687                0.48641270                0.30069743                0.60396332               -1.68306586               -0.26673766               -0.11803265               -0.26101865
              13.58815182                1.71399804               66.24594933                0.28285404                0.24413833                0.90436095               -2.68634202               -0.67987098                0.57443817               -0.60450986
              14.58879062                1.25167318               65.86982055                0.00010000              -11.82849186                1.45373780               -3.57312528              -21.47380312               14.38549694               -1.42099749
              15.35158198                0.36819686               65.76502645                0.00010000              -14.06404106                4.90524733               -5.32341096              -21.20718036               22.30545297                3.15608270
              16.30750979               -0.52451397               65.52673225                0.00010000                5.97251415                3.33515539               -4.86565481              -17.67092437               11.11421493               15.14490926
              17.47103227               -1.43614155               65.16727803                1.00000000                8.51086269                0.78325987               -2.00535450              -19.14765837                2.50734286                0.07426847
              18.47772705               -1.97070227               64.75663594                1.00000000                0.66947818                0.97066831               -2.56888066                0.10563501               -0.10785924               -0.09069824
               9.03118363                4.94685232               68.08086349                1.00000000               -0.37263492               -0.49331961                1.67615089               -0.03803121                0.02156813                0.81320550
              10.02745728                4.50446888               67.68803992                1.00000000               -0.24047742               -0.24276557                0.80456507               -0.00531629                0.08910120                0.11157698
              11.02637408                4.06144842               67.29599079                0.98006269                0.01903189                0.01152696               -0.05843272                0.00410028                0.12337487               -0.27194812
              12.02783792                3.61772017               66.90385516                0.58197756                0.26821428                0.29838491               -0.93421847               -0.05451451                0.46178736               -0.49413680
              13.03173836                3.17187093               66.51913057                0.56154193                0.52971262                0.59329576               -1.94456645               -0.07941510                0.72536648               -0.30091249
              14.03843217                2.72304165               66.13336103                0.38207233                0.76074068                0.89448642               -2.94649699               -0.37054478                0.95003626               -0.57204401
              15.04695318                2.26621056               65.75504214                0.00010000               -0.54142067                1.21616707               -3.93402727              -19.68236892               16.77008767               -0.92220682
              16.02760375                1.41724933               65.68895916                0.00010000               -0.69917121                1.44998461               -5.67426812              -28.17879736               29.08519990                8.26196192
              17.03296975                0.50883759               65.55966156                0.00010000               -1.24769588                4.66099841               -8.23647367              -30.82945211                5.45246232               17.19801090
              18.00264984               -0.42830895               65.02870062                1.00000000               -0.98128132               15.48040919               -3.24981514              -21.02418455               -5.97511783               59.15986119
              19.01334413               -0.96099559               64.61801769                1.00000000                1.06942903               16.76616424               -3.81334758               -1.69034136                0.11382793               61.22544610
               9.47187312                5.94235451               67.96073971                1.00000000               -0.30814344               -0.39392621                1.45156344               -0.04009912                0.18738747                0.96211589
              10.46879168                5.50233054               67.56428194                1.00000000               -0.17204789               -0.18821085                0.58732504               -0.00774260                0.39243612                0.02700043
              11.46843216                5.06182176               67.17144419                0.37159758                0.09166962                0.07497340               -0.27726195                0.00991914                0.85025401               -0.72957533
              12.47062508                4.62096152               66.78426719                0.00651198                0.42829493                0.43598359               -1.11675385               -0.19069795                1.57311621               -0.57343908
              13.47699806                4.17769721               66.40648454                0.00366653                0.78881085               -1.00996515               -2.16794546               -0.93407751                1.72850019                3.78211116
              14.48640129                3.73188777               66.02380630                0.00592124                1.19687498               -2.40817376               -3.14655048               -0.93654847                1.88046743                7.86682271
              15.50093556                3.27599652               65.65123212                0.00010000                2.94888577               -7.58584219               -4.09365075              -19.66719851               24.05224722               15.82107674
              16.54537901                2.39719655               65.71466594                0.00010000                1.77717364               -1.25179048               -6.69914336              -34.57266777               38.35772277               14.91416826
              17.53647903                1.56870600               65.64899954                0.00010000               -1.24986276                6.85741226               -8.06524174              -25.46234388               54.38995727               25.92338144
              18.52038175                0.87346664               66.07191942                0.68218278               -1.35927614               19.10338773              -31.90031519               -8.88433854               41.83010245               53.52668577
              19.50929351                0.36462101               65.70579452                1.00000000               -1.10882446               20.16129737              -29.44573739               -0.16719857                6.88693652               49.00705920
               9.91042957                6.93897379               67.83901798                1.00000000               -0.25943937               -0.28383200                1.22654858               -0.02208578                0.30444009                0.79727278
              10.90783518                6.50070466               67.43820416                0.53704205               -0.12440451               -0.15153799                0.37972192                0.06125537                0.53948815               -0.37543780
              11.90794148                6.06294789               67.04168046                0.00010000                0.01566627                0.08174095               -0.51346155                0.20843426                1.65464220               -1.28278919
              12.90814850                5.62643984               66.66344412                0.00010000               -0.29054569               -0.52546444               -0.81141813               -1.88177645                6.57029103                2.59550362
              13.90213057                5.15167163               66.37624031                0.00010000                0.66266920               -2.30472474               -2.61937286               -3.53714025               10.71388420                7.03049990
              14.92140189                4.67487818               66.08229910                0.00010000                4.30849317               -5.85849165               -4.02991875               -6.48942325               14.38191248               13.87972885
              15.98830043                4.11449372               65.87351334                0.00010000                6.10195176              -12.16589648               -5.54259554              -16.52440844               22.53528411               23.12603561
              17.04344092                3.39221352               65.75753171                0.00010000                2.95761800               -1.25834032               -6.93832242              -25.13394598               34.14985406               15.67294606
              18.04745279                2.64598583               65.79210727                0.00010000               -0.71964320                5.24252597               -8.67010534              -21.64406044               50.97024230               19.24274141
              19.02904806                1.95375881               65.99100784                0.56385378               -0.98806893                4.19622185               -0.34331782               -9.23030435               29.27685069                6.15669648
              20.02769141                1.44223036               65.60624719                1.00000000               -0.13566462                4.06039471               -0.19556349                0.39650623                0.16188511                5.51870081
              10.34796967                7.93667787               67.71503883                0.92127941               -0.19269770               -0.16902920                1.00606497                0.01786870                0.06750400                0.66942899
              11.34604270                7.49929978               67.30622813                0.34095970               -0.05520023               -0.13458425                0.19426261                0.15634119                0.53472264               -0.59131320
              12.34686567                7.06345657               66.90646233                0.00010000               -0.08884411               -0.05281356               -0.66863613               -0.53319984                5.91797043               -1.90563587
              13.34426581                6.61045224               66.60586330                0.00010000                0.54756231               -1.12616354               -1.81776989               -2.35315864               11.61495078                3.39593577
              14.35781691                6.13160272               66.32609303                0.00010000                2.47624623               -2.01327226               -3.24774550               -4.12380652               14.04918211                5.13167181
              15.39379074                5.61471794               66.08470803                0.00010000                4.76475661               -4.96086754               -4.74409988               -8.07995735               17.73058773                8.81707350
              16.45311205                5.03267859               65.89123614                0.00010000                5.87086175               -6.32806361               -6.12286987              -15.56265659               23.07507168               10.64714144
              17.51120797                4.37202974               65.77138371                0.00010000                4.44702460               -2.16622933               -7.00981045              -20.90589783               30.96454094               10.92746867
              18.54205254                3.67355652               65.74263044                0.00010000                1.41615850                1.27546000               -5.30817064              -21.42886167               39.00330279                7.72452933
              19.53953114                2.95739108               65.78598060                0.40614684               -0.08860011                0.40049943               -0.57644607              -10.30003471               21.34893368               -0.33081731
              20.54028054                2.44582891               65.40200478                0.97497551                0.07493934                0.41710928               -0.47242567               -0.00513763               -0.06926352                0.09995014
              10.78554311                8.93559321               67.59042512                0.87978788               -0.13598174               -0.08403143                0.77858986                0.01035146                0.02564766                0.65424384
              11.78418329                8.49801297               67.17563827                0.31683353                0.02909606               -0.08901347                0.02880252                0.14106977                0.20515799               -0.45929802
              12.78612503                8.06189162               66.76422758                0.00010000                0.43779481               -0.08452809               -0.71090382               -0.82494166                7.72085686               -1.97894626
              13.79293919                7.60391657               66.50081987                0.00010000                1.46318509               -0.23122341               -2.38900471               -2.76773709               15.38126548                0.38408594
              14.81538873                7.11140618               66.25064647                0.00010000                3.28938365               -1.46324785               -3.93119634               -5.89362582               16.79661317                2.66485899
              15.85872686                6.57566083               66.02732941                0.00010000                5.21733804               -3.10089091               -5.40165285               -9.92870540               19.25665554                4.69705227
              16.91973549                5.98793244               65.84112637                0.00010000                6.28590881               -3.63827453               -6.64829447              -14.61943676               22.66593580                6.03129929
              17.98444504                5.34888894               65.70189735                0.00010000                5.68893664               -2.21884581               -6.99931258              -18.18216346               27.05896185                5.72230028
              19.03351423                4.67149503               65.61609441                0.00010000                3.31649707               -0.54452212               -5.17276311              -19.97403667               31.95077073                3.15972006
              20.05077498                3.96176880               65.57491707                0.31439301                0.85993865                0.54073148               -0.60714364               -9.93628891               17.08306850               -1.00526345
              21.05071300                3.45057254               65.19417905                0.96533309               -0.00619799                0.48582672               -0.44955166               -0.07784281               -0.05398971               -0.46647319
              11.22333717                9.93499724               67.46615742                0.87377081               -0.07714913               -0.05183895                0.54198223                0.01263675                0.00948418                0.65133400
              12.22256568                9.49751951               67.04596504                0.35124957                0.05630346                0.00119616               -0.12780686                0.15758155                0.00883466               -0.36208710
              13.22446324                9.06176601               66.62561087                0.00010000                0.84154146                0.09130630               -0.70715689               -0.77394848                8.46636383               -1.54682052
              14.23939651                8.60582777               66.37521571                0.00010000                2.18684474                0.83715649               -2.79700992               -3.75013958               17.30355161               -2.36700059
              15.26820014                8.10233776               66.14016519                0.00010000                3.96469275               -0.45981163               -4.44287130               -7.76072456               18.74413257               -0.20144781
              16.31869037                7.55270012               65.93214440                0.00010000                5.96475330               -1.78641404               -6.08239157              -11.20938460               20.56277483                2.15861419
              17.38749520                6.95991310               65.74772503                0.00010000                7.26558745               -2.35675734               -7.35083594              -14.29364793               22.18298538                3.49990808
              18.46400212                6.32765283               65.58847432                0.00010000                7.10983709               -1.98384287               -7.64802499              -16.58314313               24.09101622                3.43745591
              19.52969194                5.66266608               65.45733374                0.00010000                4.88628699               -0.97337914               -5.60640320              -18.08184973               26.45204236                1.69870641
              20.56172785                4.96820570               65.35115331                0.30574222                1.57121218                0.71851988               -0.61618354               -9.10733778               13.75072912               -1.16492811
              21.56111619                4.45554544               64.97366057                0.94656956               -0.06116664                0.37083000               -0.30059044               -0.04019531               -0.00842594               -0.76845111
              11.66075129               10.93455643               67.34188887                0.87200653               -0.01851433               -0.04333547                0.30954958                0.02429405               -0.00065043                0.61531331
              12.66056615               10.49803690               66.91691502                0.42537292                0.07932581                0.09407363               -0.26697830                0.19518245               -0.08163171               -0.28146464
              13.66233781               10.06371775               66.49021152                0.03553658                0.83992514                0.23755819               -0.67028189               -0.13438188                6.93716121               -1.17033153
              14.67736465                9.62065970               66.20573592                0.00010000                2.54820400                1.57637639               -2.09958921               -4.87345278               17.28391160               -8.44108509
              15.71330189                9.10220995               65.99739518                0.00010000                4.97995872               -0.00353669               -4.62603645               -9.53139728               21.64376660               -2.33244641
              16.77696382                8.53993255               65.81147436                0.00010000                7.28039701               -1.09664616               -6.79198052              -11.90342362               22.44760560                0.56424607
              17.85890983                7.94079730               65.63030914                0.00010000                8.65326870               -1.65275538               -8.31326039              -13.76762343               22.24289084                2.25487972
              18.95002920                7.30921208               65.45505715                0.00010000                8.62072637               -1.69892157               -8.66493482              -15.23656674               22.02449497                2.66817793
              20.03132435                6.65202745               65.28586719                0.00010000                6.28598315               -1.14814371               -6.32876950              -16.01308625               21.85071662                1.55965167
              21.07574886                5.97613919               65.12271068                0.36137371                2.19526343                0.67017605               -0.50688252               -7.99026533               10.75393266               -0.70094185
              22.07522962                5.45798914               64.74692850                0.97252679               -0.05192386                0.12655338               -0.04228263               -0.07950652                0.09845735               -0.49993723
              12.09686212               11.93413053               67.21766158                0.87551408                0.04458957               -0.03032195                0.08923608                0.03204792               -0.02834048                0.55189606
              13.09730802               11.49940099               66.78849884                0.56221013                0.11453424                0.14928155               -0.37706088                0.18373795               -0.08203314               -0.16474603
              14.09915281               11.06651718               66.35818787                0.15570212                0.30636184                0.24635922               -0.60028762                0.45404354                1.06830064               -0.73305308
              15.10343525               10.63735530               65.95171293                0.00010000                2.95732678                0.82372306                0.45697221               -5.32269665               16.77908608               -7.73859583
              16.15829934               10.10226702               65.84088953                0.00010000                6.92996452               -0.32983127               -4.47479073              -10.05948162               28.25364849               -3.01990459
              17.24203454                9.53076720               65.67690163                0.00010000                9.22819307               -1.15437943               -7.53647087              -10.87229919               24.49278102               -0.23491476
              18.34286320                8.92685800               65.50073126                0.00010000               10.30030418               -1.20600174               -9.46598094              -11.93461592               22.63504976                1.56044218
              19.44804063                8.29367440               65.31323816                0.00010000                9.98199509               -1.19707043               -9.94457560              -13.12144235               20.52211133                2.32797034
              20.54250310                7.63970320               65.11152062                0.00010000                7.39601141               -1.22261990               -7.22398395              -13.69198329               17.99913994                1.73130671
              21.59596086                6.98160923               64.89963793                0.44634616                2.66615285                0.39838847               -0.37228055               -6.81752253                8.26076314               -0.31773897
              22.59582616                6.45807651               64.52510164                0.97172179               -0.01346942               -0.01503876                0.08589716               -0.05431788                0.13705817               -0.10149895
              12.53085133               12.93394999               67.09302744                0.81046424                0.10029263                0.01411962               -0.12484057                0.00545496                0.06764642                0.42521758
              13.53185426               12.50102253               66.66160918                0.70522595                0.13065185                0.16804841               -0.47693976                0.08385834                0.09894412               -0.02253486
              14.53346437               12.06864493               66.23094244                0.34094161                0.16533055                0.19787400               -0.54248935                0.15476199                0.31574319               -0.30012741
              15.53516087               11.63713416               65.80374000                0.00010000                4.26179914                0.00372218               -0.05167389               -5.44038012               15.82872690               -1.44995254
              16.61870035               11.09561332               65.68771664                0.00010000                9.98830006               -2.17653559               -4.34229020               -7.42048106               29.35225710               -2.07663316
              17.73492687               10.51684496               65.53908756                0.00010000               11.93049793               -1.67744759               -8.29827558               -7.09365047               25.85228851               -0.36717168
              18.85731031                9.91667726               65.36493532                0.00010000               11.99141362               -0.96569979              -10.78104986               -7.38542872               22.59291730                0.90233567
              19.97475514                9.28527067               65.16708829                0.00010000               10.61197749               -0.39761057              -11.56066618               -8.64682798               18.89161407                1.54966410
              21.06954986                8.62757505               64.93753688                0.00010000                7.31349828               -0.17712009               -8.46518442               -9.33117125               14.34728086                1.56920924
              22.12102511                7.98410696               64.67983677                0.49581551                2.58294215                0.19123843               -0.32484676               -5.88709704                5.90894205               -0.21930701
              23.12120870                7.45768837               64.30685413                0.97166817                0.01835947               -0.01462398                0.01493819                0.00611912                0.11940461                0.06083923
              12.96282615               13.93441292               66.96696348                0.89774871                0.14640993                0.04629279               -0.31572797                0.03238500                0.36648481                0.32137561
              13.96429025               13.50276195               66.53573721                0.92992812                0.16551349                0.17394258               -0.65029312                0.04668566                0.45682722                0.07556096
              14.96613642               13.07047466               66.10641916                0.70830579                0.16845065                0.18297264               -0.68785956                0.00059406                0.80446482               -0.09145181
              15.96765926               12.63742974               65.68195107                0.33829878                8.20212517                0.02955812               -0.21844899               -7.33707811               15.79123854               -0.14132902
              17.13017892               12.05873631               65.55712181                0.33207219               15.57191676               -3.68770091               -4.70692325               -5.86271773               28.65806546               -1.22566815
              18.27909759               11.49721825               65.40462805                0.33566934               14.82749984               -1.96267118               -9.15980545               -3.14254322               24.87527618               -0.36231923
              19.42672892               10.90754400               65.22401181                0.34764507               14.25543421               -0.91332627              -12.28991383               -3.63294235               20.92320270                0.30004769
              20.56420628               10.28572219               65.01270271                0.36865068               11.51572348                0.04515156              -13.67541867               -4.62404620               16.18663718                0.62503605
              21.65704339                9.63616080               64.76096673                0.39722018                4.19496605                0.85857510              -10.77808850               -6.26505688                9.88911498                0.62305615
              22.64810560                8.98543399               64.46153947                0.74026251               -0.41288249                0.13270311               -0.53428564               -6.21078958                3.67473121               -0.30890376
              23.64878574                8.45778403               64.08937507                0.98603191                0.06801369                0.00956606               -0.27959215               -0.00729329               -0.08038948                0.02624169
               8.98038028                4.08286938               69.22285005                1.00000000               -0.40359116               -0.49092213                1.72385845               -0.15290024               -0.43732099                0.55694700
               9.97634437                3.63309999               68.82199200                1.00000000               -0.29389048               -0.25458013                0.94941778               -0.11935866               -0.53047831                0.07082395
              10.97450247                3.18280037               68.41859843                0.98644257               -0.07612365               -0.02539903                0.18710005               -0.11750939               -0.53803104               -0.07384131
              11.97482189                2.73156370               68.01749662                0.59154250                0.08600720                0.22752755               -0.59239111               -0.19710390               -0.41348908               -0.46141103
              12.97622261                2.27795796               67.61703808                0.47178565                0.24512913                0.51971252               -1.43399424               -0.24724310               -0.20438120               -0.27527099
              13.97972448                1.82184048               67.22088448                0.25383628                0.05407469                0.78294000               -2.32118522               -0.76546919                0.52298482               -0.60115821
              14.97730411                1.35344095               66.83644702                0.00010000              -11.51868457                1.41423617               -3.09322214              -20.93831569               13.84423872               -1.54746273
              15.74935079                0.47538325               66.71327462                0.00010000              -12.71978612                5.02877699               -4.88919909              -20.76545639               22.70329058                3.18102245
              16.72290838               -0.40466321               66.48066260                0.00010000                6.73671572                2.21994731               -4.41217000              -18.95273557               13.46604957               11.45998124
              17.88408510               -1.29080190               66.14808236                1.00000000                8.36220120                0.78200397               -1.83040328              -17.87061312                4.14638878                0.05327108
              18.89015241               -1.82684356               65.73180178                1.00000000                0.60673086                0.96786235               -2.38946492                0.17738674               -0.09749078               -0.08900543
               9.42862067                5.07796016               69.09690395                1.00000000               -0.34353823               -0.45207194                1.53124679               -0.03312059                0.02797144                0.78566435
              10.42518528                4.63055419               68.69584551                1.00000000               -0.22625736               -0.22811234                0.75680209               -0.00328039                0.09972930                0.10341812
              11.42409552                4.18254638               68.29563748                0.97419129                0.00433877               -0.00093032               -0.01106118                0.00214685                0.13106416               -0.26858514
              12.42527206                3.73383897               67.89522867                0.58602316                0.22581366                0.24957108               -0.78726050               -0.05266132                0.40111248               -0.46148660
              13.42861179                3.28315509               67.50101277                0.55460746                0.45281137                0.51056886               -1.67534601               -0.07814656                0.60515156               -0.29880230
              14.43432829                2.82966988               67.10580968                0.35823925                0.62688850                0.77551321               -2.55830419               -0.40893948                0.83277606               -0.54590401
              15.44114956                2.36758332               66.71811593                0.00010000               -0.67899917                1.14172272               -3.44594229              -19.05168872               16.19191081               -0.92440010
              16.42074830                1.52567102               66.63353836                0.00010000               -1.23379794                1.71707383               -5.48074560              -28.34372962               27.32376523                7.27025937
              17.41647360                0.61753626               66.46848904                0.00010000               -0.21395810                6.34828708               -9.46081940              -30.90003531                8.13369681               17.28314897
              18.41646914               -0.28298186               65.99521262                0.55770727                0.57471637                7.00650411               -3.45360694              -20.61914603               -2.81476480               34.13110867
              19.42796793               -0.81716493               65.57888323                1.00000000                1.14987897                2.32936603               -4.01120125                2.13144690                0.10118753               38.04243649
               9.87452981                6.07382794               68.97461763                1.00000000               -0.28372718               -0.36383717                1.32410869               -0.03484587                0.18752086                0.92386368
              10.87169254                5.62853774               68.57000859                1.00000000               -0.16345948               -0.17767423                0.55829487               -0.00546656                0.39264961                0.01978183
              11.87126062                5.18278176               68.16899771                0.00010000                0.07337127                0.05979601               -0.21109276               -0.00170829                0.86125414               -0.73275395
              12.87315996                4.73655512               67.77387313                0.00010000                0.37840803                0.49154310               -0.96294737               -0.70603593                1.50124816               -0.09997963
              13.87882878                4.28816934               67.38621095                0.00010000                0.69787470               -1.03876495               -1.88096376               -1.28001644                1.58659843                3.65024346
              14.88711746                3.83735074               66.99429370                0.00010000                1.07202048               -2.27368176               -2.75059710               -1.35700617                1.77832935                7.51023762
              15.90026919                3.37627541               66.61272417                0.00010000                2.27028953               -7.06262666               -3.60890195              -19.59287297               22.70574697               15.11264057
              16.93252325                2.50972473               66.64210450                0.00010000                0.66456853               -0.26424211               -7.02523738              -32.47306486               37.82023474               13.80498968
              17.91356056                1.72230253               66.58600602                0.00010000               -1.30599356                8.43087151               -9.71799750              -31.53242903               33.57781626               23.74121621
              18.90640338                0.84932818               66.52387572                0.14667914                4.37934655               22.25051841              -45.92754511              -25.27896305               20.82675409               62.06803701
              20.00114749                0.21974376               66.18865160                0.45175201                9.47441151               23.52585344              -46.21294634              -13.60645181                8.98746462               61.81371423
              10.31850415                7.07068341               68.85073069                1.00000000               -0.23820178               -0.26684069                1.11722733               -0.02132527                0.30154451                0.75440829
              11.31612213                6.62700070               68.44194426                0.51831520               -0.12300862               -0.14094101                0.36776925                0.05324337                0.51787304               -0.36800447
              12.31604397                6.18374230               68.03702336                0.00010000               -0.51791809                0.08091181               -0.41628548                0.28066065                2.09275427               -1.25024364
              13.30576377                5.74366984               67.65991880                0.00010000               -0.69140657               -0.55716537                0.26462486               -1.99807014                6.20795522                1.53145357
              14.30221584                5.26237979               67.35079656                0.00010000                0.66591621               -2.12069159               -2.49322308               -3.84482206                9.66936172                6.70820711
              15.31908209                4.78419624               67.04268200                0.00010000                3.73511370               -5.32182103               -3.77453776               -6.67420851               13.42743582               13.13017693
              16.37691812                4.22633078               66.81740446                0.00010000                5.30888963              -11.01103363               -5.52615705              -16.22674174               21.10731949               21.96001099
              17.42525988                3.52038618               66.68330806                0.00010000                3.46517258               -0.04210178               -7.94848548              -23.98631609               31.66566019               14.97650891
              18.44622157                2.78615369               66.68809646                0.00010000               -0.59056180                5.82935246              -12.43689771              -17.50218216               53.61630454               18.35842768
              19.41344865                2.16202851               66.98678543                0.36780818               -1.56069194               15.76462378               -1.37804961               -5.83362242               34.10071925               33.04350026
              20.41500773                1.65335214               66.60373492                0.98756703                0.15590816               21.78549040               -0.86155950               -4.76441515                0.47853370               31.15507032
              10.76146873                8.06849113               68.72463983                0.91457186               -0.17702087               -0.16901819                0.91769902                0.01106041                0.06104251                0.61677414
              11.75969852                7.62571892               68.30817740                0.33176272               -0.06320143               -0.11882479                0.19268882                0.14096955                0.51306376               -0.56137733
              12.76020470                7.18440000               67.90043485                0.00010000               -0.25687224                0.00321899               -0.54895913               -0.59323863                5.74427526               -1.76216602
              13.75456107                6.72541181               67.58925611                0.00010000                0.06006174               -1.03252703               -1.67447554               -1.88450869               11.02966033                2.37896981
              14.76140593                6.24575551               67.29459418                0.00010000                1.75606080               -1.58388642               -2.96211787               -3.72127827               13.06342564                4.49053629
              15.78968229                5.73091432               67.03758149                0.00010000                3.90692423               -4.25076345               -4.55977633               -7.61212689               16.54705999                8.17588159
              16.83954442                5.15605474               66.82826709                0.00010000                5.16458631               -5.27709533               -6.24227162              -14.59576428               21.59177636               10.01851545
              17.89297401                4.50888269               66.69509468                0.00010000                4.11650850               -1.06819021               -8.29184054              -18.96965775               30.26620989               10.65388671
              18.92187459                3.83888958               66.68242892                0.00010000                1.47792349                3.06464878               -7.84700637              -18.83414105               41.72856957                9.52685613
              19.92253248                3.16462066               66.78047050                0.28988953                0.06686716                0.44511188               -0.72416770               -8.26980357               23.91045752               -0.33533637
              20.92321193                2.65545357               66.39770220                0.95567075                0.06794456                0.42806414               -0.46282605               -0.14746906               -0.10818646                0.16948218
              11.20426977                9.06730305               68.59786323                0.88094983               -0.12371195               -0.10411867                0.71624916                0.00129185                0.02060026                0.58423219
              12.20303265                8.62462421               68.17598245                0.30710238                0.01082722               -0.07017540                0.03363293                0.14900150                0.21902810               -0.41554836
              13.20448631                8.18380668               67.75781061                0.00010000                0.18427208               -0.00098486               -0.60230078               -0.69863911                7.26297718               -1.78527738
              14.20671809                7.72301930               67.47770730                0.00010000                0.89007301                0.10981448               -2.16058377               -2.48728794               14.43422243               -0.18229007
              15.22228777                7.23070206               67.21228473                0.00010000                2.49111172               -1.00440927               -3.63073015               -5.27781115               15.79765324                2.00468565
              16.25654032                6.69918097               66.97384430                0.00010000                4.23733452               -2.42791632               -5.14523096               -8.94996996               18.03374625                4.01612380
              17.30703446                6.12078888               66.77348835                0.00010000                5.32457816               -2.72082112               -6.70173116              -13.09093601               21.33205143                5.50088063
              18.36303189                5.49902237               66.62702983                0.00010000                5.33831607               -1.04252701               -7.94923826              -16.13571081               26.52550892                5.53157777
              19.41380078                4.84744667               66.55785949                0.00010000                3.42283501                0.43159499               -7.50273569              -17.06904503               34.04475711                3.15795748
              20.43148859                4.17093074               66.56832445                0.21629413                0.82958684                0.98033992               -1.06554257               -8.44948920               19.41622936               -0.89917599
              21.43039252                3.66191342               66.18966907                0.86395205               -0.10960670                0.88777427               -0.58738249               -0.20531613                0.01752547               -0.25864384
              11.64685225               10.06640875               68.47139751                0.87901832               -0.06773331               -0.08872030                0.51676690               -0.00244604                0.00178497                0.57561720
              12.64617492                9.62431541               68.04475274                0.33276272                0.04922878                0.01571684               -0.12611336                0.16197401                0.05565256               -0.31634124
              13.64783683                9.18438030               67.61898385                0.00010000                0.58725089                0.13864711               -0.65300175               -0.55396505                7.82536536               -1.37539965
              14.65791994                8.72760810               67.34813519                0.00010000                1.59256032                1.01731368               -2.41106917               -3.09778828               16.11840342               -2.25027274
              15.67968803                8.22566732               67.09778153                0.00010000                3.13380675               -0.16278602               -3.95899925               -6.86011182               17.67821001               -0.76940987
              16.72059607                7.68235599               66.87269096                0.00010000                4.90981314               -1.28102434               -5.64324465               -9.79912915               19.18856257                1.45156765
              17.77788430                7.10163831               66.67451609                0.00010000                6.15029682               -1.58523856               -7.15277428              -12.32509504               20.73586179                2.87295494
              18.84360201                6.48803215               66.50931299                0.00010000                6.53505100               -1.06899541               -8.08957459              -14.17219401               23.44997451                3.09092958
              19.90858532                5.84752148               66.39652754                0.00010000                4.77369722               -0.12509459               -7.66088365              -15.39201971               28.17877722                1.79596082
              20.93907595                5.18422746               66.34364135                0.21957228                1.42774723                1.24476239               -1.35798649               -7.80048692               15.97941640               -0.94357723
              21.93714026                4.67320906               65.96998451                0.86197187               -0.19356909                0.81492100               -0.59476121               -0.14120331                0.09322382               -0.44514199
              12.08840753               11.06552864               68.34502838                0.88025716               -0.01069482               -0.08706111                0.32880826               -0.00570637               -0.00986274                0.55284979
              13.08830058               10.62493854               67.91424469                0.38654568                0.08533975                0.09938614               -0.28523147                0.16428808                0.00280781               -0.23577031
              14.09011432               10.18657962               67.48355226                0.00010000                0.75873641                0.25961942               -0.70109585                0.05202080                7.04284002               -1.01988622
              15.10347531                9.74336557               67.19348867                0.00010000                2.01116613                1.67117978               -1.31969325               -4.32248257               16.50826516               -7.48831151
              16.13033764                9.22744634               66.95435230                0.00010000                4.05557201               -0.00014062               -3.77951853               -8.51953897               19.84778905               -2.65664232
              17.18458675                8.67356048               66.74632436                0.00010000                6.22593801               -0.82127192               -6.09499457              -10.13090811               20.66595167               -0.11503402
              18.25485640                8.08908411               66.54938594                0.00010000                7.45590473               -1.13424006               -7.73435513              -11.46164883               20.52212050                1.59378068
              19.33370484                7.47764247               66.36962645                0.00010000                7.74543404               -1.03164548               -8.52443177              -12.54861311               21.31542528                2.44313245
              20.40976508                6.84494478               66.22292809                0.00010000                5.80432156               -0.48023491               -7.44678530              -13.45321005               24.05664312                1.94410026
              21.44979127                6.19582599               66.11761893                0.27898549                1.99200829                0.83268197               -0.80817363               -6.84733194               13.22236825               -0.40938506
              22.44960525                5.67821184               65.74611565                0.91930254               -0.01860216                0.22427519               -0.19995630               -0.16475036                0.08828714               -0.27032972
              12.52791833               12.06466753               68.21884606                0.88438127                0.04913760               -0.06758260                0.15432665               -0.01982619               -0.01762936                0.51269591
              13.52840970               11.62630314               67.78450921                0.48606618                0.12659454                0.15953997               -0.44733162                0.11447051                0.05953029               -0.12750641
              14.53045022               11.18957269               67.35162318                0.00010000                0.10969336                0.29454238               -0.75745856                0.59555388                2.49436676               -0.58266239
              15.53060357               10.76103170               66.96564403                0.00010000                2.43260605                0.73644002                3.43537274               -5.12986110               16.89972485               -8.61247882
              16.57910234               10.22566451               66.80141750                0.00010000                6.28682859               -0.60967144               -3.63227870               -9.06501747               24.95360753               -3.15221318
              17.65634014                9.66593056               66.60576317                0.00010000                8.27335008               -1.07498751               -6.50026672               -8.93749103               22.02982077               -0.79981156
              18.74456934                9.07895351               66.41061180                0.00010000                9.02144664               -0.95449174               -8.43357357               -9.64763735               20.51518713                1.06287149
              19.83676907                8.46739924               66.21996494                0.00010000                8.83841245               -0.85826661               -9.12043829              -10.54389293               19.80436608                2.27150884
              20.92133759                7.83791678               66.04611485                0.00010000                6.60465889               -0.85460857               -7.09199754              -11.44569109               20.99748961                2.24744043
              21.96886225                7.20088109               65.89688825                0.37679477                2.38679866                0.34417444               -0.36427067               -5.84192751               11.05223686               -0.04189905
              22.96907356                6.67769456               65.52564778                0.97166345                0.02113100               -0.06860406                0.02409532               -0.12947125                0.01894628               -0.01478924
              12.96473979               13.06417699               68.09232150                0.81517681                0.09450355               -0.01820011               -0.01222182               -0.04577169                0.10876181                0.40314223
              13.96568483               12.62812934               67.65616941                0.55958436                0.12785222                0.21224785               -0.64858737                0.02316039                0.33896543               -0.00948334
              14.96729684               12.19247047               67.22459007                0.00010000               -0.04492801                0.29006309               -0.81112955                0.10589815                1.16857109               -0.18914851
              15.96478627               11.75809437               66.80477703                0.00010000                3.84207999               -0.11856582                3.40953870               -5.37719896               17.00841348               -3.99968529
              17.04413844               11.21525291               66.65035860                0.00010000                9.38808263               -2.52904489               -3.41787558               -6.55481603               26.66434948               -2.57071223
              18.15254792               10.65206073               66.46143973                0.00010000               10.81482672               -1.65436531               -6.97244050               -5.62414212               22.49957188               -0.60589169
              19.26043497               10.06999427               66.26450570                0.00010000               10.56578968               -0.96714538               -9.21822832               -5.81282462               19.86332122                0.63852174
              20.36386371                9.46047713               66.06278635                0.00010000                9.34672193               -0.45446437               -9.90964773               -6.89010398               18.05585724                1.63120538
              21.44736941                8.82785261               65.86575952                0.00010000                6.46556149               -0.28891475               -7.21455591               -7.81322169               18.00464963                1.90527267
              22.49317494                8.20270948               65.67796045                0.45756328                2.30097419                0.13556958               -0.20931137               -5.01497077                9.13973900                0.03044854
              23.49338889                7.67683976               65.30705961                0.97149354                0.02139501               -0.05109015                0.02078337               -0.04133121               -0.00035555                0.05901347
              13.39909819               14.06430353               67.96442363                0.89919419                0.14812411                0.01265363               -0.17855601                0.06029638                0.37620512                0.30338067
              14.40057943               13.63054809               67.52831692                0.82702851                0.17524807                0.24187502               -0.88738062                0.04298175                0.70825718                0.08266197
              15.40260315               13.19537395               67.09874906                0.60178217               -0.01511409                0.29034835               -0.94668461               -0.06375391                1.66475784               -0.00206189
              16.40027715               12.75866038               66.68129013                0.33766199                7.57182494                0.05660118                3.43146958               -7.46542878               19.29844879               -4.28508303
              17.55403965               12.17508361               66.51577704                0.33210910               14.44193928               -4.01692988               -3.78943833               -5.30073505               25.38340617               -0.95574759
              18.68911594               11.63284325               66.31986513                0.33551749               13.29283986               -1.92174859               -7.51550503               -2.11684853               20.69548369               -0.31110387
              19.81989645               11.05961061               66.11144143                0.34686048               12.59963616               -1.03836653              -10.11322131               -2.78051693               17.27756693                0.39091966
              20.94110866               10.45830995               65.89279176                0.36657169               10.14721791               -0.21671794              -11.05410764               -3.64911127               14.81390055                0.93946605
              22.02284081                9.83213849               65.67476761                0.39495027                3.92335126                0.42858816               -8.29336515               -5.18873359               14.49994482                1.23453187
              23.01957568                9.20359249               65.45903667                0.73144601               -0.14272108                0.08830054               -0.25711682               -5.13321227                7.74810366                0.02509288
              24.01998638                8.67667276               65.08830675                0.98577313                0.04107006               -0.01669991               -0.09001890               -0.03222360               -0.00482466                0.04233568
               9.38083653                4.21525203               70.23927636                1.00000000               -0.37003624               -0.44540041                1.56162333               -0.13332955               -0.41953986                0.53884605
              10.37713616                3.76089532               69.83116401                1.00000000               -0.27501618               -0.23746647                0.88538549               -0.10256859               -0.50717977                0.06662063
              11.37533620                3.30603630               69.42062972                0.98454561               -0.08538614               -0.03588602                0.21938813               -0.10208949               -0.51750087               -0.06981089
              12.37542844                2.85030152               69.01222780                0.58928348                0.05480845                0.18124098               -0.46093535               -0.17734646               -0.42732294               -0.43910702
              13.37643237                2.39237650               68.60395698                0.46010282                0.18870702                0.43455059               -1.18415422               -0.22605109               -0.26884483               -0.28657327
              14.37920258                1.93212448               68.19952562                0.22791796               -0.15735600                0.65898769               -1.95263003               -0.87132559                0.49482073               -0.59292722
              15.37328525                1.45738610               67.80795611                0.00010000              -10.88851833                1.40593025               -2.60128007              -20.06398658               13.31883349               -1.67930296
              16.16143222                0.59128982               67.66724247                0.00010000              -11.56311064                4.25348096               -4.19354262              -20.19029406               23.13637494                3.14135449
              17.14202304               -0.27096724               67.43848885                0.00010000                7.06943231                2.01243823               -3.91756088              -16.83668447               15.82219310                7.33588967
              18.30282086               -1.12933664               67.13066997                1.00000000                8.31576836                0.78565109               -1.65905406              -16.46995432                5.67764490                0.02809519
              19.30833841               -1.66664530               66.70884664                1.00000000                0.55175449                0.96486146               -2.20261585                0.23795896               -0.09366381               -0.09237067
               9.83385994                5.21079802               70.11148842                1.00000000               -0.31415982               -0.41234891                1.38571902               -0.02748225                0.03211859                0.76015117
              10.83071834                4.75852065               69.70317596                1.00000000               -0.21238665               -0.21339436                0.70956536                0.00039256                0.10684841                0.09640703
              11.82961221                4.30567744               69.29576957                0.96948494               -0.01167331               -0.01277553                0.03793518                0.00248907                0.13819579               -0.26491956
              12.83048487                3.85211393               68.88810995                0.59486973                0.18240884                0.19851406               -0.63666283               -0.04735366                0.35392743               -0.43326068
              13.83326038                3.39672201               68.48562365                0.55144762                0.37498259                0.42708914               -1.40290444               -0.07612446                0.50801092               -0.29167599
              14.83798453                2.93871436               68.08219495                0.33772937                0.49011655                0.65478641               -2.16629540               -0.45122609                0.73106339               -0.51969412
              15.84306271                2.47144541               67.68612329                0.00010000               -0.71392913                1.07873488               -2.95372164              -18.54676415               15.39100633               -0.93874818
              16.82370594                1.63382463               67.57934425                0.00010000               -0.45466436                1.61184082               -5.23910811              -27.76093090               25.06378248                6.56308989
              17.83396943                0.74915715               67.37044517                0.00010000                0.61272026                4.74450722               -9.23153640              -28.55318307               10.36654743               13.90267560
              18.83596035               -0.12148013               66.95962848                0.43537811                0.70286130               12.62956070               -3.65927177              -18.73517194                0.57710700               18.28409961
              19.84802665               -0.65699668               66.53779367                1.00000000                1.20663034               12.13444561               -4.19833606               -0.99402345                0.09732949               20.65886364
              10.28484162                6.20700505               69.98722188                1.00000000               -0.25770221               -0.33791318                1.19721223               -0.02909321                0.18631064                0.89024331
              11.28226460                5.75662743               69.57544784                1.00000000               -0.15244565               -0.16724467                0.52936242               -0.00213195                0.38955463                0.01316751
              12.28179271                5.30578079               69.16722234                0.00010000                0.05861007                0.04142206               -0.14279854               -0.00729020                0.86267858               -0.72890181
              13.28343680                4.85427180               68.76500824                0.00010000                0.32583766               -0.52140034               -0.80328957               -0.84064836                1.43852233                0.90570849
              14.28830946                4.40091829               68.36886527                0.00010000                0.60089333               -0.96347352               -1.58903303               -1.47786904                1.46925496                3.41852910
              15.29545466                3.94522021               67.96879436                0.00010000                0.94651162               -2.22602136               -2.34939090               -1.82996578                1.67678380                7.13065987
              16.30723969                3.47896080               67.57905408                0.00010000                1.65235956               -6.66471970               -3.12068180              -19.74677645               21.30327288               14.23066603
              17.32850186                2.62352664               67.57416119                0.00010000                0.95122246                0.24644482               -7.03453979              -33.63408547               33.91029310               12.10111562
              18.32626414                1.82392291               67.45463959                0.00010000                0.28846982                8.37871696              -12.22035550              -25.89699884               20.35477983               20.13091838
              19.33427125                1.12325457               67.15336852                0.00010000                1.66134514               23.97570827              -39.92957026              -14.42078290                9.70736506               62.68480554
              20.35949104                0.57604361               66.78153559                0.08199820                2.52197911               25.66389208              -46.78993021               -6.95427308                3.15585601               68.86506453
              10.73403331                7.20403976               69.86136253                1.00000000               -0.21333495               -0.25621225                1.01026269               -0.02271136                0.29801347                0.72277897
              11.73189996                6.75517576               69.44555955                0.49359652               -0.11056399               -0.12966935                0.35409594                0.03552415                0.50203026               -0.36557404
              12.73182203                6.30650588               69.03335475                0.00010000               -0.66827747                0.08226070               -0.31415864               -0.73050396                3.05444721               -1.21620887
              13.71853441                5.84168593               68.66873662                0.00010000               -0.95337155               -0.70143360                0.17948462               -2.08952262                6.35017332                1.33962258
              14.71275460                5.37745254               68.32637585                0.00010000                0.24041438               -2.04965098               -2.12921030               -3.25207015                8.42955660                6.35608134
              15.72334270                4.89419393               68.00680834                0.00010000                2.85330768               -4.90734699               -3.34498881               -7.18485842               12.73597104               12.31549741
              16.76982075                4.33815101               67.76299020                0.00010000                4.13597143              -10.09978925               -5.17995442              -16.76228533               19.44059623               20.49949026
              17.80606213                3.63875353               67.59856200                0.00010000                2.32403822                0.89295350               -8.24989783              -24.37755173               27.46964905               13.22376333
              18.81630152                2.91673149               67.54336931                0.00010000               -0.53190703                8.52038548              -15.91668612              -15.78677637               54.11466951               18.40740712
              19.79542399                2.35803404               67.96344685                0.19851987               -0.64692041               12.29453784              -12.27430824               -4.61272873               39.42784359               44.14718210
              20.80336311                1.85628116               67.58901600                0.80311537                0.79391226               14.36203898               -7.32638224               -2.96717015                2.47202267               46.33351282
              11.18211539                8.20188080               69.73339281                0.91073378               -0.16064321               -0.17597912                0.83377693               -0.00050792                0.05185360                0.58742208
              12.18050896                7.75403404               69.31008190                0.31063900               -0.07214636               -0.10245478                0.18708741                0.11308568                0.50388735               -0.54581156
              13.18067246                7.30742600               68.89548315                0.00010000               -0.49046347                0.05655928               -0.45209051               -0.79766059                5.48248110               -1.66644403
              14.17069969                6.84024313               68.57237379                0.00010000               -0.49562042               -0.01471201               -1.52294243               -1.94428150               10.57708016                1.16453566
              15.17076005                6.35992527               68.26685068                0.00010000                1.01796688               -1.45699963               -2.60451412               -3.53598358               12.50441133                4.07259695
              16.19105902                5.84707327               67.99351250                0.00010000                2.83371654               -3.66600507               -4.13592608               -7.40523907               15.63158238                7.45001804
              17.22743438                5.27696502               67.76639071                0.00010000                3.56556611               -4.32249755               -5.98900014              -14.11586602               19.92976681                9.16187512
              18.26237035                4.64138571               67.60554690                0.00010000                3.19068617                0.32743235               -8.76589762              -17.90562226               28.27599039               10.08670327
              19.29124811                3.99433062               67.58569031                0.00010000                2.00483292                5.19120376              -12.75228853              -15.77135705               43.55215405               10.82740260
              20.30246701                3.36914533               67.77149724                0.15050841                0.62026436                1.12901946               -4.37233054               -5.95901152               26.96459448               -1.99297422
              21.30365339                2.86328439               67.39274826                0.79040606                0.11863891                0.84180983               -1.81179481               -0.33553609               -0.39466972               -1.55030306
              11.62971667                9.20052018               69.60475011                0.88359248               -0.11001970               -0.12681855                0.66242909               -0.01200014                0.01462836                0.55912290
              12.62861647                8.75312666               69.17631093                0.28313314               -0.00284695               -0.05517940                0.02979168                0.13501636                0.24381532               -0.39856707
              13.62965973                8.30763707               68.75218156                0.00010000               -0.07334777                0.05451863               -0.54074907               -0.74096706                6.90033638               -1.69536570
              14.62714952                7.84139168               68.45760820                0.00010000                0.27725305                0.23989049               -1.83459868               -2.35286504               13.69000016               -0.41954464
              15.63520479                7.34831255               68.17803187                0.00010000                1.55243259               -0.75216387               -3.16527978               -4.70346719               15.04885131                1.43519631
              16.65819817                6.82087383               67.92442479                0.00010000                2.89930991               -1.89109238               -4.65107090               -8.09717287               17.10021445                3.34679396
              17.69319099                6.25170106               67.70709175                0.00010000                3.61929551               -1.77452034               -6.40696078              -11.87078118               20.02562561                4.77607127
              18.73058408                5.64530218               67.54291258                0.00010000                3.99618830                0.27445462               -8.47591480              -14.12628450               24.99297094                5.32243598
              19.77311476                5.02055556               67.46603969                0.00010000                3.83529506                1.95930356              -10.78420465              -14.84983644               35.54666882                2.71046558
              20.80728998                4.38061442               67.55360622                0.07622049                1.76297514                1.54471727               -7.64592909               -7.10230030               21.98152983               -0.75636504
              21.80837426                3.87311735               67.18243140                0.70727451                0.10842784                1.34558138               -3.53698943               -0.41765993                1.48713848               -0.98595370
              12.07666241               10.19934443               69.47649276                0.88739668               -0.05700165               -0.11776463                0.49886017               -0.02115994               -0.00505831                0.56992595
              13.07609239                9.75293046               69.04344277                0.29934367                0.04628453                0.02191785               -0.13767599                0.13269508                0.11327374               -0.31344627
              14.07758810                9.30851638               68.61255083                0.00010000                0.34372568                0.15218158               -0.65070825               -0.67993098                7.47169095               -1.33164139
              15.08296691                8.84504094               68.32699433                0.00010000                0.98102338                0.59964707               -1.91165238               -2.70269988               15.26888528               -2.18606122
              16.09720857                8.34488199               68.06098521                0.00010000                2.13800740               -0.14357088               -3.35162458               -5.67861669               16.74415030               -0.98707397
              17.12572705                7.80925142               67.81927951                0.00010000                3.41909218               -0.81570834               -4.98542109               -8.31781653               18.09445604                0.78561554
              18.16559041                7.24147461               67.60466954                0.00010000                4.26315512               -0.75619279               -6.67028588              -10.47587322               19.52725761                2.14488052
              19.21099016                6.64687480               67.42668283                0.00010000                4.66743597                0.10603000               -8.29662562              -11.78732216               21.92937454                2.59539457
              20.25893913                6.03351669               67.30411607                0.00010000                4.84345245                1.03832882               -9.78743992              -12.77425724               29.39664472                1.72061661
              21.30785921                5.40003967               67.32399358                0.07540810                2.56776025                1.70450817              -10.32628030               -6.68009899               18.23158647                0.00444690
              22.31029434                4.89019602               66.96176534                0.70613646                0.24351297                1.19009632               -6.33092107               -0.40298175                3.58710484               -0.29758605
              12.52212142               11.19816488               69.34846504                0.88983639               -0.00229938               -0.11265511                0.34680084               -0.03394578               -0.01214786                0.58001933
              13.52209843               10.75356502               68.91121039                0.33369635                0.09146012                0.09978389               -0.31976509                0.10724632                0.10722905               -0.25450199
              14.52395063               10.31068070               68.47618960                0.00010000                0.73157383                0.26548697               -0.78986714               -0.49315867                7.12840341               -1.01786277
              15.53672991                9.85338463               68.17934206                0.00010000                1.67356770                0.43882073               -1.19117333               -2.82855233               15.82918208               -4.25006170
              16.55742198                9.34544113               67.92180481                0.00010000                2.92596568               -0.08327622               -2.96658700               -6.43905889               18.43354712               -2.87260700
              17.59524922                8.80455966               67.68957447                0.00010000                4.43140816               -0.47979137               -5.18386020               -8.05771589               19.07842833               -0.69450616
              18.64605014                8.23657720               67.47562203                0.00010000                5.37731679               -0.42394710               -6.95250456               -9.18810609               19.11859141                0.86814558
              19.70279555                7.64742278               67.28456851                0.00010000                5.92072977               -0.04650619               -8.33279125               -9.88101673               20.02834566                1.81623257
              20.76446474                7.04132214               67.13693148                0.00010000                5.71065566                0.41519470               -9.42852984              -10.30638669               25.61181185                2.63518126
              21.81700867                6.41470459               67.10654720                0.11033967                2.77685963                1.01950264               -6.60895460               -5.73946977               15.26658792                0.38133099
              22.82000193                5.89691928               66.74292937                0.74257040                0.29932622                0.33203710               -3.13613207               -0.35894573                1.68931486               -0.09467003
              12.96518322               12.19709133               69.22074811                0.89552230                0.05382862               -0.08648100                0.20396876               -0.05605388               -0.00445376                0.57594109
              13.96572150               11.75492613               68.77955221                0.40135865                0.13610519                0.17300702               -0.53033688                0.05006766                0.23401304               -0.19123908
              14.96790532               11.31382612               68.34303870                0.00010000                1.29569625                0.35276883               -0.97821659               -0.84156165                6.17109193               -0.60232792
              15.99163543               10.85381736               68.02042038                0.00010000                2.46735173               -0.59451339                3.01294904               -2.88894739               16.45822590               -5.12709924
              17.01725236               10.34321647               67.76824396                0.00010000                4.09006164               -0.78007957               -2.55280016               -5.81295512               20.36788527               -3.34559665
              18.07343666                9.79965559               67.54689630                0.00010000                6.08564085               -0.69672487               -5.31228250               -6.73494060               20.08970929               -1.21332918
              19.13896517                9.23299567               67.33205979                0.00010000                6.75941139               -0.39795706               -7.27792677               -7.32654684               18.73835934                0.44947106
              20.20862489                8.64594468               67.13082939                0.00010000                7.32822059               -0.11774057               -8.53094628               -7.96760857               18.88739677                1.81454375
              21.28552958                8.04182058               66.96968067                0.00010000                6.44238886               -0.21471914               -9.07589886               -8.77554678               22.96360123                3.21091494
              22.33747267                7.42042973               66.89235251                0.17595238                2.65782246                0.39314632               -2.39971892               -4.97363439               13.46886482                0.47069364
              23.33868603                6.89683676               66.52558355                0.81141493                0.12133676               -0.03548087               -0.53729041               -0.20922933               -0.00957827                0.00115578
              13.40533074               13.19643526               69.09278301                0.82284100                0.10342581               -0.04075303                0.06884004               -0.07198707                0.10288837                0.48690452
              14.40636500               12.75702516               68.64863743                0.41913153                0.14487160                0.25970281               -0.80901396               -0.01453657                0.62297840               -0.12497569
              15.40822817               12.31773608               68.21471985                0.00010000                2.15978061                0.41446599               -1.15234195               -1.84888819                5.69360719               -0.21777407
              16.44956061               11.84149436               67.87193077                0.00010000                4.35482354               -2.75577333                4.11107427               -2.14658539               16.86552645               -3.45583475
              17.49532464               11.32983954               67.61935913                0.00010000                6.06052991               -1.72159902               -2.21140314               -3.44247566               21.32670539               -2.50168731
              18.57077121               10.79062516               67.39963875                0.00010000                7.89527395               -1.27551105               -5.44893004               -3.86576300               20.01449891               -0.83661804
              19.65323012               10.22861806               67.18057075                0.00010000                8.19236303               -0.57523658               -7.61602558               -4.25843693               17.71077064                0.26137111
              20.73461847                9.64506796               66.96889534                0.00010000                8.06193164               -0.07219931               -8.80936692               -5.15285427               17.33224154                1.43566317
              21.81446875                9.03702775               66.79324576                0.00010000                6.39506667                0.05073431               -8.72317632               -6.36163358               20.37622160                2.66135915
              22.86251980                8.42256751               66.67565055                0.24677134                2.42672601                0.16768356               -0.79761389               -4.43811166               12.04400933                0.43824758
              23.86300327                7.89620966               66.30726980                0.87878279                0.04834722               -0.03501570               -0.05122228               -0.06263248               -0.25142294                0.02366663
              13.84256368               14.19627627               68.96339236                0.90170003                0.15662809               -0.01589941               -0.06738454                0.10768620                0.35786347                0.40021149
              14.84412996               13.76012019               68.51798959                0.73318753                0.19473407                0.30950279               -1.10048265                0.06845478                1.11068185               -0.07598978
              15.84645836               13.32211544               68.08748547                0.50213262                4.62351490                0.43793605               -1.28130414               -4.24789593                6.47771514               -0.01385808
              16.93660026               12.79870189               67.75058047                0.33661129                7.64068392               -4.27924695                3.62988952               -1.96258250               18.63963862               -3.22826524
              17.99927204               12.30878449               67.48133304                0.33215940                8.03713091               -2.10550528               -2.32185189               -0.83308605               19.71215994               -0.79715353
              19.09734288               11.77414537               67.25431795                0.33531434               10.00407967               -1.64797914               -5.64837009               -1.70751049               17.98051466               -0.23564415
              20.19935363               11.22149094               67.02174739                0.34590340                9.99076183               -0.71271282               -7.85959706               -1.86988267               14.70337779                0.34749871
              21.29715811               10.64450069               66.79162055                0.36448847                9.07218658               -0.05672728               -9.11913367               -2.67881864               13.68201832                1.09484198
              22.38079736               10.04283527               66.59509943                0.39176870                4.61852056                0.58075153               -9.19923778               -4.40300345               17.17587871                2.18135230
              23.38952852                9.42378340               66.45639713                0.63402527                0.46758607                0.12158851               -0.76921407               -4.63406862               11.36394409                0.54703962
              24.39014909                8.89613645               66.08757469                0.94619740                0.06205611               -0.00732142               -0.20858428               -0.05011368                0.02533214                0.03701835
               9.78821419                4.34922217               71.25408251                1.00000000               -0.33667802               -0.40045152                1.40069416               -0.11399143               -0.40573889                0.52356709
              10.78484741                3.89040849               70.83969971                1.00000000               -0.25627683               -0.22099936                0.82231882               -0.08551524               -0.48910632                0.06305535
              11.78308865                3.43112446               70.42298619                0.98327939               -0.09496181               -0.04690897                0.25163482               -0.08588037               -0.50104569               -0.06697851
              12.78294817                2.97101728               70.00827792                0.58925482                0.02296220                0.13760467               -0.33016159               -0.15672894               -0.43446677               -0.41813140
              13.78354790                2.50889317               69.59335500                0.45101801                0.13367974                0.35201095               -0.94068185               -0.20478869               -0.31537293               -0.29464398
              14.78562177                2.04464328               69.18183188                0.20487828               -0.37919835                0.53639773               -1.59285696               -0.98581827                0.49294317               -0.58315565
              15.77596393                1.56352053               68.78442141                0.00010000              -10.20381117                1.41898507               -2.10402021              -18.94617911               12.94308725               -1.81397691
              16.58154554                0.71400678               68.62940376                0.00010000              -10.00195892                3.60073192               -3.34782414              -18.65327662               23.51631597                2.93461420
              17.57592475               -0.12185807               68.40231138                0.00010000                7.28673309                0.12970973               -3.30964794              -16.34863338               17.93382536                4.07284109
              18.72728021               -0.94815703               68.11490128                1.00000000                7.80005173                0.81586055               -1.50427024              -14.89808985                6.93294102                0.04334702
              19.73192579               -1.48658503               67.68774946                1.00000000                0.46455798                0.99084107               -1.99801902                0.32303662               -0.05135756               -0.05501260
              10.24588796                5.34521766               71.12461833                1.00000000               -0.28468500               -0.37317343                1.24105181               -0.02242042                0.03396163                0.73864997
              11.24304111                4.88819849               70.71003682                1.00000000               -0.19812534               -0.19954886                0.66280411                0.00367430                0.11033178                0.09036653
              12.24192545                4.43065537               70.29639618                0.96614221               -0.02722906               -0.02529617                0.08757704                0.00299842                0.14369271               -0.26144564
              13.24249653                3.97239332               69.88249541                0.60887912                0.13807769                0.15126685               -0.48715424               -0.04513942                0.31886647               -0.40657446
              14.24468701                3.51241328               69.47295468                0.55222418                0.29766895                0.34472711               -1.13399195               -0.07531004                0.43248788               -0.28207015
              15.24844991                3.05000726               69.06248377                0.32039878                0.35666907                0.53536315               -1.78146200               -0.49301784                0.64356339               -0.49512627
              16.25182039                2.57771038               68.65904150                0.00010000               -0.53739171                1.02506481               -2.46724884              -17.74946353               14.48898622               -0.95998132
              17.23770207                1.75001410               68.52875620                0.00010000               -0.41500334                0.92612538               -4.78739547              -27.23366442               23.00299512                5.79723581
              18.24352032                0.87943903               68.28385831                0.00010000                1.14803566                3.69274127               -7.20188771              -26.22442243               11.65394630               11.40763102
              19.26066279                0.06000158               67.92202719                0.59332745                1.50319141                2.36814751               -3.80590986              -15.48705889                3.33010744               -0.22623701
              20.27358415               -0.47667661               67.49491651                1.00000000                1.29213628                1.62038755               -4.33232942                0.13241449                0.05125693               -2.61294152
              10.70180411                6.34175870               70.99856188                1.00000000               -0.23209316               -0.31247957                1.07154645               -0.02499842                0.18321214                0.86448077
              11.69948318                5.88641751               70.58059584                1.00000000               -0.14251594               -0.15716677                0.50030883               -0.00053817                0.38394859                0.00615591
              12.69895379                5.43061854               70.16614174                0.00010000                0.04021500                0.02509675               -0.07439148               -0.01722520                0.86034242               -0.71674566
              13.70028748                4.97404261               69.75780734                0.00010000                0.27369854               -0.46482933               -0.63582779               -0.87906089                1.38383758                1.11713194
              14.70442776                4.51578771               69.35443029                0.00010000                0.50884196               -1.04486382               -1.30072605               -1.53219111                1.37059649                3.34623785
              15.71046432                4.05535054               68.94730588                0.00010000                0.82700285               -2.21096066               -1.95133069               -2.15143189                1.58020631                6.78171844
              16.72096782                3.58402182               68.55031053                0.00010000                1.23396426               -6.43632055               -2.63768878              -20.03326299               19.37273419               13.36024006
              17.73514360                2.73252929               68.50141371                0.00010000                1.02405040                0.17308186               -6.57546944              -33.77266915               31.05745492               11.09212612
              18.74144882                1.95199676               68.34159891                0.00010000                1.92555366                7.19060437              -12.90157620              -35.66067897                4.30899110               16.67823125
              19.77365467                1.09920592               67.72528432                0.00010000                3.32408181               18.34209237              -26.15418999              -25.52389922               -9.45892183               47.86406855
              20.80793046                0.54582273               67.25285300                0.12265984                3.42757871               22.27431690              -29.42456945               -8.35203257               -3.45860867               55.49107525
              11.15607038                7.33896806               70.87093594                1.00000000               -0.18998710               -0.24533574                0.90446346               -0.02511546                0.29217603                0.70578014
              12.15417051                6.88505516               70.44902618                0.46279813               -0.10572679               -0.11831001                0.34027599                0.01959979                0.49566321               -0.36838171
              13.15395584                6.43115731               70.03074019                0.00010000               -0.72121858                0.08128835               -0.21944528               -0.66748882                3.21823712               -1.19068771
              14.13974614                5.96309674               69.66350849                0.00010000               -1.06102950               -0.71058333               -0.63154972               -2.25968152                6.30002594                2.16392023
              15.13273525                5.49151601               69.30821235                0.00010000               -0.12794873               -2.01181441               -1.69507820               -3.56905015                7.95714418                5.94590117
              16.13718716                5.00578805               68.97578222                0.00010000                2.06205653               -4.65261543               -2.87070655               -7.51112252               12.25745170               11.60850985
              17.17397638                4.44898397               68.71380537                0.00010000                2.85432956               -9.44155653               -4.64576615              -17.35873819               18.49476766               19.08068780
              18.19427375                3.75347574               68.51831011                0.00010000               -0.51731378                1.68684427               -7.91961604              -26.08411132               23.42737707               12.42702801
              19.16363011                3.02325112               68.36976274                0.00010000               -1.89574586                9.03852462              -14.90283846              -22.05569086               49.02356365               15.52697117
              20.15635884                2.42684343               68.74129926                0.06729869                2.48398921               21.76979406              -47.80014848               -8.66648248               44.82105851               52.44397239
              21.21330989                1.96880972               68.45720727                0.67782241                5.69510564               24.26046921              -50.05112497               -2.55906848               22.67388496               56.67533648
              11.60912761                8.33685199               70.74131537                0.90943633               -0.14416867               -0.17912521                0.74980090               -0.01155220                0.04170287                0.58466696
              12.60768593                7.88405131               70.31191915                0.28374697               -0.07825907               -0.08815806                0.18046154                0.08496533                0.50155604               -0.54458817
              13.60756243                7.43224431               69.89139304                0.00010000               -0.64753888                0.08371863               -0.37043027               -0.84902196                5.31863775               -1.63462949
              14.59473515                6.95983095               69.55879726                0.00010000               -0.86034924               -0.15444340               -1.21281454               -2.08856151               10.32439731                0.89620127
              15.59035545                6.47555143               69.24250390                0.00010000                0.40193776               -1.31222755               -2.27003441               -3.69098781               12.26151756                3.65640997
              16.60277390                5.96229824               68.95486296                0.00010000                1.78749566               -3.27190993               -3.65636072               -7.40315826               15.20428571                6.76670311
              17.62610536                5.39519069               68.70848709                0.00010000                1.82101583               -3.54762504               -5.54282323              -14.04746338               19.28264223                8.28880878
              18.63919422                4.76626617               68.51977672                0.00010000                0.04309795                1.54297121               -8.62697230              -17.63769169               25.60357958                9.25920824
              19.62696732                4.13276725               68.42738315                0.00010000                0.77860993                7.99895520              -15.49911659              -14.06269789               46.07183011               11.16215134
              20.65476642                3.53460180               68.69302389                0.01254370                2.29245879                8.82318403              -29.36390624               -5.16832499               36.22140330               -0.85470374
              21.67281650                3.03103211               68.36146631                0.63821342                1.80500760                5.21837711              -26.17210878               -0.89821740               13.90995448               -1.49831928
              12.06144069                9.33538556               70.61111181                0.88904810               -0.09631989               -0.13798245                0.60404394               -0.02318430                0.00776868                0.57478694
              13.06047749                8.88329200               70.17657829                0.25413114               -0.01224643               -0.04521431                0.02603650                0.10712566                0.26850116               -0.40569848
              14.06119577                8.43283168               69.74699563                0.00010000               -0.29048537                0.07475643               -0.50007697               -0.85637327                6.66854980               -1.70107497
              15.05466779                7.96000787               69.44101532                0.00010000               -0.23737784                0.11610349               -1.51111815               -2.37160538               13.22538097               -0.52644339
              16.05644821                7.46527145               69.14897914                0.00010000                0.74084721               -0.66992633               -2.69409208               -4.38638061               14.63072527                1.10674865
              17.06948473                6.94034985               68.88082288                0.00010000                1.63054848               -1.46898080               -4.13748749               -7.56065209               16.69574161                2.75701353
              18.08905918                6.37803146               68.64534913                0.00010000                1.72293138               -0.95925265               -5.97761784              -11.05469589               19.57731729                4.02146488
              19.10394336                5.78433516               68.45751154                0.00010000                1.24906716                1.60089678               -8.68904512              -12.56262438               24.07823313                4.51403288
              20.11404052                5.18323022               68.34217539                0.00010000                2.53920596                3.91373858              -12.92021449              -10.43939604               35.03449824                3.80179478
              21.15472748                4.60330711               68.41540586                0.00010000                4.42222060                4.83868033              -24.45278669               -5.93804860               26.86291595               -7.83951526
              22.20248493                4.07317727               68.11892928                0.55920811                4.77574546                3.78636273              -22.15756831                0.01313291               14.82702193               -5.72308315
              12.51285106               10.33409234               70.48137472                0.89603203               -0.04687383               -0.12559401                0.46559663               -0.03287313               -0.00940198                0.61253018
              13.51238232                9.88314702               70.04199922                0.26429830                0.04340183                0.02235365               -0.14431557                0.09450983                0.16723918               -0.34354502
              14.51371909                9.43373944               69.60596969                0.00010000                0.12404751                0.14514105               -0.66410458               -0.88195249                7.31674383               -1.39957420
              15.51486327                8.96215302               69.30990215                0.00010000                0.42833817                0.24652055               -1.56069733               -2.59052915               14.78102096               -1.79032054
              16.52228586                8.46215290               69.03074903                0.00010000                1.19687917               -0.12680057               -2.80962276               -4.84532162               16.11432604               -0.97390684
              17.53880085                7.93291862               68.77298254                0.00010000                1.93701356               -0.41481386               -4.36707781               -7.16469531               17.49964831                0.30545623
              18.56102613                7.37600564               68.54111037                0.00010000                2.19710617                0.05126546               -6.15520129               -9.07297499               19.10654567                1.35209713
              19.58274298                6.79828411               68.34338048                0.00010000                1.90906635                1.27426935               -8.32692408               -9.79723347               21.78703602                1.76340948
              20.59920746                6.21104202               68.20077874                0.00010000                3.16577146                2.44267864              -11.50452839               -9.04632942               26.76861934                1.40265732
              21.64605841                5.63137541               68.13711574                0.00010000                6.70656897                1.58932868              -22.01532915               -5.49424975               19.52293703               -0.19248717
              22.73333883                5.10675936               67.84336609                0.55460051                8.72804299                1.96614826              -20.42728038               -2.05449061               13.01109189               -0.33664628
              12.96267386               11.33287368               70.35196440                0.90082299                0.00467299               -0.11119775                0.33307843               -0.04496126               -0.01068358                0.65441131
              13.96272059               10.88373907               69.90784939                0.28607214                0.09384280                0.09521475               -0.33545301                0.06389396                0.19598085               -0.31891221
              14.96455072               10.43573450               69.46775491                0.00010000                0.58615733                0.26282247               -0.87941954               -0.97579999                7.49214468               -1.15610136
              15.97444374                9.96493828               69.16966520                0.00010000                1.21127264                0.18739918               -1.10238021               -2.66497522               15.41318359               -2.72273741
              16.98877617                9.46273544               68.89502056                0.00010000                1.89471729               -0.04773212               -2.53957114               -4.75932212               17.10201133               -2.25608817
              18.01233809                8.93205357               68.64264715                0.00010000                2.67290077               -0.06594614               -4.38541766               -6.40805114               18.00023930               -1.08426521
              19.04223419                8.37905677               68.41033585                0.00010000                3.03121093                0.34942886               -6.21928228               -7.39278593               18.50894340                0.04688140
              20.07296231                7.80982055               68.20297063                0.00010000                2.88942221                1.05395913               -8.12213286               -7.64099156               19.59080731                0.86600381
              21.10002263                7.23208380               68.03435749                0.00010000                3.80814189                1.73893909              -10.67883489               -7.74239160               25.23622853                1.16037729
              22.14912514                6.63509368               67.98543984                0.00010000                5.53022905                0.49081070              -18.96710475               -4.16526492               18.73007350                7.54550656
              23.21062721                6.11250023               67.68339301                0.56945626                6.15020706                0.33089401              -17.27894252               -3.80529045               11.30463973                5.84251098
              13.41022105               12.33186838               70.22292543                0.90719223                0.05783206               -0.08014212                0.20194474               -0.06096392               -0.00076059                0.67917836
              14.41079938               11.88505132               69.77390248                0.32868456                0.13914140                0.17266878               -0.56021301                0.03072299                0.36025335               -0.31713991
              15.41300388               11.43899588               69.33205884                0.00010000                1.18817244                0.39668587               -1.17794101               -1.29127002                7.50552969               -0.77855111
              16.43456282               10.96590100               69.02590301                0.00010000                2.34901208               -0.30603456               -0.18793553               -2.73919247               15.46079659               -2.57387992
              17.45998412               10.46119826               68.75036149                0.00010000                2.98778373               -0.53026817               -1.90798649               -4.00564539               17.85297782               -2.50158609
              18.49431850                9.93159970               68.49951752                0.00010000                3.77096532               -0.20734212               -4.31281531               -4.94579287               18.20068189               -1.46776829
              19.53540343                9.38299422               68.26505326                0.00010000                4.12888123                0.32386601               -6.25471923               -5.45384010               17.82953400               -0.32805200
              20.57689612                8.81936329               68.04934602                0.00010000                4.18415312                0.92893439               -8.04096586               -5.61510887               17.89920063                0.84592584
              21.61908649                8.24582081               67.86459688                0.00010000                5.27202741                1.17886176              -10.21627955               -6.50278339               24.93348563                2.18803570
              22.68233667                7.64119162               67.84889388                0.00010000                4.16667155                0.61680675              -15.87661991               -3.07688086               17.65974338                7.14470863
              23.70241992                7.11337724               67.51490197                0.60079431                2.00832525                0.14108585              -13.80281898               -2.05670254                7.37797871                4.90959499
              13.85508872               13.33127084               70.09369830                0.83009213                0.11188336               -0.03896602                0.07348443               -0.06584279                0.07057317                0.61411429
              14.85620755               12.88719244               69.63998913                0.30384736                0.13934587                0.26363250               -0.83855741                0.01489833                0.83609045               -0.31399710
              15.85787564               12.44366822               69.20154323                0.00010000                2.06249835                0.52848382               -1.42973532               -2.09060783                7.79410758               -0.37707831
              16.89745752               11.95881759               68.88699852                0.00010000                4.25444663               -1.45526571                0.30130274               -2.34393097               15.20641809               -1.48814099
              17.94296457               11.45213008               68.60613054                0.00010000                4.70843758               -1.30027753               -1.52821463               -2.31748073               17.72098442               -1.61437817
              18.99162627               10.92790673               68.35246113                0.00010000                5.12146111               -0.64138650               -4.18537630               -2.63012992               17.64077728               -1.04808237
              20.04539379               10.38553409               68.11218519                0.00010000                5.31036337                0.06065488               -6.21216344               -2.91247625               16.50642800               -0.26665285
              21.09783354                9.82839924               67.88659901                0.00010000                5.13724211                0.76965350               -7.91727187               -3.26861028               16.08951154                0.68934890
              22.14813863                9.25566103               67.69129599                0.00010000                6.10987740                1.31186917               -9.87444902               -4.92370561               23.05916696                2.36775130
              23.22003109                8.64742981               67.66200817                0.01955010                3.84916448                0.59242418              -13.15020911               -3.41482246               15.24735969                4.93681307
              24.22512192                8.11532195               67.30603516                0.64246190                0.50908365                0.17130503              -10.39191621               -0.42488754                3.95661974                4.11423590
              14.29706099               14.33108906               69.96307594                0.90404811                0.16389736               -0.01817742               -0.05153362                0.12071709                0.33177125                0.55330514
              15.29869996               13.89032397               69.50630726                0.65806766                0.12527980                0.31315231               -1.11378068                0.17306561                1.51143767               -0.32448132
              16.29956658               13.44956556               69.07312298                0.42478123                4.02611930                0.58973416               -1.57540278               -3.50731948                8.29777158               -0.17651789
              17.37922234               12.93679569               68.75388792                0.33631175                7.24893946               -2.20219019               -0.32787582               -2.54216016               14.58408017                0.16902239
              18.44454537               12.43519271               68.46934000                0.33215139                6.45447703               -1.69373729               -1.45236241               -0.74310576               16.78359354               -0.63558584
              19.50831189               11.91877197               68.20689773                0.33502629                6.60580127               -0.91347604               -4.00854816               -0.88070818               15.70523977               -0.30081521
              20.57666140               11.38420731               67.95424949                0.34510942                6.65425478               -0.13267809               -5.83887444               -1.07401968               13.55731130                0.09922408
              21.64139698               10.83475636               67.71040908                0.36247386                6.24602035                0.63571259               -7.35640856               -1.25111195               12.00124795                0.84226621
              22.70158180               10.27205819               67.49078285                0.38821479                5.64911622                1.63971578               -9.23794343               -3.74149571               18.73261797                2.04352668
              23.75437931                9.65304011               67.44365239                0.52127831                2.82780522                0.56102935              -12.63970447               -4.32792023               13.73048006                6.40263326
              24.75813791                9.11680335               67.08413507                0.83112979                0.37586020                0.14813976              -10.09510720               -0.32207781                2.53141856                6.41217584
              10.20148735                4.48465173               72.26729024                1.00000000               -0.30369917               -0.35600683                1.24247417               -0.09546611               -0.39631375                0.51209646
              11.19845036                4.02148221               71.84761038                1.00000000               -0.23751324               -0.20503549                0.76033873               -0.06907112               -0.47700476                0.06022667
              12.19673708                3.55787676               71.42566242                0.98263847               -0.10400272               -0.05837775                0.28319733               -0.06987688               -0.49009081               -0.06477351
              13.19637030                3.09350391               71.00562457                0.59188278               -0.00830655                0.09491153               -0.20213812               -0.13628450               -0.43883017               -0.39930627
              14.19657095                2.62728426               70.58514335                0.44459474                0.08123617                0.27210490               -0.70549569               -0.18223390               -0.34949062               -0.29889681
              15.19799503                2.15915758               70.16766849                0.18417813               -0.59979216                0.41802505               -1.24675806               -1.09349803                0.52219139               -0.57231532
              16.18457511                1.67186640               69.76587570                0.00010000               -9.20632279                1.44902580               -1.61820676              -17.19452663               12.75838411               -1.95938665
              17.01386857                0.85127724               69.60028599                0.00010000               -8.46865411                2.64821636               -2.68679751              -16.71548893               23.96292491                2.67885834
              18.01520203                0.04739571               69.37229589                0.00010000                7.10865147               -0.93734734               -2.86852336              -13.84240409               19.33209868                3.12864563
              19.15604160               -0.74272151               69.10058456                1.00000000                7.32064358                0.63336062               -1.71721371              -12.92749853                7.90167992               -0.27717804
              20.16161490               -1.28207966               68.66888626                1.00000000                0.55732994                0.77206079               -2.12108942                0.23000909                0.04049349               -0.42266105
              10.66370220                5.48109166               72.13630946                1.00000000               -0.25550709               -0.33373349                1.09833531               -0.01845061                0.03408472                0.72255438
              11.66114713                5.01943186               71.71643204                1.00000000               -0.18373666               -0.18605130                0.61633523                0.00573344                0.11130031                0.08606758
              12.66002747                4.55729298               71.29752111                0.96426876               -0.04217123               -0.03874462                0.13663193                0.00360682                0.14748315               -0.25853823
              13.66030371                4.09445302               70.87836686                0.62793626                0.09471556                0.10487274               -0.34014686               -0.04164876                0.29315820               -0.38235421
              14.66192178                3.63000531               70.46294381                0.55668366                0.22326349                0.26505533               -0.87281516               -0.07316513                0.37584631               -0.27196719
              15.66476898                3.16333783               70.04656571                0.30600637                0.23241163                0.41992733               -1.41017743               -0.52325634                0.56926698               -0.47247166
              16.66657001                2.68635666               69.63677832                0.00010000               -0.29099747                0.97676601               -1.99836963              -16.47834939               13.58389541               -0.99961872
              17.65894903                1.87775941               69.48359634                0.00010000                0.36036752                0.22690045               -4.19259640              -25.19202058               21.93377696                5.59503312
              18.67377736                1.03802224               69.22640742                0.00010000                1.62776365                1.20936991               -4.87734722              -22.03879906               13.29151289                8.26798294
              19.69150430                0.26361210               68.88351029                1.00000000                1.47478876                0.19926884               -3.24664130              -11.72920808                4.66991443               -2.11959236
              20.70327314               -0.27435905               68.45114708                1.00000000                1.17688382                0.28270091               -3.69250151               -0.11878404               -0.17930507               -2.52012224
              11.12443794                6.47797706               72.00865281                1.00000000               -0.20742327               -0.28448972                0.94728814               -0.02187962                0.17981547                0.84696019
              12.12236370                6.01776119               71.58545402                0.99981323               -0.13249405               -0.14735220                0.47060447               -0.00066745                0.37819326                0.00160152
              13.12178806                5.55710187               71.16573451                0.00010000                0.02306466                0.00739243               -0.00873943               -0.02414150                0.86186705               -0.70561808
              14.12282500                5.09560136               70.75229169                0.00010000                0.22173951               -0.52393109               -0.46940721               -0.88787186                1.34627521                1.12233420
              15.12622285                4.63258537               70.34285075                0.00010000                0.41767763               -1.08541771               -1.02034351               -1.51716347                1.29048101                3.24169244
              16.13117855                4.16755613               69.92976775                0.00010000                0.71818499               -2.22653948               -1.56383972               -2.15269558                1.48303585                6.45395448
              17.14058655                3.69140172               69.52630031                0.00010000                1.35920153               -6.23842256               -2.17291025              -19.05613339               17.85125419               12.51614324
              18.15836258                2.85581525               69.44265180                0.00010000                2.39934047               -0.44141656               -5.78598535              -33.00576676               26.87428000               10.89368815
              19.18857336                2.07158311               69.19660807                0.00010000                3.77380730                5.17322150              -12.80864269              -34.72725559                4.25936875               15.20474000
              20.23383873                1.26126387               68.63028472                0.05713923                2.33040773                8.77809071               -4.62789653              -21.75562134               -5.29019747               25.90410329
              21.23518151                0.72357436               68.19304421                0.66269595                0.13427832                7.77668118               -2.89356979                2.31863208               -0.58983400               27.27483465
              11.58369635                7.47540186               71.87945180                1.00000000               -0.16873756               -0.22893950                0.79863307               -0.02650718                0.28838083                0.70097030
              12.58200897                7.01648482               71.45236507                0.43231138               -0.09959431               -0.10855079                0.32614759                0.00688364                0.49363537               -0.37472049
              13.58170446                6.55744083               71.02896585                0.00010000               -0.74731034                0.06880531               -0.13974379               -0.70656838                3.19660389               -1.18144570
              14.56706277                6.08397440               70.65610563                0.00010000               -1.10403568               -0.74705211               -0.70584481               -2.29460486                6.19679860                1.97206560
              15.55962375                5.60829696               70.29247429                0.00010000               -0.20820281               -2.01493431               -1.49531292               -3.57327530                7.73076828                5.68982403
              16.56289871                5.11880704               69.94939421                0.00010000                1.87822349               -4.50947294               -2.53594284               -7.43628756               12.01174794               10.94020456
              17.59718822                4.56158821               69.67007488                0.00010000                2.78767967               -9.01021460               -4.30584447              -17.11445209               17.84427931               17.85739924
              18.61865230                3.86893107               69.44016968                0.00010000               -1.17022922                1.57765966               -7.82627978              -26.14591193               22.88972235               11.57408604
              19.57378363                3.14148667               69.24531254                0.00010000               -0.71258406                8.67889396              -12.85359529              -28.94464865               25.52462557               17.14378643
              20.60440062                2.43917391               69.00744388                0.00010000               12.56205785               20.83403931              -65.97979152              -20.06694561               19.81633393               31.10512956
              21.82502479                1.88117457               68.58799350                0.59151187               22.06241688               22.40108178              -73.70630276               -5.31062700                7.86308071               33.17246993
              12.04174189                8.47339827               71.74838883                0.91070281               -0.12794808               -0.17226468                0.66240460               -0.01867229                0.03075500                0.59879091
              13.04046241                8.01559017               71.31369114                0.25866795               -0.07873958               -0.07760979                0.17557457                0.05867044                0.50060780               -0.55412435
              14.04016710                7.55847797               70.88807454                0.00010000               -0.71928196                0.07990437               -0.29342538               -0.90203118                5.22588325               -1.65362409
              15.02607677                7.08066032               70.54811750                0.00010000               -1.01211991               -0.21082338               -1.01695210               -2.17902127               10.13197150                0.69543447
              16.01992470                6.59228668               70.22144999                0.00010000                0.15423868               -1.30472867               -2.02277083               -3.74528345               12.04613298                3.31353249
              17.02916155                6.07736667               69.92038529                0.00010000                1.41243832               -3.04562596               -3.37280367               -7.41224792               15.08426780                6.15631866
              18.04817347                5.51119743               69.65553424                0.00010000                1.31921680               -3.10405666               -5.36996787              -13.95688799               19.06921937                7.50192046
              19.05554588                4.88736844               69.43300745                0.00010000               -0.43679620                2.15240020               -8.73453940              -18.46831313               25.01792599                8.45946735
              20.03943755                4.24516099               69.27570798                0.00010000                1.86330133                9.08545970              -17.38164996              -13.36485154               33.83811861                9.05778762
              21.09281191                3.67794465               69.18421912                0.00010000               10.27650483               17.02791757              -43.79315784               -5.50856035               26.38191922               12.29201290
              22.24496764                3.17159600               68.86930609                0.50065093               15.21557329               19.77906658              -46.67141176               -6.99271218               17.22853713               16.37296473
              12.49893909                9.47195657               71.61683099                0.89605625               -0.08364168               -0.13279086                0.53341830               -0.02822222                0.00253363                0.60963856
              13.49810268                9.01493262               71.17683166                0.22939752               -0.01727021               -0.04008577                0.02887142                0.07310689                0.28194218               -0.42662363
              14.49859369                8.55903892               70.74218003                0.00010000               -0.42145232                0.06438191               -0.45714863               -0.96608659                6.52364606               -1.77538854
              15.48967363                8.07975793               70.42738584                0.00010000               -0.52909773               -0.00378354               -1.28153741               -2.45526638               12.94926508               -0.58573532
              16.48801174                7.58220238               70.12415003                0.00010000                0.30346863               -0.64621281               -2.39081085               -4.26867128               14.38362416                0.88786960
              17.49574300                7.05789452               69.84167504                0.00010000                1.00184730               -1.19151959               -3.85281860               -7.32490854               16.59239970                2.29078300
              18.50804868                6.49950708               69.58753939                0.00010000                0.97897394               -0.38337984               -5.86750727              -10.83827623               19.58543354                3.28488520
              19.51532248                5.91197908               69.36913168                0.00010000                0.39308563                2.46577292               -9.15978067              -12.23972933               24.32651800                3.66384198
              20.51591039                5.32319586               69.20763540                0.00010000                2.62359633                6.21133719              -15.19767872               -8.55540548               28.70397713                2.64367718
              21.56779441                4.77973226               69.06455049                0.00010000                9.09787334                7.41056515              -32.21498053               -4.17606372               20.84267135               -1.39326416
              22.69786786                4.27675591               68.73928003                0.45918593               13.00734520                7.37016866              -35.50062160               -4.64524397               12.60939142               -0.68187893
              12.95522535               10.47074245               71.48580469                0.90669070               -0.03831485               -0.11270889                0.40886920               -0.03546528               -0.01180660                0.66800574
              13.95484220               10.01478846               71.04055646                0.23668045                0.03973508                0.01754524               -0.13438720                0.05740070                0.19392954               -0.38819111
              14.95602005                9.55976561               70.59926874                0.00010000               -0.05171126                0.12152991               -0.65671503               -1.04098974                7.26561516               -1.54567400
              15.95380798                9.08058465               70.29578038                0.00010000                0.01973190                0.15855372               -1.37116189               -2.61744440               14.51678973               -1.57535203
              16.95641469                8.57936243               70.00479275                0.00010000                0.57753521               -0.07477389               -2.51508702               -4.42899288               15.71363197               -0.91812908
              17.96535868                8.05353627               69.73193795                0.00010000                1.04543474               -0.07775717               -4.03673150               -6.58184391               17.26566827               -0.04024774
              18.97732339                7.50352983               69.48156552                0.00010000                1.08519132                0.70324337               -6.00170139               -8.44977583               19.28594439                0.63707938
              19.98706251                6.93668390               69.26014434                0.00010000                1.16264323                2.33991177               -8.75611614               -8.94372627               22.08110359                0.87427306
              21.00057625                6.36938773               69.07402550                0.00010000                3.43340413                3.87578405              -13.83446462               -6.98591218               23.98229397                0.32236501
              22.05573059                5.82615596               68.88368700                0.00010000                7.87196113                3.70521620              -24.31611246               -3.78040742               16.80211687               -0.26185596
              23.15801547                5.31899937               68.55321973                0.45619276               10.22848825                3.27388571              -28.00033883               -3.09963227                9.02325607                0.84724897
              13.41013778               11.46970239               71.35512661                0.91334083                0.00897553               -0.09007272                0.28344732               -0.04245882               -0.00959700                0.72501176
              14.41022753               11.01528352               70.90450133                0.25163154                0.09199628                0.08275652               -0.31471851                0.03590383                0.22970669               -0.39373459
              15.41197770               10.56146952               70.45860121                0.00010000                0.37501981                0.23505832               -0.90897508               -1.11795962                7.68342024               -1.39545336
              16.41772793               10.08292901               70.15729446                0.00010000                0.72512765                0.22108953               -1.29695584               -2.60109392               15.27599075               -2.05727976
              17.42648025                9.58070691               69.87101339                0.00010000                1.11053952                0.13561721               -2.39079710               -4.11534590               16.41317130               -1.90915065
              18.43993872                9.05633938               69.60186612                0.00010000                1.47126411                0.34749866               -3.99063703               -5.48675557               17.45715878               -1.30091181
              19.45590554                8.51357194               69.35123639                0.00010000                1.53256699                1.05277271               -5.90167951               -6.45790472               18.53001342               -0.68156948
              20.47059006                7.95877731               69.12212586                0.00010000                1.54072797                2.12754550               -8.34627685               -6.64288126               20.25462065               -0.30728740
              21.48672010                7.40071154               68.92335478                0.00010000                3.59922834                2.96275318              -12.43421346               -6.04327704               21.76152519                0.43589520
              22.54257462                6.85383659               68.72720511                0.00010000                8.17341459                3.02998063              -24.02180868               -3.69230385               15.22421777                3.84174168
              23.65018839                6.34223362               68.39735052                0.46178678               10.76137637                2.66935692              -27.19858881               -1.34959954                9.05365524                5.22384654
              13.86321392               12.46894100               71.22478701                0.91899692                0.05792437               -0.05676762                0.15354056               -0.04860313               -0.00178746                0.75935395
              14.86379316               12.01644359               70.76834795                0.27896317                0.14007310                0.15284550               -0.51811729                0.02700620                0.37475973               -0.43438362
              15.86601538               11.56446678               70.31947988                0.00010000                0.93777756                0.38304300               -1.25266702               -1.31569556                8.05168997               -1.07621585
              16.88254871               11.08500644               70.01666167                0.00010000                1.73410149                0.04088130               -1.13887730               -2.55091351               15.61980782               -1.95872479
              17.90069741               10.58207477               69.73008423                0.00010000                2.01049119               -0.10667181               -2.12138925               -3.33593669               16.61888467               -2.02084587
              18.92275853               10.06048625               69.46063999                0.00010000                2.25149746                0.29719638               -3.78467811               -3.99480505               17.25779740               -1.61941002
              19.94572736                9.52458529               69.20696540                0.00010000                2.21533752                1.02584172               -5.69985858               -4.39680850               17.56636211               -1.07031828
              20.96706528                8.97923481               68.97001008                0.00010000                1.94620411                1.95072819               -7.95493795               -4.46173281               18.69951388               -0.43188246
              21.98465144                8.42864280               68.76535508                0.00010000                3.66485773                2.87426320              -11.44949635               -3.94782044               20.16253552                0.85615391
              23.04036244                7.88675557               68.57482011                0.00010000                8.47889883                3.63543360              -24.74011223               -2.30515440               13.45218357                5.68020528
              24.15422941                7.37238651               68.24952717                0.47439358               11.38669763                3.35138329              -26.06115504               -1.24224127                9.17335445                7.83973803
              14.31416053               13.46856704               71.09425270                0.83654228                0.10813429               -0.01769528                0.02105937               -0.04653353                0.05191959                0.70637706
              15.31524187               13.01834043               70.63186628                0.22544165                0.14702025                0.22753594               -0.74371479                0.05409259                0.87690859               -0.46543570
              16.31710094               12.56913038               70.18612514                0.00010000                1.69298947                0.54794027               -1.54059587               -1.78880201                8.62284950               -0.67484065
              17.34910166               12.08374664               69.87795683                0.00010000                3.35903893               -0.83514522               -1.13817603               -2.05203879               15.62315030               -1.21918189
              18.38428171               11.57857347               69.58879483                0.00010000                3.42152179               -0.62104642               -1.87945159               -2.01133200               16.35439184               -1.29934401
              19.41753210               11.06228330               69.31593122                0.00010000                3.24695436               -0.06151885               -3.49706582               -2.03525211               16.50358619               -1.14434496
              20.44922080               10.53408878               69.05632748                0.00010000                2.98828966                0.73807649               -5.33324756               -2.16151382               16.15756015               -0.81787342
              21.47729789                9.99779188               68.81054990                0.00010000                2.55110644                1.72455294               -7.42213250               -2.11537721               16.67034289               -0.30501771
              22.50024293                9.45819681               68.59575678                0.00010000                3.77149665                2.80446469              -10.68437309               -1.68458227               18.50769513                0.92144705
              23.55272783                8.92654526               68.41264636                0.00010000                7.69193765                5.08960247              -23.39419954               -0.92560269               12.29765548                5.12368001
              24.65408168                8.40926129               68.09943148                0.49347180               10.13538583                4.78968229              -23.30151151               -1.44926257                8.81188362                7.30807013
              14.76273646               14.46858709               70.96236168                0.90565765                0.15752175                0.00200495               -0.10777306                0.09831429                0.33492099                0.66073458
              15.76431168               14.02099431               70.49571398                0.60790889                0.10483387                0.26538720               -0.95865011                0.24890480                1.66887511               -0.50179682
              16.76483314               13.57542558               70.05597741                0.37457866                3.38765818                0.62952072               -1.78816657               -2.86131847                9.50210072               -0.57941452
              17.83206484               13.06830354               69.74402295                0.33615081                5.85504807               -1.54430979               -1.11406997               -1.99226938               15.41784898               -0.33444053
              18.88193410               12.56965384               69.45228579                0.33221841                4.72366716               -0.89196274               -1.72535018               -0.68714508               15.67382864               -0.38969484
              19.92653818               12.05925587               69.17414698                0.33488496                4.25272046               -0.30274339               -3.04299558               -0.61474282               15.10936827               -0.41739896
              20.96698851               11.53934682               68.90496990                0.34427675                3.70557635                0.52580400               -4.53127639               -0.49972951               13.79775725               -0.24661798
              22.00064971               11.01372587               68.64449238                0.36055446                2.76089528                1.59339936               -6.11788154               -0.39555460               13.21825098                0.08799181
              23.02220641               10.48473209               68.41034056                0.38456938                3.50680985                2.65352830               -8.67480587                0.93743551               13.89880582                1.01638616
              24.07078591                9.98854762               68.20360304                0.44614848                6.88028475                6.20023602              -20.87134735                0.97821128                8.95627645                4.90951597
              25.15981211                9.46818015               67.88567255                0.75289102                8.90262003                5.89188679              -20.69855912               -1.46370408                5.85125571                7.07589004
              10.61964764                4.62142567               73.27893200                1.00000000               -0.27124978               -0.31194928                1.08780914               -0.07791249               -0.39084907                0.50429253
              11.61693514                4.15396969               72.85490649                1.00000000               -0.21874951               -0.18934840                0.69929160               -0.05366935               -0.47026575                0.05818826
              12.61527264                3.68611162               72.42865014                0.98255192               -0.11222488               -0.06990953                0.31357576               -0.05439025               -0.48436292               -0.06280679
              13.61469064                3.21754658               72.00423516                0.59644165               -0.03792369                0.05325504               -0.07807654               -0.11522965               -0.44188154               -0.38194227
              14.61451417                2.74731432               71.57924508                0.44054654                0.03212994                0.19522206               -0.47993211               -0.15811121               -0.37519790               -0.30132985
              15.61533324                2.27540253               71.15689672                0.16592490               -0.80000316                0.30560387               -0.91590163               -1.17258750                0.57380442               -0.56413909
              16.59851411                1.78252757               70.75205728                0.00010000               -8.04746911                1.47658289               -1.15732376              -14.92660846               12.56222776               -2.11616461
              17.45438386                1.00096324               70.57566781                0.00010000               -6.81229783                1.85857087               -2.41650303              -14.26532362               23.86649464                2.14715515
              18.46226815                0.23249179               70.34494091                0.00010000                6.71697887               -1.20052764               -2.71889142              -11.30891539               20.05121438                2.81219678
              19.58872343               -0.51955203               70.08055701                1.00000000                6.69320543                0.74616067               -2.29694978              -10.54278555                8.46806467               -0.26113077
              20.59613226               -1.05955989               69.64532767                1.00000000                0.74088260                0.83228803               -2.59209480               -0.14156524                0.05768485               -0.38650980
              11.08632448                5.61830617               73.14658504                1.00000000               -0.22690148               -0.29350481                0.95824698               -0.01547774                0.03310271                0.71155494
              12.08405547                5.15207621               72.72236352                1.00000000               -0.16920914               -0.17265871                0.56993347                0.00682791                0.11068411                0.08318961
              13.08294030                4.68541252               72.29912882                0.96374064               -0.05592379               -0.05250890                0.18346840                0.00418674                0.15076337               -0.25616651
              14.08293699                4.21807913               71.87569247                0.65105577                0.05323915                0.06019778               -0.19780524               -0.03699414                0.27576907               -0.35920215
              15.08400508                3.74926654               71.45549837                0.56473742                0.15318726                0.18883831               -0.62332958               -0.06867061                0.33315941               -0.26247476
              16.08600074                3.27845857               71.03428022                0.29487879                0.12312906                0.30993027               -1.05622673               -0.53154540                0.50069445               -0.45434749
              17.08646766                2.79729340               70.61907410                0.00010000                0.03738862                0.92602786               -1.55340156              -14.61574374               12.73171712               -1.06402283
              18.08674851                2.01954895               70.44490427                0.00010000                1.14844855               -0.35667649               -3.49772729              -21.44346500               21.28808301                5.04685921
              19.10943664                1.22048651               70.18631137                0.00010000                2.12864524                0.23473233               -3.66034887              -17.74521252               14.11947443                5.57007283
              20.12932141                0.48790957               69.85709436                1.00000000                1.26439117                0.64532127               -2.06668707               -9.45161819                5.51613386               -0.32469813
              21.13472446               -0.05123701               69.42106648                1.00000000                0.54030442                0.70164431               -2.33866128               -0.19053031               -0.20059471               -0.53960694
              11.55179801                6.61555557               73.01750764                1.00000000               -0.18326618               -0.25273603                0.82417253               -0.01955640                0.17628945                0.83619275
              12.54996535                6.15051652               72.59000793                0.99263575               -0.12222738               -0.13762901                0.43949460               -0.00102177                0.37301834               -0.00136797
              13.54935346                5.68506144               72.16596695                0.00010000                0.00656963               -0.01120818                0.05333155               -0.02794634                0.86732095               -0.69710100
              14.55009674                5.21875053               71.74841919                0.00010000                0.17039292               -0.56834467               -0.30904053               -0.83668388                1.32034940                1.07052438
              15.55276132                4.75109108               71.33402342                0.00010000                0.32893656               -1.12766462               -0.75321265               -1.35462247                1.22560694                3.06619807
              16.55667547                4.28160113               70.91602908                0.00010000                0.61737633               -2.22419857               -1.19268733               -1.81110830                1.38486305                6.02393954
              17.56510885                3.80104813               70.50685233                0.00010000                2.28229854               -6.01976903               -1.72509448              -16.70762907               16.12846788               11.49871375
              18.60232144                2.99382971               70.38569400                0.00010000                3.69472167               -1.24735713               -5.50839090              -28.68898333               23.32653465                9.99947466
              19.63900328                2.23718643               70.08542605                0.00010000                3.45465726                3.32702133               -8.77399648              -25.15317697                7.28699501               13.69758055
              20.67141459                1.49335439               69.63272638                0.97606624                1.58057651                0.35510227                0.04246172              -10.10151440               -0.79476886                0.51189688
              21.67061481                0.95447300               69.19498160                1.00000000               -0.07997770                0.36171226               -0.00878058               -0.15074829               -0.06114553                0.29687413
              12.01601146                7.61325145               72.88690860                1.00000000               -0.14822935               -0.20534767                0.69214517               -0.02577765                0.28507377                0.70244425
              13.01452916                7.14932363               72.45554913                0.40697570               -0.09320488               -0.10071441                0.30992362               -0.00080365                0.49273092               -0.38136641
              14.01414736                6.68518836               72.02794531                0.00010000               -0.71777473                0.04481047               -0.06694792               -0.71555623                3.12559671               -1.18126786
              15.00017367                6.20671223               71.64939159                0.00010000               -1.00426633               -0.81455524               -0.63248492               -2.22863579                6.06445404                1.85607850
              15.99406203                5.72671325               71.27830609                0.00010000               -0.01760700               -2.04723740               -1.36857024               -3.32443194                7.51999751                5.33375933
              16.99982153                5.23397459               70.92506336                0.00010000                2.30122342               -4.42286743               -2.39586581               -6.80578468               11.54227870               10.19171613
              18.04008650                4.67689802               70.62768848                0.00010000                3.85045024               -8.66417693               -4.30800412              -15.48070215               16.57501380               16.40704357
              19.07683053                3.99460181               70.36178451                0.00010000                3.33809581                0.63319039               -7.62635172              -23.64067566               20.56461895               11.00582572
              20.10684842                3.28702694               70.11269083                0.00010000                6.65870133                5.72068546              -14.49799718              -29.30377239                4.71218797               14.53947134
              21.21000456                2.49501162               69.42170343                0.00010000                5.13119287               11.49905329              -29.21630861              -20.68187957               -4.26590633               22.57899943
              22.20947228                1.95599724               68.98308122                0.52011991               -0.05322854               12.63659347              -30.17352373               -5.07151334               -2.71648621               25.94893492
              12.47913810                8.61144862               72.75456346                0.91484589               -0.11257350               -0.15444917                0.57049337               -0.02071023                0.02064474                0.61698083
              13.47801237                8.14850223               72.31543064                0.23905084               -0.07421861               -0.07147164                0.17367639                0.03735831                0.49702756               -0.56663282
              14.47765373                7.68595765               71.88552453                0.00010000               -0.70066166                0.04706778               -0.21623909               -0.95378283                5.09887253               -1.70024594
              15.46399914                7.20245943               71.53845822                0.00010000               -0.93217060               -0.30409744               -0.94211732               -2.21509470                9.88516108                0.55509578
              16.45901032                6.71014634               71.20204848                0.00010000                0.31879350               -1.35135808               -1.92667014               -3.67730933               11.71820045                3.00717211
              17.47037501                6.19314378               70.88740689                0.00010000                1.79286340               -2.96808747               -3.33952183               -7.21299585               14.57307068                5.59446565
              18.49486759                5.62776459               70.60108773                0.00010000                2.45020005               -2.96000619               -5.52990660              -13.67127789               18.21158991                6.80101308
              19.51937901                5.00649352               70.34508594                0.00010000                2.88252176                1.79366482               -9.28354382              -19.13086351               21.06933892                7.74675177
              20.55251802                4.35160014               70.07975015                0.00010000                3.47138434                7.53796532              -17.62257717              -19.86526120               23.82546399                8.05890823
              21.58880669                3.72333546               69.81716073                0.00010000                4.73476384               19.04811624              -31.75167397              -15.72317783               16.40151862               25.01420692
              22.64721330                3.20720487               69.42803807                0.43134992                5.84066062               20.98144001              -37.06338847               -6.82598896                2.85461402               27.98244944
              12.94149002                9.61016247               72.62178018                0.90524202               -0.07227263               -0.11458927                0.45189578               -0.02816325               -0.00125015                0.64264336
              13.94076730                9.14789420               72.17715572                0.21428718               -0.01877592               -0.03943528                0.03969710                0.03758676                0.27568706               -0.44994669
              14.94111451                8.68612971               71.73785266                0.00010000               -0.45421055                0.02235604               -0.39711968               -1.05550813                6.37285242               -1.88273062
              15.93168309                8.20063028               71.41538458                0.00010000               -0.56415082               -0.08610349               -1.18134999               -2.53838549               12.65151317               -0.64340759
              16.92983149                7.69968608               71.10116292                0.00010000                0.31301368               -0.66096887               -2.29853364               -4.23134173               14.00346457                0.72700112
              17.93794336                7.17461284               70.80376651                0.00010000                1.17398580               -1.06105997               -3.84993547               -7.25108734               16.13634800                1.94627990
              18.95331121                6.61769789               70.52799899                0.00010000                1.62171730               -0.13571791               -6.12557149              -11.02333522               18.83886482                2.80511316
              19.97037771                6.03047511               70.27431592                0.00010000                1.96950258                2.81409364               -9.81024616              -13.36927935               21.91394238                3.07096873
              20.99270126                5.43778624               70.03822182                0.00010000                3.47792854                7.50848993              -16.72906638              -12.58542520               22.82051670                3.68376841
              22.03993628                4.87597394               69.77110625                0.00010000                5.62562066               12.00741061              -26.11794985               -7.40301958               15.51913316                1.71153834
              23.10521367                4.37562604               69.40891685                0.42351333                6.52773930               12.92144930              -29.75811630               -3.65853113                6.07711414                2.60790993
              13.40311139               10.60915683               72.48955210                0.91890370               -0.03145256               -0.08854334                0.33446357               -0.03220796               -0.01268461                0.70960151
              14.40279686               10.14771352               72.03931148                0.22187379                0.03480473                0.00893476               -0.10719186                0.01603813                0.18175795               -0.42870171
              15.40380748                9.68640477               71.59283539                0.00010000               -0.15609024                0.07422935               -0.60081100               -1.13323366                7.15665979               -1.71523197
              16.39967506                9.20073736               71.28247891                0.00010000               -0.17032779                0.11405545               -1.32095148               -2.68047580               14.25864085               -1.50279462
              17.40040092                8.69692696               70.98044729                0.00010000                0.38331973               -0.02125667               -2.44998294               -4.30891636               15.30095674               -0.90314978
              18.40734145                8.17192258               70.69224791                0.00010000                0.90688488                0.13602235               -4.03125202               -6.42809154               16.83780145               -0.24555624
              19.41853862                7.62505023               70.42107634                0.00010000                1.22818091                1.11638036               -6.22889556               -8.49418391               18.77839487                0.23443209
              20.43190507                7.06277539               70.16825816                0.00010000                1.83860299                3.16669817               -9.56676355               -9.38608356               20.67946067                0.42212032
              21.45531068                6.50176994               69.92408945                0.00010000                3.55007194                5.58429356              -15.00711562               -8.09095481               20.34037348                0.04112377
              22.50290651                5.96348367               69.65079349                0.00010000                5.97139008                7.24107265              -21.91793014               -4.82293001               13.28372244               -0.44763920
              23.57473848                5.46563386               69.28335932                0.42265967                7.18319767                7.25218432              -25.20852874               -2.47519014                5.86083236               -0.09536153
              13.86373248               11.60839160               72.35763334                0.92624308                0.01076456               -0.06137283                0.21257500               -0.03426941               -0.00720000                0.76734389
              14.86384012               11.14807289               71.90155502                0.23461833                0.08467616                0.06425858               -0.26351597                0.00137679                0.19868094               -0.45162914
              15.86542600               10.68761430               71.44957541                0.00010000                0.18556293                0.17714340               -0.84301381               -1.16225087                7.68638408               -1.65342502
              16.86755138               10.20291139               71.14372609                0.00010000                0.35209675                0.26633885               -1.37236483               -2.58368886               15.15477771               -1.91086056
              17.87246794                9.69926095               70.84720462                0.00010000                0.68534390                0.30364670               -2.42213723               -3.87977657               15.96339652               -1.76404954
              18.88125826                9.17733329               70.56283441                0.00010000                1.00533911                0.66119057               -3.96381471               -5.19918131               16.99999916               -1.42932640
              19.89257472                8.64002550               70.29230226                0.00010000                1.23390311                1.57232629               -6.04186524               -6.23511277               18.23234986               -1.12429303
              20.90593632                8.09380907               70.03604509                0.00010000                1.87995840                2.97631030               -8.99347057               -6.49808651               19.37841627               -0.90124078
              21.93017389                7.54947212               69.78567322                0.00010000                3.68387210                4.43859739              -13.88599397               -5.53985951               18.66319819               -0.48080978
              22.97961376                7.02079540               69.50500367                0.00010000                6.06178047                5.29354023              -20.56532626               -3.22503203               12.07175936                0.29891835
              24.05140950                6.52066973               69.13942123                0.42445585                7.17957313                5.12285955              -23.86555845               -1.92584590                5.09271554                1.48542654
              14.32306342               12.60792937               72.22599624                0.93175011                0.05382780               -0.02839506                0.08517245               -0.03469445               -0.00215743                0.79816916
              15.32360170               12.14899870               71.76354013                0.25601342                0.13302701                0.12224041               -0.43012834                0.00257080                0.28885189               -0.50976136
              16.32572396               11.68994764               71.30700550                0.00010000                0.63764648                0.30297873               -1.15006634               -1.20592415                8.19359856               -1.38319246
              17.33635463               11.20606413               71.00312547                0.00010000                1.13297673                0.20806387               -1.38472568               -2.36241453               15.72414117               -1.85311468
              18.34838349               10.70299989               70.70793371                0.00010000                1.31193232                0.23403423               -2.28349694               -3.06538314               16.20581410               -1.88414919
              19.36259327               10.18514640               70.42382396                0.00010000                1.44885471                0.70897735               -3.73310762               -3.67980266               16.76476094               -1.73431423
              20.37736059                9.65649675               70.15105609                0.00010000                1.49517240                1.55733156               -5.67543307               -4.07466000               17.42831285               -1.54663297
              21.39249672                9.12230160               69.89024726                0.00010000                2.00832880                2.70037539               -8.33345117               -4.00400418               18.11703207               -1.28129776
              22.41752717                8.59054189               69.63560695                0.00010000                3.73557669                3.98161878              -13.06448190               -3.34624695               17.49632348               -0.49251006
              23.46720826                8.06935447               69.35409163                0.00010000                5.94728698                5.01625462              -20.10605707               -1.98775552               11.38706859                0.84737797
              24.53647290                7.56809105               68.99367887                0.42849529                6.92646490                5.23341230              -23.57589539               -1.30734907                4.44552772                2.42808517
              14.78089994               13.60782370               72.09411949                0.84393815                0.09733323                0.00782041               -0.04710007               -0.03103052                0.04692538                0.74504496
              15.78187328               13.15051770               71.62511484                0.19242212                0.16710676                0.17969679               -0.59862411                0.03551053                0.76632575               -0.54636594
              16.78424208               12.69367387               71.17073131                0.00010000                1.26887794                0.41625519               -1.41562175               -1.39346816                8.92895146               -1.04073542
              17.80725084               12.20707267               70.86423500                0.00010000                2.39179660               -0.40447527               -1.39484054               -1.74079637               16.01500220               -1.27527552
              18.83207801               11.70394163               70.56854150                0.00010000                2.34572545               -0.12915017               -2.09146982               -1.80227079               16.12856974               -1.24207197
              19.85416534               11.19151284               70.28251982                0.00010000                2.09241508                0.44230340               -3.37504490               -1.87738147               16.19101492               -1.23080156
              20.87392631               10.67117213               70.00552024                0.00010000                1.88228792                1.27466866               -5.11224129               -1.93928545               16.30094135               -1.17094118
              21.89181110               10.14781658               69.73815636                0.00010000                2.11348798                2.31648180               -7.48455290               -1.70865126               16.57992803               -0.99815451
              22.91619607                9.62910449               69.47760853                0.00010000                3.52491970                3.63382265              -11.87256424               -1.18879967               15.86076419               -0.45408650
              23.96230950                9.12112049               69.19412418                0.00010000                5.57966477                4.99812987              -19.38211365               -0.64009625               10.40287645                0.53373122
              25.02778937                8.62533797               68.84000493                0.43365555                6.54798715                5.88739794              -23.43820080               -0.85069628                4.33374906                2.10088583
              15.23705481               14.60808578               71.96092048                0.90790389                0.14069216                0.02620813               -0.17473777                0.06617186                0.33929490                0.70085933
              16.23846173               14.15259263               71.48713426                0.58645029                0.21224062                0.20749329               -0.75827156                0.16819372                1.52194979               -0.57945402
              17.24129963               13.69827274               71.03735965                0.35253057                2.64046025                0.45988657               -1.73700542               -2.02514558               10.11382106               -1.09161732
              18.29127094               13.19797463               70.73160652                0.33583586                4.32991428               -0.90980420               -1.26915337               -1.49078213               16.14615228               -0.41851630
              19.32789791               12.70041689               70.43483300                0.33229427                3.32721042               -0.35247461               -1.80902156               -0.61711833               15.82905037               -0.48641676
              20.35781515               12.19399246               70.14603782                0.33471740                2.71866152                0.24796247               -2.84718482               -0.55635766               15.39492422               -0.51536137
              21.38227114               11.68199013               69.86362396                0.34342550                2.12880940                1.08179966               -4.19204377               -0.43357854               14.90970954               -0.53423000
              22.40039134               11.16863124               69.58805145                0.35865593                1.90880595                2.08146589               -5.96968027               -0.08056586               14.59359416               -0.50414261
              23.42044726               10.66321834               69.31728673                0.38101994                2.88907568                3.41138518               -9.51609273                0.45941054               13.72727844               -0.17869304
              24.45817285               10.16931707               69.02622545                0.41194146                4.52883753                4.81965833              -15.87737790                0.71736845                8.53261939               -0.73996041
              25.51102401                9.68583901               68.67016389                0.71869873                5.28511611                6.05010336              -19.70104568               -0.02434229                2.97686336                0.95436252
              11.04172139                4.75943149               74.28904642                1.00000000               -0.23944866               -0.26843758                0.93730523               -0.06136807               -0.38835726                0.49914281
              12.03932690                4.28773191               73.86159621                1.00000000               -0.20001138               -0.17376968                0.63897567               -0.03939773               -0.46754912                0.05674181
              13.03772116                3.81566327               73.43193393                0.98291275               -0.11945846               -0.08104273                0.34193571               -0.03981133               -0.48261799               -0.06084498
              14.03693773                3.34295043               73.00406304                0.60296498               -0.06578621                0.01345170                0.04046158               -0.09442911               -0.44474835               -0.36517361
              15.03640543                2.86875108               72.57554471                0.43836934               -0.01394063                0.12263949               -0.26607270               -0.13295373               -0.39551233               -0.30234382
              16.03665892                2.39310778               72.14935045                0.14975691               -0.96784333                0.20107267               -0.60315017               -1.20725908                0.64398646               -0.55949796
              17.01704857                1.89550946               71.74272923                0.00010000               -6.91720431                1.47716923               -0.72421543              -12.51484344               12.16688584               -2.30583552
              17.89831483                1.15574743               71.55195593                0.00010000               -5.28557232                1.29229678               -2.29251151              -11.81467799               23.20277451                1.58245040
              18.91133712                0.42089873               71.31791806                0.00010000                6.33506508               -1.19601744               -2.69779413               -9.57434944               20.00925018                2.11273965
              20.02501613               -0.30101883               71.05464557                1.00000000                6.09450739                0.59675876               -2.56874870               -8.90373715                8.70522097               -0.05478903
              21.03322727               -0.84128748               70.61704436                1.00000000                0.82111362                0.64823606               -2.75157309               -0.21789167                0.00902931               -0.08576932
              11.51280729                5.75674712               74.15547440                1.00000000               -0.19902544               -0.25270701                0.82147043               -0.01320239                0.03138635                0.70389974
              12.51081704                5.28599421               73.72783071                0.99269936               -0.15467518               -0.15918441                0.52348215                0.00717910                0.10900043                0.08122781
              13.50971379                4.81485284               73.30119047                0.96433904               -0.06837515               -0.06599582                0.22696160                0.00463924                0.15372106               -0.25386499
              14.50944953                4.34308494               72.87441076                0.67722737                0.01417165                0.01811523               -0.06258665               -0.03187890                0.26401707               -0.33615634
              15.50999722                3.86997748               72.45047722                0.57554199                0.08788021                0.11752643               -0.38906856               -0.06233877                0.30085283               -0.25371146
              16.51120714                3.39511851               72.02544118                0.28728012                0.02915447                0.20719945               -0.72333016               -0.51541667                0.43545547               -0.44066497
              17.51058031                2.91028116               71.60571029                0.00010000                0.31331415                0.86260764               -1.12873567              -12.50028446               11.98483336               -1.16326223
              18.51747342                2.16867040               71.41364180                0.00010000                1.66982256               -0.84114673               -2.79465996              -17.66689419               20.50492167                3.89892841
              19.54397676                1.40893855               71.15320044                0.00010000                2.47992226               -0.08717343               -2.98432733              -14.38889472               14.94156581                3.71683588
              20.56707186                0.70494876               70.84217654                1.00000000                1.36701195                0.39557813               -1.43605568               -8.01860003                6.36598651               -0.07808255
              21.57131700                0.16519488               70.40437385                1.00000000                0.42451343                0.43922936               -1.57882585               -0.16434229               -0.01955994               -0.15077282
              11.98296315                6.75437735               74.02513626                1.00000000               -0.15983898               -0.21760961                0.70253725               -0.01743952                0.17260746                0.82888698
              12.98136476                6.28454822               73.59424391                0.98624855               -0.11199688               -0.12797186                0.40723100               -0.00120791                0.36809366               -0.00304619
              13.98072321                5.81434335               73.16680114                0.00010000               -0.00946216               -0.02974728                0.11128251               -0.02876691                0.87550419               -0.69089610
              14.98117552                5.34331273               72.74611087                0.00010000                0.12009410               -0.60140009               -0.15769001               -0.73501024                1.30270929                0.97121948
              15.98312509                4.87110161               72.32778649                0.00010000                0.24356950               -1.15151962               -0.50388840               -1.08531255                1.17407193                2.79808743
              16.98604691                4.39725177               71.90591400                0.00010000                0.51829472               -2.19274779               -0.84271908               -1.25926181                1.28805388                5.43582295
              17.99349099                3.91276162               71.49179842                0.00010000                3.01363220               -5.73937400               -1.28964235              -13.84701171               14.30937885               10.16978610
              19.04631955                3.13892450               71.33248398                0.00010000                4.68949424               -1.95073742               -4.76598745              -23.30687199               20.56196725                8.24037762
              20.08728087                2.41915526               71.02112814                0.00010000                3.10341267                1.45067234               -5.11831988              -18.39500267                9.23940225                8.07873981
              21.10838780                1.70689273               70.63113395                0.96857893                1.10836488                0.06853980               -0.25619598               -8.50189510                2.35650168               -0.01074139
              22.10944817                1.16749711               70.19286859                0.99910022                0.10603669                0.09509574               -0.31597217               -0.10843705                0.05767456               -0.09106613
              12.45211676                7.75239492               73.89329470                0.99773468               -0.12898842               -0.17555233                0.58523419               -0.02315058                0.28181528                0.70472785
              13.45082688                7.28343477               73.45856354                0.38961843               -0.08714133               -0.09486445                0.29243762               -0.00299455                0.49024866               -0.38591796
              14.45037394                6.81425789               73.02762689                0.00010000               -0.64179056                0.01111792                0.00092427               -0.69920360                3.01147437               -1.18631614
              15.43799107                6.33105694               72.64345593                0.00010000               -0.80110047               -0.87717391               -0.56108933               -2.06151410                5.81989623                1.66741989
              16.43435193                5.84694708               72.26510288                0.00010000                0.31854133               -2.07641556               -1.27681472               -2.87892188                7.10096746                4.86349724
              17.44436189                5.35126356               71.90147690                0.00010000                2.88077103               -4.33494710               -2.31537023               -5.79583025               10.53242411                9.20787719
              18.49196735                4.79549368               71.58391480                0.00010000                5.02902207               -8.29272139               -4.22711165              -13.01863324               14.44897781               14.67702258
              19.54494234                4.12965565               71.28764265                0.00010000                5.80705632               -0.45762167               -7.10819272              -20.27954884               14.73590590                9.44334055
              20.60810847                3.43795200               70.95535260                0.00010000                5.18748882                3.08264539              -11.61953766              -23.33724711                3.86139272               10.92420697
              21.64869211                2.70631955               70.42311771                0.00010000                1.99155135                6.09666189                0.28560899              -15.33443246               -4.64783606               16.74738066
              22.64793950                2.16709680               69.98452302                0.45162570               -0.07526111                6.89561201                0.26620378               -5.37942202               -0.01146190               17.57828716
              12.92042044                8.75086631               73.75979870                0.92171865               -0.09785385               -0.12870606                0.47596062               -0.01922469                0.01202219                0.62997027
              13.91944190                8.28265093               73.31716466                0.22915867               -0.06517328               -0.06909646                0.17386501                0.02082321                0.48754139               -0.57651300
              14.91911697                7.81456571               72.88374976                0.00010000               -0.60929272               -0.00922233               -0.13889242               -0.97168672                4.90702276               -1.76252820
              15.90725604                7.32576925               72.52927515                0.00010000               -0.68884639               -0.40939233               -0.90557677               -2.17949216                9.46376090                0.42587762
              16.90534004                6.82957330               72.18291659                0.00010000                0.71638327               -1.43017454               -1.91527273               -3.49346297               11.04615758                2.68726681
              17.92158371                6.31055283               71.85359485                0.00010000                2.46930905               -2.96422288               -3.38202670               -6.76970548               13.39506316                5.01497480
              18.95472622                5.74690719               71.54493611                0.00010000                3.83432692               -2.99364736               -5.59710860              -12.92357732               15.70143246                6.13608829
              19.99827025                5.12977207               71.24733657                0.00010000                4.45729034                1.02852889               -9.17504806              -18.38314279               16.13220561                7.03207478
              21.04387203                4.48080817               70.92325643                0.00010000                3.71420542                5.72899649              -13.59027474              -21.67620856               12.95988693                9.63443844
              22.07255436                3.82882597               70.54918564                0.00010000                1.82166035               13.70053554              -20.11137849              -15.83044446                7.25279888               20.02558453
              23.08030524                3.30540935               70.12803832                0.41623986                0.77508818               15.32480307              -22.02654727               -7.54918940                1.56537540               21.95894861
              13.38816302                9.74982080               73.62586890                0.91701476               -0.06190783               -0.08924950                0.36450263               -0.02517263               -0.00322441                0.66178791
              14.38754394                9.28205285               73.17762560                0.20954944               -0.01705693               -0.04179040                0.05618476                0.00024111                0.24960896               -0.46733607
              15.38782188                8.81407345               72.73423763                0.00010000               -0.40751528               -0.04137451               -0.31578214               -1.11574490                6.13566752               -1.99560588
              16.37939363                8.32286910               72.40375884                0.00010000               -0.40613946               -0.17910032               -1.15750605               -2.58085041               12.15794169               -0.68941271
              17.37969909                7.81834359               72.07817935                0.00010000                0.61201306               -0.71577850               -2.32150487               -4.17826088               13.26166094                0.59603456
              18.39163389                7.29197910               71.76467633                0.00010000                1.72887378               -1.04977915               -3.94833028               -7.14104557               14.95626261                1.71208904
              19.41427657                6.73562073               71.46502796                0.00010000                2.58723025               -0.14959925               -6.30458851              -10.97990246               16.66573461                2.54212459
              20.44337850                6.15022623               71.17292676                0.00010000                3.06269167                2.68125379               -9.83094554              -14.18602124               17.53587152                3.31170020
              21.47553040                5.55253193               70.87305408                0.00010000                3.20517700                7.09753169              -15.00555613              -14.44598077               16.10379101                4.80557904
              22.50748204                4.98033026               70.54219149                0.00010000                3.41292760               12.72398950              -20.27466156               -9.46791277               10.02940614                6.66366149
              23.54378895                4.47359286               70.14411771                0.41496021                3.63069110               14.05892035              -23.03937622               -4.18397832                4.36331625                7.61893859
              13.85545290               10.74908132               73.49249396                0.93305859               -0.02588239               -0.06078377                0.25305630               -0.02724844               -0.01228012                0.72915224
              14.85519408               10.28181512               73.03841263                0.22396279                0.02664613               -0.00152776               -0.06955927               -0.03139765                0.13902105               -0.45532967
              15.85598582                9.81373822               72.58725252                0.00010000               -0.19125932                0.00787257               -0.48672796               -1.19577211                6.92276815               -1.84229062
              16.85136889                9.32218725               72.26936135                0.00010000               -0.16604991                0.05980704               -1.31073703               -2.73399256               13.79591786               -1.47342529
              17.85266482                8.81525773               71.95579309                0.00010000                0.50583865               -0.02020469               -2.50340156               -4.28446158               14.58666827               -0.88083293
              18.86148566                8.28955725               71.65131291                0.00010000                1.21081082                0.20988522               -4.15471817               -6.40676795               15.79209808               -0.29533300
              19.87688104                7.74391520               71.35698761                0.00010000                1.80764789                1.27428050               -6.46614824               -8.65474071               17.03015762                0.18370051
              20.89763862                7.18339714               71.06880907                0.00010000                2.39836712                3.42685818               -9.79999103               -9.98737416               17.57597217                0.58013095
              21.92484838                6.62275880               70.77388319                0.00010000                3.22482755                6.35229566              -14.26583244               -9.22981482               15.76084549                0.84998456
              22.96213517                6.08330576               70.44532840                0.00010000                4.26260477                8.80932759              -18.81783124               -5.66956396                9.77372313                0.88040769
              24.01010048                5.58658776               70.04904916                0.41509126                4.79653071                9.40148673              -21.20977569               -2.70086940                4.38262500                1.03863318
              14.32215043               11.74860513               73.35937811                0.94113477                0.01086493               -0.03315389                0.13751155               -0.02677924               -0.00491034                0.78083867
              15.32225908               11.28202229               72.89923101                0.24116877                0.06919394                0.04367073               -0.19790612               -0.05036841                0.12769548               -0.48381958
              16.32353431               10.81423090               72.44174094                0.00010000                0.04675944                0.09544043               -0.66423301               -1.18204325                7.50056964               -1.80484923
              17.32319427               10.32406524               72.12984716                0.00010000                0.15527725                0.26239941               -1.38601856               -2.57784806               14.81874606               -1.84181105
              18.32663986                9.81793950               71.82257064                0.00010000                0.58233948                0.38985873               -2.51439909               -3.82190297               15.34844976               -1.66637813
              19.33484106                9.29617680               71.52258982                0.00010000                1.03509998                0.82786558               -4.10106897               -5.16937247               16.13809369               -1.40399165
              20.34734186                8.76110634               71.23039908                0.00010000                1.49731784                1.82597241               -6.28073788               -6.32120669               16.91841636               -1.16881228
              21.36478742                8.21876340               70.94225645                0.00010000                2.18418138                3.40502223               -9.34391519               -6.71560256               17.03915737               -0.98832783
              22.39102548                7.67957784               70.64563491                0.00010000                3.27371933                5.20492434              -13.42423948               -5.81807138               15.03019756               -0.85079297
              23.43026180                7.15651682               70.31589858                0.00010000                4.60910413                6.56384268              -17.57951572               -3.50292657                9.20100633               -0.63183594
              24.48320757                6.66162260               69.92003935                0.41603227                5.29457624                6.68883763              -20.08812656               -1.79617153                4.24560739               -0.24379129
              14.78808299               12.74841824               73.22649045                0.94637215                0.04779463               -0.00307116                0.01730001               -0.02507492               -0.00190969                0.80272573
              15.78856094               12.28268854               72.75974538                0.26507891                0.11095102                0.08983480               -0.32756376               -0.05368652                0.16568195               -0.54272758
              16.79030201               11.81564703               72.29647855                0.00010000                0.37711955                0.18653127               -0.86333497               -1.11139048                8.07564963               -1.53690378
              17.79610333               11.32743524               71.98896716                0.00010000                0.69065946                0.28474186               -1.41081237               -2.20974398               15.59805276               -1.80774600
              18.80411520               10.82305490               71.68441429                0.00010000                0.94140231                0.44466222               -2.41255699               -2.96961210               15.75266833               -1.78605037
              19.81493137               10.30611456               71.38597784                0.00010000                1.18775568                0.96383051               -3.87212248               -3.65438246               16.14422827               -1.70774280
              20.82787031                9.78043465               71.09345674                0.00010000                1.49618448                1.84978720               -5.87200437               -4.11778721               16.51180082               -1.64593467
              21.84485506                9.25149759               70.80334105                0.00010000                2.14316107                3.06305992               -8.69878462               -4.07783116               16.34269464               -1.57207231
              22.87073353                8.72685729               70.50406544                0.00010000                3.25884128                4.39287261              -12.59430845               -3.32250316               14.28005372               -1.42423648
              23.91003189                8.21458261               70.17269897                0.00010000                4.66159769                5.42846259              -16.74975932               -1.91828145                8.69030646               -1.08342187
              24.96396549                7.72036451               69.77800926                0.41773103                5.39335997                5.65856969              -19.58072140               -1.13243069                4.12932752               -0.61824405
              15.25310834               13.74854370               73.09331070                0.85253321                0.08482279                0.02920276               -0.10768885               -0.02188169                0.04819592                0.74556011
              16.25395656               13.28381899               72.61989380                0.19706989                0.17257349                0.13389216               -0.45200195               -0.04158060                0.60245446               -0.57307784
              17.25655980               12.81796152               72.15781271                0.00010000                0.88174762                0.23447709               -1.06129654               -1.08618122                8.86543418               -1.22536898
              18.27159152               12.32976007               71.85006002                0.00010000                1.60042432               -0.11225335               -1.40579017               -1.48587859               16.11899340               -1.23245658
              19.28856829               11.82683274               71.54696544                0.00010000                1.63910744                0.21438104               -2.23215350               -1.71690283               15.94674369               -1.19678178
              20.30437366               11.31545341               71.24843032                0.00010000                1.55173970                0.78990388               -3.51959401               -1.90081660               15.92775717               -1.21582656
              21.31960309               10.79810208               70.95408266                0.00010000                1.62172469                1.60100607               -5.28931927               -2.00650332               15.92810543               -1.24793010
              22.33680816               10.28002459               70.66085884                0.00010000                2.09436547                2.61776241               -7.81295291               -1.83315144               15.51420044               -1.26180611
              23.36149039                9.76743530               70.35830549                0.00010000                3.07903980                3.74722706              -11.45268963               -1.35470371               13.48690565               -1.23893616
              24.39838895                9.26508607               70.02500409                0.00010000                4.37523826                4.74816313              -15.55110716               -0.70560276                8.21397947               -1.10010698
              25.44899516                8.77479399               69.63066746                0.42022971                5.06062059                5.32924932              -18.80062823               -0.65385748                3.92406207               -0.89671736
              15.71709479               14.74900229               72.95886693                0.91100680                0.12167116                0.04585883               -0.22650344                0.03505457                0.33509746                0.69929286
              16.71831150               14.28536638               72.48054855                0.58297058                0.27712525                0.15473948               -0.57360333                0.00220794                1.26696188               -0.59681446
              17.72263730               13.82033657               72.02123730                0.34676980                1.96015156                0.23750447               -1.33276537               -1.40106132               10.08323196               -1.29323026
              18.75751454               13.32519017               71.71863988                0.33560794                3.07232534               -0.45699053               -1.32255243               -1.05740021               16.64127697               -0.48147979
              19.78408380               12.82734252               71.41610536                0.33229122                2.40655835                0.05097805               -1.99429162               -0.61232523               16.00544824               -0.52737239
              20.80564570               12.32191264               71.11720329                0.33454986                1.95426301                0.64592252               -3.07075270               -0.61718372               15.70669009               -0.57356286
              21.82316906               11.81245477               70.82112902                0.34267568                1.66065590                1.43526904               -4.53192222               -0.54639214               15.41748354               -0.65140548
              22.83885882               11.30385284               70.52509878                0.35679098                1.77044605                2.38282417               -6.61795118               -0.32758091               14.86016495               -0.73068900
              23.85857799               10.80180183               70.22001871                0.37757000                2.48511601                3.43665336               -9.69753480               -0.00658882               12.94672861               -0.91055010
              24.88856114               10.30954588               69.88605548                0.40272203                3.64472548                4.44598088              -13.31698704                0.27460202                7.97395881               -1.06400091
              25.93147250                9.82694950               69.49165163                0.71085206                4.29113549                5.21555080              -16.46668326               -0.01190436                4.15246305               -1.30665787
              11.46678091                4.89855257               75.29767810                1.00000000               -0.20842663               -0.22582444                0.79157295               -0.04583791               -0.38771743                0.49543842
              12.46469665                4.42263553               74.86768600                0.99782574               -0.18137282               -0.15824580                0.57928477               -0.02627157               -0.46740307                0.05569385
              13.46315346                3.94638163               74.43548885                0.98359560               -0.12558729               -0.09136166                0.36738150               -0.02627012               -0.48350820               -0.05874462
              14.46218490                3.46954768               74.00504439                0.61111774               -0.09184715               -0.02395101                0.15186523               -0.07439132               -0.44732104               -0.34831145
              15.46131651                2.99140242               73.57392363                0.43785993               -0.05782283                0.05480986               -0.06494901               -0.10830700               -0.41227138               -0.30296201
              16.46102844                2.51203112               73.14483371                0.13545882               -1.10350823                0.10505969               -0.31000025               -1.20285042                0.72754254               -0.55804018
              17.43924635                2.01044875               72.73757297                0.00010000               -5.88889651                1.45102165               -0.32811688              -10.26779408               11.61320953               -2.52912662
              18.34325051                1.30924052               72.52981758                0.00010000               -3.97414163                0.77589498               -2.06820154               -9.70271896               22.16124989                1.06103782
              19.35976352                0.60418182               72.29098503                0.00010000                6.02255182               -1.25686683               -2.60500485               -8.25054548               19.78555726                1.49320297
              20.46370155               -0.09570977               72.02918203                1.00000000                5.58758675                0.55693024               -2.49985333               -7.82918536                8.87884918               -0.07113273
              21.47151525               -0.63593425               71.59029621                1.00000000                0.78137010                0.58575601               -2.59547809               -0.18010951               -0.00797725               -0.05756658
              11.94223958                5.89629433               75.16301445                1.00000000               -0.17201790               -0.21197827                0.68881181               -0.01142827                0.02922407                0.69777221
              12.94051940                5.42105307               74.73283317                0.98419741               -0.14024498               -0.14563783                0.47705100                0.00696934                0.10656665                0.07980389
              13.93943468                4.94546802               74.30366805                0.96578721               -0.07944036               -0.07872657                0.26632328                0.00491101                0.15638324               -0.25121280
              14.93893059                4.46930817               73.87444074                0.70588448               -0.02214799               -0.02089642                0.06377133               -0.02684144                0.25556382               -0.31283744
              15.93899172                3.99195052               73.44771700                0.58909980                0.02730919                0.05123724               -0.17119835               -0.05516632                0.27486613               -0.24625395
              16.93947678                3.51308172               73.01981362                0.28278351               -0.05140047                0.11253738               -0.41337341               -0.47976889                0.37565854               -0.43074676
              17.93796371                3.02495896               72.59649939                0.00010000                0.49400047                0.78952958               -0.72586008              -10.53010810               11.31743141               -1.29023636
              18.94935679                2.31699947               72.38901107                0.00010000                2.08847464               -1.23020503               -2.18157515              -14.61826281               19.74716810                2.68459223
              19.97973320                1.59161315               72.12662482                0.00010000                2.80554729               -0.37863739               -2.41715802              -12.08810482               15.56961671                2.45739933
              21.00546773                0.90985953               71.82837325                1.00000000                1.51027179                0.39540831               -1.40278338               -6.92936146                7.02963022               -0.08498244
              22.00993864                0.36992331               71.38948997                1.00000000                0.44709070                0.42183804               -1.48551848               -0.15443405                0.00608642               -0.09352531
              12.41703487                6.89431301               75.03155838                1.00000000               -0.13725215               -0.18053775                0.58356357               -0.01549840                0.16872757                0.82231646
              13.41566235                6.41972277               74.59815255                0.98063121               -0.10191440               -0.11842774                0.37423829               -0.00116797                0.36317915               -0.00365922
              14.41499658                5.94480710               74.16819260                0.00010000               -0.02483884               -0.04773035                0.16457507               -0.02716227                0.88489760               -0.68610665
              15.41516557                5.46912975               73.74526539                0.00010000                0.07215274               -0.62059080               -0.01732433               -0.61074641                1.28910560                0.82396937
              16.41643963                4.99242717               73.32394565                0.00010000                0.16295273               -1.15487100               -0.27340525               -0.78895918                1.13178648                2.44311608
              17.41842462                4.51428187               72.89917470                0.00010000                0.41434031               -2.13152175               -0.51736339               -0.70032540                1.20174520                4.70941831
              18.42472644                4.02623934               72.48105948                0.00010000                3.29032221               -5.38290927               -0.86765649              -11.23544286               12.78651574                8.75131453
              19.48423107                3.28463642               72.29037425                0.00010000                5.02074560               -2.41917184               -3.63080064              -18.94381018               18.73812735                6.02856565
              20.52514135                2.59660907               71.98305965                0.00010000                3.12865486                0.58848151               -3.19854408              -15.17850069               10.55841708                5.06504549
              21.54680416                1.91219840               71.62760246                0.97177504                1.15788349                0.10240065               -0.40079532               -7.08484395                4.16206056               -0.02078091
              22.54829902                1.37250251               71.18866216                1.00000000                0.14948571                0.12349753               -0.45766795               -0.14490031                0.01267961               -0.04420327
              12.89111009                7.89268357               74.89861328                0.99212575               -0.11081393               -0.14195944                0.47965402               -0.01931850                0.27811039                0.70425382
              13.89000195                7.41868451               74.46139788                0.38538685               -0.08128150               -0.09064309                0.27392980               -0.00101891                0.48495591               -0.38675005
              14.88948446                6.94451341               74.02796380                0.00010000               -0.54531731               -0.03553806                0.06395649               -0.65505235                2.84996996               -1.19338477
              15.87909560                6.45689635               73.63816981                0.00010000               -0.57120211               -0.92278390               -0.49126899               -1.83591739                5.44454923                1.40427613
              16.87806041                5.96885310               73.25276980                0.00010000                0.62812482               -2.08059833               -1.17218831               -2.36354630                6.46219314                4.25275774
              17.89165810                5.47045128               72.87875596                0.00010000                3.24199467               -4.20190118               -2.14760543               -4.68601014                9.22086424                8.02814692
              18.94290031                4.91730078               72.54314625                0.00010000                5.42263749               -7.84330754               -3.80777154              -10.57035895               11.88986543               12.69617359
              20.00011085                4.26861603               72.21962066                0.00010000                5.28504500               -1.13927554               -5.81586462              -16.72231329               11.71419862                7.54891449
              21.04860121                3.60338278               71.88030008                0.00010000                4.38832846                1.49891819               -6.14335283              -18.59915696                4.39155572                7.71729213
              22.08787742                2.91190755               71.42741561                0.00010000                1.89156014                4.62874854                0.46100202              -12.43564507               -0.66917049                9.41689839
              23.08643241                2.37239326               70.98840529                0.41921843               -0.14450058                5.71433253                0.42010560               -5.32560745               -0.01061423                9.97257860
              13.36464662                8.89147382               74.76408268                0.93170132               -0.08344849               -0.09903069                0.38161933               -0.01628830                0.00502473                0.63341600
              14.36381213                8.41790991               74.31890794                0.23516544               -0.04814607               -0.06925014                0.17452396                0.00056603                0.46997748               -0.58022745
              15.36368370                7.94409634               73.88274668                0.00010000               -0.48523005               -0.08992870               -0.05917419               -0.95128383                4.62612220               -1.81042664
              16.35410753                7.45067407               73.52034669                0.00010000               -0.40349609               -0.50702577               -0.87034603               -2.07382723                8.82267422                0.27271686
              17.35561377                6.95081520               73.16374303                0.00010000                1.10746060               -1.50614157               -1.88308495               -3.21717107               10.04861902                2.31267169
              18.37625674                6.43024385               72.81976636                0.00010000                2.97703712               -2.96573589               -3.29280907               -6.14400524               11.68330395                4.38462751
              19.41515452                5.86937319               72.48914556                0.00010000                4.37230264               -3.04059444               -5.27380168              -11.64588899               12.83758137                5.35403654
              20.46370280                5.26185091               72.16158497                0.00010000                4.73560896                0.33102895               -7.73805620              -16.49137873               11.87897713                6.33557806
              21.50986670                4.62658744               71.80794465                0.00010000                3.26889953                3.99441454               -9.74390057              -18.00831997                8.41340595                7.91512813
              22.52908079                4.00477337               71.41493316                0.00010000                0.54743769               10.05984348              -10.82648040              -12.91074610                4.08036673               14.41526667
              23.52081545                3.48678916               70.98750713                0.41229059               -0.82653374               11.73003558              -11.03768874               -6.68866328                1.41838857               16.02938726
              13.83791214                9.89070296               74.62907023                0.93070844               -0.05213950               -0.06215758                0.27710944               -0.02125268               -0.00341938                0.66446434
              14.83739075                9.41729951               74.17827941                0.22289722               -0.01087617               -0.04541959                0.07456851               -0.04907670                0.20859667               -0.47537187
              15.83769462                8.94271484               73.73153702                0.00010000               -0.32452741               -0.10203449               -0.20497574               -1.14566263                5.77617994               -2.03000536
              16.83090020                8.44675584               73.39223445                0.00010000               -0.17737008               -0.27467710               -1.13767475               -2.55196281               11.40383641               -0.73206433
              17.83414722                7.93873027               73.05473282                0.00010000                0.96599035               -0.79480937               -2.33169725               -4.05251566               12.14364677                0.46928622
              18.85022001                7.41113657               72.72479991                0.00010000                2.21141263               -1.10707096               -3.92445610               -6.82546137               13.20918295                1.50772066
              19.87837547                6.85648889               72.40190722                0.00010000                3.14245086               -0.30100350               -6.07510152              -10.47044316               13.87279249                2.38629795
              20.91306902                6.27523661               72.07769701                0.00010000                3.35684379                2.15987093               -8.83380659              -13.51958390               13.33748693                3.32950619
              21.94551235                5.68327107               71.73811070                0.00010000                2.81958742                5.98006840              -12.01634315              -13.89953083               10.83316939                5.11436619
              22.96946077                5.11310442               71.36561302                0.00010000                2.15576090               10.13056808              -15.00733278               -9.10714466                6.25311771                7.16523243
              23.98862756                4.60699397               70.94812933                0.41282007                1.91667920               11.18478577              -16.34022384               -3.90434437                2.68390539                7.93232922
              14.31102846               10.89023067               74.49461323                0.94883158               -0.02097379               -0.03455379                0.17316178               -0.02209901               -0.01085845                0.72924526
              15.31081872               10.41700152               74.03792029                0.24108925                0.01428291               -0.01178844               -0.02922205               -0.07672797                0.08768179               -0.46623765
              16.31131412                9.94205565               73.58310083                0.00010000               -0.18829403               -0.02117745               -0.31697109               -1.23471803                6.54980172               -1.83620630
              17.30705284                9.44518053               73.25626417                0.00010000               -0.05656952               -0.01432351               -1.29689433               -2.74701205               13.04503792               -1.42772814
              18.31018273                8.93491901               72.93037926                0.00010000                0.74680266               -0.07090400               -2.54625874               -4.22655263               13.50517459               -0.83233139
              19.32198890                8.40810243               72.60915355                0.00010000                1.57314412                0.17259808               -4.18843720               -6.27971046               14.18996282               -0.24547074
              20.34164561                7.86335312               72.29175338                0.00010000                2.22700185                1.18456161               -6.36180317               -8.50765746               14.59760271                0.30553344
              21.36652893                7.30504832               71.97225834                0.00010000                2.61813297                3.21369623               -9.16207934               -9.93748435               14.05237368                0.92113159
              22.39400827                6.74618880               71.63877280                0.00010000                2.83430316                5.95014628              -12.41989389               -9.30201193               11.73264434                1.61191724
              23.42321500                6.20738473               71.27443687                0.00010000                3.04705919                8.38418409              -15.36513832               -5.79676273                6.93941081                2.24103756
              24.45494945                5.71048488               70.85916380                0.41381724                3.17344585                8.99199140              -16.81810420               -2.71935831                3.09614584                2.30112110
              14.78392846               11.89001188               74.36038358                0.95774695                0.01027412               -0.00896834                0.06769579               -0.02046860               -0.00261717                0.77388712
              15.78403120               11.41706374               73.89759689                0.26067317                0.04463917                0.02399206               -0.13067386               -0.08060401                0.07078282               -0.49277810
              16.78482125               10.94229129               73.43629075                0.00010000               -0.04673036                0.05410685               -0.41783223               -1.19466596                7.15054144               -1.77530253
              17.78309660               10.44646937               73.11600572                0.00010000                0.09365093                0.22579144               -1.36734266               -2.58259997               14.15606079               -1.74661980
              18.78669427                9.93731219               72.79691664                0.00010000                0.65475472                0.39825388               -2.58743644               -3.78186938               14.40040699               -1.52519965
              19.79619169                9.41458853               72.48081303                0.00010000                1.22910793                0.85243070               -4.18678162               -5.13427871               14.78067315               -1.24099520
              20.81127642                8.88018012               72.16668750                0.00010000                1.76459781                1.82706851               -6.28363763               -6.32451070               14.92287400               -0.96172460
              21.83148365                8.33951053               71.84916679                0.00010000                2.29296383                3.36047164               -8.95865394               -6.78465708               14.21552247               -0.70159818
              22.85713570                7.80227400               71.51718844                0.00010000                2.88728990                5.15988844              -12.03416326               -5.94801930               11.79833040               -0.47810569
              23.88922945                7.28078810               71.15341335                0.00010000                3.54522036                6.55978992              -14.86614247               -3.57923143                6.97337429               -0.37722603
              24.92804011                6.78683380               70.73765870                0.41429590                3.88106617                6.73065901              -16.43219433               -1.72095875                3.19018110               -0.48522590
              15.25651537               12.89005130               74.22634224                0.96250192                0.04118684                0.01732724               -0.04055364               -0.01853452               -0.00034087                0.78658460
              16.25692724               12.41748136               73.75698886                0.28581630                0.07499026                0.05946161               -0.22881316               -0.07621827                0.09821247               -0.54607124
              17.25801518               11.94313779               73.28973880                0.00010000                0.17263504                0.10582287               -0.51521177               -1.06108512                7.76623293               -1.50492428
              18.26037994               11.44969636               72.97490922                0.00010000                0.42054998                0.31407238               -1.38478841               -2.14361607               15.07869350               -1.69680798
              19.26642618               10.94288409               72.65968257                0.00010000                0.80277237                0.55013697               -2.51407671               -2.92985010               15.00569893               -1.62540859
              20.27643539               10.42515104               72.34638151                0.00010000                1.19036076                1.06911665               -4.00884161               -3.67890137               15.09202446               -1.52691964
              21.29023339                9.89989449               72.03361600                0.00010000                1.61532616                1.91805641               -5.96628461               -4.20549037               14.97652613               -1.45046449
              22.30874191                9.37225776               71.71627157                0.00010000                2.17684632                3.06560990               -8.46682486               -4.20596421               14.09632327               -1.40586936
              23.33377032                8.84938657               71.38372078                0.00010000                2.91643274                4.30492530              -11.37268996               -3.45119952               11.62875996               -1.39403426
              24.36707057                8.33858053               71.01909645                0.00010000                3.73342802                5.24868701              -14.14647589               -1.96454228                6.86485013               -1.44739454
              25.40843888                7.84509806               70.60206444                0.41525852                4.13683121                5.34637273              -15.89630796               -1.00305932                3.19582368               -1.69196481
              15.72869766               13.89035843               74.09196571                0.86318689                0.07226938                0.04539367               -0.15255003               -0.01663800                0.05118946                0.72526255
              16.72942035               13.41825298               73.61607480                0.21337075                0.13434436                0.09327416               -0.32260543               -0.07236640                0.50508519               -0.56975063
              17.73138455               12.94440774               73.14950538                0.00010000                0.55288114                0.12105812               -0.65077773               -0.93222051                8.56643024               -1.20778796
              18.74047797               12.45275081               72.83611919                0.00010000                1.06290167                0.07444707               -1.37680179               -1.36221707               15.77256099               -1.13401560
              19.75264258               11.94831493               72.52389843                0.00010000                1.25626461                0.43527502               -2.37891713               -1.68813280               15.46024164               -1.08742902
              20.76560327               11.43597086               72.21212794                0.00010000                1.37086612                0.99121183               -3.73522000               -1.96418883               15.24869267               -1.08611833
              21.78005990               10.91854125               71.89973385                0.00010000                1.61345051                1.74874022               -5.51058663               -2.13281009               14.91216325               -1.10836711
              22.79787228               10.40082273               71.58189730                0.00010000                2.08645185                2.66399154               -7.79588883               -2.01028530               13.91723934               -1.16052113
              23.82178894                9.88837250               71.24855474                0.00010000                2.81774206                3.60971696              -10.49979100               -1.52030427               11.46351328               -1.23715063
              24.85422712                9.38576184               70.88310204                0.00010000                3.65774652                4.36768694              -13.18401582               -0.78313592                6.77852006               -1.32815274
              25.89494387                8.89376125               70.46399237                0.41675837                4.07167502                4.63197243              -15.09661261               -0.47795392                3.26219351               -1.71889455
              16.20039352               14.89095917               73.95639041                0.91463605                0.10370772                0.06007450               -0.26005142                0.00835303                0.32365953                0.67711832
              17.20143060               14.41934684               73.47566219                0.58611296                0.22397044                0.10938665               -0.41893412               -0.06898653                1.09531380               -0.58610487
              18.20487293               13.94555895               73.01070434                0.34544172                1.38989093                0.11512066               -0.83517649               -1.05923868                9.76054391               -1.23518250
              19.22922842               13.45118530               72.70515547                0.33531786                2.22852711               -0.15655141               -1.36510440               -0.82342381               16.58815060               -0.48922865
              20.24944347               12.95158959               72.39494716                0.33218731                1.88484371                0.32746623               -2.24790849               -0.63041166               15.81905093               -0.51838108
              21.26692529               12.44497528               72.08462277                0.33443819                1.66409245                0.90044167               -3.46191783               -0.70381250               15.44712521               -0.55080816
              22.28272532               11.93486929               71.77298552                0.34197401                1.58898294                1.63280424               -5.04845190               -0.70534252               15.00190913               -0.61998375
              23.29870495               11.42553759               71.45569243                0.35493481                1.78499023                2.47148565               -7.09255725               -0.58115164               14.01476219               -0.73411340
              24.31842513               10.92158091               71.12333604                0.37421528                2.36570752                3.32084076               -9.55378144               -0.31654722               11.71598675               -0.90779495
              25.34601910               10.42593427               70.75988571                0.39866542                3.22279230                4.01724287              -12.06615660               -0.01297223                7.17033271               -1.11504085
              26.38288097                9.93773750               70.34083022                0.70881560                3.68618717                4.39762504              -13.97571570               -0.02596603                3.86616454               -1.72165932
              11.89395124                5.03866757               76.30487788                1.00000000               -0.17831525               -0.18452879                0.65117907               -0.03130137               -0.38797250                0.49227628
              12.89216809                4.55855146               75.87318191                0.99315729               -0.16293147               -0.14277124                0.52021559               -0.01421111               -0.46858425                0.05494100
              13.89069261                4.07812998               75.43928156                0.98447164               -0.13057750               -0.10051467                0.38915662               -0.01387145               -0.48584288               -0.05644459
              14.88955654                3.59719149               75.00710035                0.62107788               -0.11609640               -0.05843009                0.25479483               -0.05571252               -0.44932917               -0.33112024
              15.88837068                3.11510509               74.57424573                0.43944389               -0.09980549               -0.00747202                0.12173454               -0.08511804               -0.42563904               -0.30290723
              16.88756043                2.63198717               74.14315045                0.12321053               -1.20208967                0.01754181               -0.03598361               -1.16380049                0.81663794               -0.55756794
              17.86432889                2.12707409               73.73616689                0.00010000               -4.97163273                1.39158245                0.00535025               -8.33003758               11.01220800               -2.75390638
              18.78812777                1.45858122               73.51059190                0.00010000               -2.83225356                0.32243597               -1.75578279               -7.96318736               20.94625214                0.65384362
              19.80768382                0.77948320               73.26581796                0.00010000                5.75770819               -1.34712825               -2.40070860               -7.13794647               19.45298372                1.03769706
              20.90328194                0.09917609               73.00464850                1.00000000                5.15777782                0.56525882               -2.45296246               -6.86373679                8.93871286               -0.04705808
              21.91083937               -0.44082632               72.56513480                1.00000000                0.75574374                0.57847526               -2.48758959               -0.16364946                0.00266024               -0.01827472
              12.37375434                6.03682228               76.16925063                1.00000000               -0.14595690               -0.17213605                0.56103107               -0.00994689                0.02686211                0.69195449
              13.37229477                5.55712374               75.73737173                0.97687858               -0.12602296               -0.13205687                0.43077249                0.00642976                0.10364755                0.07874145
              14.37123388                5.07712484               75.30651694                0.96779160               -0.08914554               -0.09022574                0.30105050                0.00495785                0.15866562               -0.24786150
              15.37051186                4.59660719               74.87568618                0.73554873               -0.05561069               -0.05642188                0.17996296               -0.02232122                0.24906251               -0.28940246
              16.37012166                4.11503037               74.44705325                0.60498053               -0.02869677               -0.00969787                0.03000353               -0.04818873                0.25338838               -0.23967342
              17.36993792                3.63216259               74.01717371                0.28203302               -0.11950883                0.02553153               -0.12528503               -0.43164488                0.32186591               -0.42285817
              18.36773149                3.14098992               73.59119308                0.00010000                0.61767130                0.70334755               -0.34426699               -8.83320709               10.69587446               -1.42733606
              19.38229135                2.46180558               73.37001029                0.00010000                2.41377151               -1.48474972               -1.67812178              -12.20119267               19.02297408                1.75531861
              20.41600692                1.76601192               73.10485728                0.00010000                3.12539900               -0.63511408               -2.01432764              -10.17198585               15.85464929                1.61548696
              21.44479933                1.10482868               72.81412088                1.00000000                1.65991859                0.41293296               -1.43393079               -5.91544528                7.43985656               -0.05469016
              22.44920529                0.56495843               72.37466348                1.00000000                0.44059619                0.42620203               -1.46786162               -0.14987422                0.00032431               -0.04178409
              12.85314937                7.03522485               76.03680753                0.99597878               -0.11552482               -0.14332855                0.46856122               -0.01368096                0.16478211                0.81495587
              13.85199412                6.55591032               75.60172867                0.97576679               -0.09205265               -0.10896811                0.34091267               -0.00093311                0.35825822               -0.00335467
              14.85130832                6.07632547               75.17009264                0.00010000               -0.03947740               -0.06443587                0.21279093               -0.02398637                0.89398643               -0.68188375
              15.85120458                5.59606305               74.74576439                0.00010000                0.02715964               -0.62730099                0.11081816               -0.49250686                1.27704131                0.63993952
              16.85185151                5.11491114               74.32231839                0.00010000                0.08817034               -1.14127531               -0.06086059               -0.53386417                1.09626980                2.02960922
              17.85296798                4.63249780               73.89556673                0.00010000                0.30851207               -2.04638734               -0.21585199               -0.26526418                1.12960576                3.94024671
              18.85802175                4.14114105               73.47444529                0.00010000                3.30569700               -4.98294254               -0.46488458               -9.12215508               11.61019271                7.37700037
              19.91908192                3.42888622               73.25986797                0.00010000                5.15996238               -2.61911786               -2.66714111              -15.72894977               17.56962289                4.34435316
              20.96122100                2.76678092               72.95715726                0.00010000                3.34722952                0.07004660               -2.30896405              -12.46568793               11.76269772                3.05723226
              21.98602651                2.10743475               72.62311805                0.97377313                1.31806896                0.12490740               -0.45072400               -5.83395166                5.27433054               -0.05669625
              22.98758238                1.56769772               72.18371524                1.00000000                0.15558671                0.13724839               -0.48188176               -0.14657438               -0.00277283               -0.05656979
              13.33210977                8.03395571               75.90288778                0.98755102               -0.09342896               -0.10735839                0.37726283               -0.01508109                0.27379852                0.69952733
              14.33117548                7.55494438               75.46404213                0.39449093               -0.07541790               -0.08727316                0.25452995                0.00318650                0.47634582               -0.38334558
              15.33060141                7.07583612               75.02890602                0.00010000               -0.45497151               -0.07707543                0.12226083               -0.59954301                2.64940145               -1.19598713
              16.32207605                6.58406117               74.63363055                0.00010000               -0.37958892               -0.94520558               -0.40647410               -1.60613228                4.97108668                1.07793467
              17.32300964                6.09220487               74.24165912                0.00010000                0.81633376               -2.05237124               -1.01993299               -1.88925455                5.73105090                3.54057097
              18.33840273                5.59123484               73.85852479                0.00010000                3.29451616               -4.01481817               -1.85313842               -3.69972635                7.88539640                6.74907042
              19.38889996                5.04133107               73.50775936                0.00010000                5.18348767               -7.29570462               -3.15432435               -8.50870681               10.00397284               10.71119527
              20.44207248                4.40942322               73.17132535                0.00010000                4.96223378               -1.52394763               -4.29008665              -13.79747224               10.16375326                5.68690132
              21.48814463                3.76741285               72.83248554                0.00010000                4.25655043                0.72595991               -4.19310803              -15.22627168                6.85822578                4.74645224
              22.52720349                3.10732683               72.43233775                0.00010000                1.88016121                3.57495724                0.45108106              -10.55683724                1.95317611                4.51597725
              23.52574786                2.56770340               71.99292514                0.40975957               -0.14556311                4.92876710                0.42392056               -5.16520783                0.01984775                5.20715743
              13.81087040                9.03307768               75.76743108                0.94495732               -0.06929611               -0.06880835                0.29014592               -0.01295730               -0.00042048                0.62707696
              14.81017744                8.55416486               75.32065514                0.24929864               -0.03348674               -0.07056638                0.17369388               -0.01100558                0.44794476               -0.57663522
              15.81020067                8.07478396               74.88256628                0.00010000               -0.37321298               -0.13584625                0.02096933               -0.91084458                4.25584554               -1.80435977
              16.80271318                7.57715894               74.51186823                0.00010000               -0.16539581               -0.58754214               -0.80548927               -1.93608725                8.01528759                0.08454844
              17.80689275                7.07386371               74.14525489                0.00010000                1.35670355               -1.55558920               -1.76786712               -2.89802848                8.88106966                1.87844875
              18.82984725                6.55220144               73.78773867                0.00010000                3.13832410               -2.92442598               -3.01761349               -5.41981633                9.91694599                3.67388262
              19.86965923                5.99522695               73.43946008                0.00010000                4.36017224               -3.02960991               -4.57484986              -10.19294063               10.38675276                4.47834240
              20.91705070                5.39840727               73.09257545                0.00010000                4.45663643               -0.16401138               -6.16906624              -14.10372791                9.33603054                5.00523439
              21.95879196                4.78130011               72.72837842                0.00010000                2.87742581                2.82891311               -6.96392917              -15.16701173                6.45444424                5.49824923
              22.97459921                4.17893389               72.33265603                0.00010000                0.23665560                7.84021886               -7.05917585              -10.98523885                3.19882091                7.71632714
              23.96352507                3.66627306               71.90728454                0.40709274               -1.10741399                9.64396848               -6.70207267               -5.93175339                1.65323052                8.96856285
              14.28967627               10.03257954               75.63141109                0.94740109               -0.04271828               -0.03624004                0.19377579               -0.01708931               -0.00251470                0.65338868
              15.28924909                9.55353305               75.17911697                0.24133711               -0.01429185               -0.04959834                0.09170449               -0.05888402                0.17289257               -0.47406588
              16.28939043                9.07311919               74.73013812                0.00010000               -0.24872664               -0.12618011               -0.07517212               -1.13927054                5.31435375               -1.97525389
              17.28427456                8.57231033               74.38100534                0.00010000                0.03080692               -0.36487592               -1.08337120               -2.48740407               10.43236541               -0.78690207
              18.29000657                8.06109308               74.03154541                0.00010000                1.21843011               -0.87182131               -2.25071430               -3.82889130               10.81122815                0.31312947
              19.30864316                7.53274632               73.68618721                0.00010000                2.44143678               -1.17833644               -3.69836933               -6.31453321               11.30854053                1.26715674
              20.33883531                6.98073887               73.34352593                0.00010000                3.26408015               -0.49906826               -5.46975465               -9.52671263               11.27527894                2.08455221
              21.37392476                6.40614299               72.99625063                0.00010000                3.27212347                1.59713647               -7.43537849              -12.10658924               10.13203233                2.92682406
              22.40427778                5.82399111               72.63272721                0.00010000                2.43005014                4.73096465               -9.34091213              -12.17405096                7.68503363                4.15709644
              23.42252576                5.26413120               72.24204483                0.00010000                1.40783374                8.06961447              -10.73101776               -7.87375862                4.15129179                5.57682768
              24.43243445                4.76058277               71.81731323                0.40835611                0.99086888                8.84038716              -11.18846012               -3.40262062                1.79347640                5.79242180
              14.76862159               11.03235288               75.49595720                0.96725717               -0.01614832               -0.01128442                0.09887703               -0.01823970               -0.00888262                0.71465824
              15.76846011               10.55317289               75.03782818                0.26234944                0.00081956               -0.02174434                0.00895166               -0.07870223                0.05687264               -0.46362002
              16.76863798               10.07226036               74.58091310                0.00010000               -0.17344480               -0.05161607               -0.13473076               -1.22827897                6.06017093               -1.75501162
              17.76499121                9.56986142               74.24342346                0.00010000                0.06204758               -0.09112707               -1.24434872               -2.72090147               12.03005562               -1.36926263
              18.76987893                9.05642728               73.90486792                0.00010000                0.94597946               -0.14804412               -2.50224560               -4.06963064               12.17223329               -0.78314002
              19.78391080                8.52863471               73.56754417                0.00010000                1.79246862                0.06913089               -4.03539826               -5.95705969               12.35988483               -0.19460402
              20.80572831                7.98524559               73.22975154                0.00010000                2.38779361                0.96351776               -5.89943437               -7.98372143               12.12784976                0.39353054
              21.83166667                7.43035000               72.88556749                0.00010000                2.57972136                2.72876034               -8.05357602               -9.23270031               11.01062156                1.05963575
              22.85732273                6.87591941               72.52548531                0.00010000                2.44328538                5.05383190              -10.27127738               -8.57780341                8.62311949                1.83070793
              23.88053238                6.34032618               72.13802563                0.00010000                2.26233974                7.00907585              -12.08850672               -5.30526699                4.84518192                2.42382231
              24.90256953                5.84308081               71.71268708                0.40951049                2.20371473                7.42173332              -12.81698854               -2.42023581                2.18098210                2.23626062
              15.24767146               12.03235385               75.36073202                0.97649971                0.00961086                0.01074595                0.00701357               -0.01750084               -0.00060645                0.75266383
              16.24776756               11.55309817               74.89661753                0.28338902                0.02324320                0.00581596               -0.06916508               -0.07992320                0.04315988               -0.48424260
              17.24813632               11.07208687               74.43338429                0.00010000               -0.10389822                0.00367771               -0.19001560               -1.17710302                6.66787461               -1.69691537
              18.24568960               10.57048779               74.10250031                0.00010000                0.08521794                0.17620862               -1.31250518               -2.56062270               13.18450879               -1.61734894
              19.24984068               10.05813220               73.77082191                0.00010000                0.74970307                0.35688266               -2.58371434               -3.67404467               13.16857609               -1.35719591
              20.26068366                9.53412894               73.43885419                0.00010000                1.38024532                0.78132795               -4.11795202               -4.95976729               13.13863548               -1.02931982
              21.27744558                9.00000923               73.10472633                0.00010000                1.89566372                1.65667127               -5.97531380               -6.08141328               12.75460016               -0.68458126
              22.29859694                8.46071820               72.76308337                0.00010000                2.26499719                3.01498417               -8.12467158               -6.49657024               11.57643533               -0.32765505
              23.32274553                7.92506775               72.40495164                0.00010000                2.53310453                4.58454462              -10.35855907               -5.66221806                9.15963998               -0.01416308
              24.34925903                7.40431272               72.01857573                0.00010000                2.78874816                5.78099275              -12.21700310               -3.37987323                5.21688611                0.08929673
              25.37852049                6.90901744               71.59139546                0.41069981                2.92614657                5.85553708              -13.07748871               -1.56070665                2.38778534               -0.31634695
              15.72678295               13.03256780               75.22567938                0.97795512                0.03456781                0.03234683               -0.08536068               -0.01573439                0.00152452                0.75873847
              16.72712862               12.55328921               74.75516912                0.30960351                0.04616782                0.03262346               -0.14261957               -0.07414269                0.07148376               -0.53109619
              17.72770630               12.07233391               74.28617432                0.00010000                0.03024035                0.03766790               -0.24247514               -1.00979582                7.30821674               -1.44708814
              18.72773343               11.57338560               73.96127139                0.00010000                0.25252939                0.31728631               -1.33034856               -2.09044455               14.19995273               -1.54594891
              19.73275689               11.06356494               73.63413276                0.00010000                0.75524998                0.58436851               -2.55768971               -2.86003135               13.93687771               -1.42060880
              20.74283843               10.54426127               73.30580101                0.00010000                1.23769437                1.06804259               -4.03537379               -3.61787428               13.70664733               -1.26732248
              21.75751078               10.01837901               72.97413105                0.00010000                1.69191581                1.82780004               -5.81714259               -4.14900900               13.16886474               -1.12139509
              22.77667675                9.49064969               72.63400456                0.00010000                2.14865379                2.83375541               -7.87647762               -4.15167957               11.90226424               -1.00147798
              23.80048385                8.96761030               72.27661164                0.00010000                2.61542404                3.90046411              -10.02955755               -3.39466248                9.42284287               -0.95492269
              24.82898523                8.45594604               71.88976946                0.00010000                3.07310550                4.67105162              -11.86942008               -1.90780257                5.37915875               -1.10043862
              25.86194596                7.96019155               71.46008310                0.41171331                3.29607360                4.63164428              -12.82579597               -0.87855526                2.51710973               -1.65240909
              16.20591395               14.03300079               75.09025969                0.87508154                0.06046497                0.05637314               -0.18112628               -0.01294185                0.05218705                0.69520519
              17.20651859               13.55375064               74.61344169                0.23336343                0.09650343                0.05901436               -0.21595878               -0.06926659                0.45003257               -0.55134714
              18.20784401               13.07284023               74.14479715                0.00010000                0.30655439                0.04505467               -0.34263073               -0.81342637                8.12120270               -1.16831575
              19.21264968               12.57683351               73.82252398                0.00010000                0.69601843                0.19737238               -1.33726420               -1.28596845               15.02375580               -1.01670104
              20.22176438               12.06981957               73.49938710                0.00010000                1.04312085                0.56562540               -2.49209296               -1.65515431               14.58891579               -0.94039280
              21.23351210               11.55548979               73.17372592                0.00010000                1.31563012                1.08227756               -3.88539612               -1.97714607               14.14747882               -0.89350974
              22.24807698               11.03656523               72.84387093                0.00010000                1.64099789                1.75863791               -5.56044484               -2.17348367               13.48440904               -0.86215340
              23.26633206               10.51739331               72.50494107                0.00010000                2.07394704                2.54653152               -7.49732747               -2.06807002               12.16236528               -0.85871757
              24.28955593               10.00307703               72.14830967                0.00010000                2.60948348                3.32365190               -9.54180665               -1.57194837                9.66847524               -0.90545859
              25.31852173                9.49773375               71.76132377                0.00010000                3.14512212                3.88658415              -11.33706722               -0.79691627                5.54633243               -1.06700702
              26.35245837                9.00165032               71.32873521                0.41285710                3.39366410                3.93245288              -12.34174374               -0.36030345                2.67040596               -1.64212284
              16.68502442               15.03369526               74.95366590                0.92009094                0.08794360                0.06944698               -0.27990896               -0.01152939                0.30983582                0.64656466
              17.68590385               14.55446949               74.47216987                0.59105735                0.16652416                0.07188584               -0.29282085               -0.08448703                0.98786803               -0.56375737
              18.68835490               14.07323501               74.00453377                0.34429312                0.95654358                0.03947744               -0.46443313               -0.80573404                9.31471731               -1.17986361
              19.70503472               13.57733304               73.69133779                0.33514971                1.63213150                0.04995309               -1.38156881               -0.67937393               16.00717847               -0.46190185
              20.72099753               13.07487745               73.37114719                0.33235823                1.57575656                0.50578753               -2.47286032               -0.64799677               15.13392611               -0.47121102
              21.73654985               12.56590682               73.04796493                0.33436108                1.55700281                1.04170272               -3.79632735               -0.76250825               14.58772440               -0.47673973
              22.75213758               12.05355177               72.72015998                0.34101364                1.61268447                1.69865456               -5.38651855               -0.81026505               13.88109442               -0.51367286
              23.76880354               11.54158032               72.38324763                0.35324468                1.82834292                2.41870062               -7.23072179               -0.72627306               12.60208720               -0.58689680
              24.78870444               11.03408334               72.02894308                0.37090425                2.28350335                3.10063084               -9.19686984               -0.48027795               10.22752334               -0.71075821
              25.81447361               10.53367772               71.64473235                0.39473341                2.91011568                3.59439685              -10.95966913               -0.16694830                6.12521302               -0.90437758
              26.84690676               10.03884060               71.21213732                0.70683132                3.24331463                3.71902829              -11.97129176               -0.03887275                3.29063338               -1.53452038
              12.32241341                5.17965260               77.31070168                0.99698494               -0.14921310               -0.14488286                0.51651557               -0.01766889               -0.38848287                0.48916224
              13.32092128                4.69535470               76.87809031                0.98920105               -0.14476258               -0.12735643                0.46180346               -0.00305406               -0.47025926                0.05446230
              14.31951816                4.21078199               76.44327199                0.98542241               -0.13435632               -0.10822761                0.40667243               -0.00251643               -0.48886723               -0.05384869
              15.31823416                3.72575360               76.01014028                0.63149878               -0.13822650               -0.08975254                0.34835753               -0.03849977               -0.45092324               -0.31394866
              16.31675363                3.23972923               75.57635832                0.44284760               -0.13970594               -0.06448432                0.29300559               -0.06418456               -0.43517495               -0.30227970
              17.31544004                2.75283325               75.14411404                0.11464956               -1.23522861               -0.06249733                0.21860810               -1.08712744                0.88307663               -0.55834854
              18.29204906                2.24531823               74.73767998                0.00010000               -4.14577766                1.28156087                0.24498387               -6.76807685               10.41772212               -2.89657017
              19.23252448                1.60348060               74.49470193                0.00010000               -1.86412355               -0.06508315               -1.42863388               -6.56029656               19.66108267                0.36191536
              20.25476659                0.94685713               74.24297086                0.00010000                5.53172430               -1.42735292               -2.17659289               -6.15891217               18.90978512                0.70098433
              21.34315897                0.28440432               73.98012279                1.00000000                4.79146319                0.58918648               -2.45711999               -5.98074281                8.85341662               -0.01631066
              22.35059585               -0.25535711               73.54054442                1.00000000                0.74368824                0.58643042               -2.43233898               -0.14973719                0.00513500                0.00492749
              12.80653462                6.17820377               77.17423507                0.99294566               -0.12085777               -0.13388081                0.43863342               -0.00852274                0.02444246                0.68593028
              13.80532605                5.69408113               76.74144862                0.97067442               -0.11205396               -0.11847095                0.38477372                0.00585329                0.10043464                0.07802111
              14.80429354                5.20969971               76.30968906                0.97008125               -0.09752550               -0.10008191                0.33088491                0.00486879                0.16040890               -0.24365153
              15.80337554                4.72485608               75.87804000                0.76481798               -0.08607909               -0.08847143                0.28538083               -0.01844172                0.24378795               -0.26651165
              16.80257196                4.23908439               75.44831707                0.62313043               -0.08006379               -0.06578736                0.21460387               -0.04193736                0.23645522               -0.23379896
              17.80177426                3.75220827               75.01730792                0.28631115               -0.17636743               -0.05487610                0.14188556               -0.37503714                0.27899117               -0.41671506
              18.79904461                3.25813384               74.58961405                0.00010000                0.71889052                0.59474148                0.02117231               -7.43992541               10.07536119               -1.53576945
              19.81615207                2.60282977               74.35544863                0.00010000                2.68354961               -1.66360899               -1.28477507              -10.25815844               18.24399800                1.04433591
              20.85271561                1.93258360               74.08633827                0.00010000                3.41532950               -0.83658362               -1.74114615               -8.50774721               15.89415942                0.98507819
              21.88445866                1.29029618               73.79969463                1.00000000                1.80721513                0.42216402               -1.47317945               -4.97512887                7.65140802               -0.02898531
              22.88885991                0.75050719               73.36013273                1.00000000                0.44012483                0.42332867               -1.45443533               -0.15623200               -0.00002080               -0.02620687
              13.29048823                7.17697498               77.04092961                0.99075349               -0.09458243               -0.10765989                0.35848959               -0.01183401                0.16084455                0.80650805
              14.28954241                6.69298528               76.60497080                0.97163422               -0.08238179               -0.09949990                0.30756050               -0.00050267                0.35324679               -0.00226288
              15.28884059                6.20878035               76.17244842                0.00010000               -0.05308801               -0.07898416                0.25568564               -0.02052893                0.90155876               -0.67755308
              16.28848064                5.72398417               75.74748175                0.00010000               -0.01389535               -0.62524387                0.22666463               -0.39890816                1.26571334                0.43529287
              17.28856269                5.23841348               75.32272844                0.00010000                0.02045966               -1.11781825                0.13487346               -0.35166086                1.06734763                1.59722691
              18.28888984                4.75173572               74.89485766                0.00010000                0.20331848               -1.94737596                0.06388457                0.01455483                1.07490788                3.18719793
              19.29262906                4.25721306               74.47176179                0.00010000                3.20108600               -4.58119739               -0.07947779               -7.51963604               10.59855754                6.17778725
              20.35291156                3.57020842               74.23703143                0.00010000                5.22580856               -2.65915953               -2.01529567              -13.22899722               16.56619202                2.87787379
              21.39714523                2.93012546               73.93688037                0.00010000                3.64106195               -0.27464685               -1.94590079              -10.26615496               12.55506526                1.51411067
              22.42573280                2.29284760               73.61858798                0.97248251                1.49519816                0.11964630               -0.42385597               -4.74866528                6.08314297               -0.06210101
              23.42704919                1.75310946               73.17902452                1.00000000                0.13163938                0.12299528               -0.42123382               -0.13407922               -0.01030430               -0.06960106
              13.77427735                8.17605057               76.90615854                0.98398294               -0.07667250               -0.07414662                0.27956314               -0.01085050                0.26913000                0.69110209
              14.77351063                7.69209113               76.46648848                0.40687551               -0.06966393               -0.08414542                0.23464126                0.00814425                0.46519259               -0.37643206
              15.77288407                7.20812003               76.03040902                0.00010000               -0.38731932               -0.10016507                0.17631365               -0.54965077                2.42536927               -1.19380778
              16.76576424                6.71235120               75.63004032                0.00010000               -0.25484387               -0.94969633               -0.30100333               -1.40739875                4.46097676                0.71054066
              17.76778719                6.21672802               75.23237114                0.00010000                0.87507689               -1.99578014               -0.82038387               -1.51442006                5.01485910                2.78066332
              18.78326578                5.71326075               74.84169319                0.00010000                3.11960025               -3.78383221               -1.48390782               -2.93587466                6.76580889                5.47341133
              19.83017920                5.16650989               74.48005976                0.00010000                4.76969788               -6.70197979               -2.45847658               -6.90952201                8.57492125                8.83140238
              20.87865973                4.54964658               74.13381893                0.00010000                4.72870641               -1.65890488               -3.28685193              -11.54128645                9.25047792                3.98174502
              21.92475333                3.92709066               73.79643792                0.00010000                4.39208067                0.30926478               -3.66115873              -12.76138483                8.18634788                2.38711383
              22.96650135                3.29268911               73.43643723                0.00010000                2.04506347                2.82726145                0.31152294               -9.28526380                3.97214341                0.92632829
              23.96565460                2.75296710               72.99688370                0.40224606               -0.08467511                4.43314300                0.29881933               -5.09350884                0.01515958                1.88754596
              14.25819009                9.17549205               76.76988559                0.96264704               -0.05542583               -0.04029760                0.20299161               -0.01033086               -0.00477988                0.61245848
              15.25763583                8.69130237               76.32238182                0.26620779               -0.03012884               -0.07229913                0.17052479               -0.00520274                0.42333807               -0.56599532
              16.25758751                8.20677705               75.88316607                0.00010000               -0.29555788               -0.16285458                0.09576378               -0.85514369                3.84358261               -1.77395444
              17.25172468                7.70499025               75.50423690                0.00010000               -0.01113923               -0.64443166               -0.70166278               -1.79515955                7.13851602               -0.13567286
              18.25736473                7.19849788               75.12838568                0.00010000                1.43328982               -1.56740977               -1.56972365               -2.57642223                7.72333022                1.39335415
              19.28039047                6.67605908               74.75941409                0.00010000                3.03440316               -2.82932739               -2.61080990               -4.70899474                8.35636821                2.90792713
              20.31805279                6.12317347               74.39764856                0.00010000                4.05572949               -2.93107146               -3.79206342               -8.76951640                8.53122436                3.46627004
              21.36150506                5.53703032               74.03820365                0.00010000                4.04111024               -0.44327626               -4.89848125              -11.95070315                7.64324023                3.63923578
              22.39887500                4.93631075               73.66866607                0.00010000                2.63230109                2.11077271               -5.34149604              -12.94860052                5.37773027                3.18278676
              23.41415108                4.34939283               73.27374964                0.00010000                0.28740181                6.32911318               -5.58349145               -9.65695919                2.63293789                2.97444562
              24.40462303                3.84177232               72.85346567                0.40100322               -0.95280493                8.22363877               -4.95722467               -5.34676525                1.67286010                4.02446322
              14.74245009               10.17524462               76.63294575                0.96677606               -0.03285196               -0.01445751                0.11650712               -0.01400927               -0.00079510                0.63077302
              15.74212157                9.69064515               76.18011350                0.26111033               -0.01783850               -0.05369095                0.10556586               -0.05086203                0.14639305               -0.46322891
              16.74209332                9.20486294               75.73003357                0.00010000               -0.19906783               -0.15339019                0.04696345               -1.09239211                4.79905118               -1.91692938
              17.73814021                8.69946257               75.37056703                0.00010000                0.15482971               -0.43449672               -0.97991280               -2.37543233                9.34397338               -0.85972675
              18.74518992                8.18537983               75.00971854                0.00010000                1.31350397               -0.92590866               -2.07131989               -3.53231991                9.44449952                0.10794998
              19.76441029                7.65667421               74.65083252                0.00010000                2.43138572               -1.22578593               -3.31952223               -5.67894339                9.54901274                0.93523270
              20.79381763                7.10788847               74.29251212                0.00010000                3.10490467               -0.65750704               -4.71370227               -8.38833310                9.14523715                1.61709254
              21.82650839                6.54078105               73.92898944                0.00010000                2.98005901                1.11889880               -6.10059637              -10.45399058                7.85812838                2.20304259
              22.85341881                5.96930612               73.55129245                0.00010000                2.06961022                3.71338923               -7.28168841              -10.31860788                5.63042375                2.86535878
              23.86790059                5.41927137               73.15099267                0.00010000                1.02707458                6.49687246               -7.96959636               -6.65502289                2.90077440                3.52421464
              24.87396030                4.91743987               72.72436012                0.40208882                0.60597095                6.96777649               -8.08267478               -2.95199143                1.36492071                3.15915259
              15.22710884               11.17520290               76.49659077                0.97628094               -0.01085642                0.00491802                0.03360259               -0.01267370               -0.00515548                0.69210156
              16.22700028               10.69022855               76.03809933                0.28453953               -0.00932900               -0.03035976                0.04214801               -0.06865460                0.03956279               -0.45038893
              17.22692226               10.20370924               75.58040621                0.00010000               -0.16505684               -0.08855860                0.01860671               -1.18627958                5.49074863               -1.68741705
              18.22369914                9.69630031               75.23137719                0.00010000                0.12922157               -0.15940522               -1.14248851               -2.62602999               10.84382780               -1.31778171
              19.22950669                9.17997971               74.88033435                0.00010000                1.03019134               -0.22381986               -2.35879661               -3.81174824               10.74394477               -0.77225234
              20.24430297                8.65154336               74.52844558                0.00010000                1.83362974               -0.04644578               -3.72504409               -5.46533455               10.56968840               -0.21807653
              21.26617929                8.11002333               74.17376469                0.00010000                2.33523172                0.71102620               -5.24918247               -7.19067207                9.96311044                0.33358857
              22.29100760                7.55940830               73.81118681                0.00010000                2.39166166                2.18696559               -6.84595624               -8.15830664                8.62808560                0.92642514
              23.31401252                7.01057854               73.43334725                0.00010000                2.09546336                4.07791424               -8.31634213               -7.43303478                6.44840863                1.54099594
              24.33291687                6.47933028               73.03266674                0.00010000                1.76168416                5.57794166               -9.36866475               -4.51139648                3.48312534                1.91873420
              25.34924620                5.98112785               72.60282403                0.40348715                1.63293352                5.78354793               -9.66700631               -2.01043982                1.59358185                1.46393567
              15.71214531               12.17534298               76.36052385                0.97697413                0.00968214                0.02477506               -0.04366581               -0.00762467                0.00158410                0.73114649
              16.71224213               11.69003796               75.89621359                0.30760030                0.00753276               -0.00966352               -0.01745166               -0.06947537                0.03098285               -0.46626103
              17.71229597               11.20309176               75.43249044                0.00010000               -0.14464913               -0.04630405               -0.00994749               -1.13042564                6.08254669               -1.62763767
              18.70934915               10.69627446               75.08975561                0.00010000                0.07079662                0.12266967               -1.21942628               -2.47334595               11.98591362               -1.49035064
              19.71371190               10.18090343               74.74524235                0.00010000                0.78554158                0.29635122               -2.48887853               -3.47008748               11.77353420               -1.20991767
              20.72505998                9.65574529               74.39845399                0.00010000                1.42136759                0.66947504               -3.90099444               -4.62636806               11.43620345               -0.86017602
              21.74213925                9.12210899               74.04718123                0.00010000                1.88635313                1.41493317               -5.47399408               -5.59985366               10.72215284               -0.48419914
              22.76278705                8.58452036               73.68667336                0.00010000                2.13484409                2.54811005               -7.13886054               -5.89727932                9.35339518               -0.09833539
              23.78483613                8.05086440               73.31001725                0.00010000                2.21681498                3.81757754               -8.71144115               -5.06201997                7.11178248                0.22048872
              24.80712335                7.53083021               72.90907329                0.00010000                2.26601099                4.72467192               -9.88810624               -2.97440748                3.92685479                0.25140116
              25.83015635                7.03311083               72.47610893                0.40468029                2.30330086                4.67911377              -10.30017616               -1.32655835                1.81314107               -0.33197910
              16.19756639               13.17569840               76.22463503                0.97774031                0.02955924                0.04665183               -0.12227388               -0.00470708                0.00259732                0.73482318
              17.19786198               12.69003528               75.75413646                0.33514121                0.02554262                0.00936638               -0.07281444               -0.06369139                0.06087658               -0.50964782
              18.19807724               12.20278316               75.28488930                0.00010000               -0.07207142               -0.02048958               -0.04009685               -0.94256172                6.72387562               -1.39391988
              19.19642055               11.69875370               74.94830225                0.00010000                0.12784344                0.30379624               -1.25246965               -1.99312163               13.03862035               -1.39690259
              20.20063411               11.18590673               74.60852877                0.00010000                0.70747446                0.57946029               -2.52297205               -2.71568954               12.63342311               -1.22369973
              21.21057004               10.66493286               74.26567403                0.00010000                1.23865141                1.00957276               -3.92962751               -3.42878558               12.15759450               -1.02110642
              22.22540714               10.13832199               73.91727315                0.00010000                1.68682792                1.65801281               -5.48968154               -3.90843391               11.34799857               -0.81252636
              23.24430660                9.61037050               73.55874201                0.00010000                2.05275685                2.49424704               -7.14210850               -3.87490567                9.92101749               -0.62490830
              24.26646228                9.08693009               73.18312963                0.00010000                2.34378415                3.35337491               -8.71513822               -3.13035907                7.59872516               -0.53364561
              25.29118228                8.57382372               72.78170804                0.00010000                2.58457522                3.93142983               -9.91489961               -1.73075361                4.22829028               -0.69722664
              26.31815378                8.07471013               72.34554852                0.40609258                2.69714962                3.78768732              -10.37545540               -0.74272051                1.97974494               -1.35564226
              16.68337741               14.17627602               76.08834318                0.88906259                0.05061332                0.06898294               -0.20155919               -0.00427738                0.04801664                0.66432425
              17.68388354               13.69022528               75.61175562                0.25593581                0.06744493                0.02900305               -0.13059571               -0.05679695                0.41333959               -0.52748596
              18.68472631               13.20268197               75.14265277                0.00010000                0.12398034               -0.01473590               -0.11494188               -0.69763970                7.53367564               -1.13088563
              19.68636315               12.70235039               74.80937391                0.00010000                0.42463218                0.27829635               -1.28336916               -1.19256635               13.93273811               -0.90832136
              20.69321895               12.19249264               74.47405657                0.00010000                0.88529312                0.63692205               -2.53187206               -1.57764459               13.39676411               -0.79453107
              21.70406901               11.67593675               74.13442001                0.00010000                1.26569928                1.10148035               -3.90908542               -1.90632222               12.76399061               -0.70313916
              22.71853294               11.15526925               73.78852496                0.00010000                1.63059116                1.68478635               -5.43035363               -2.09370369               11.87735007               -0.61594745
              23.73668084               10.63440530               73.43195075                0.00010000                2.01213987                2.34080112               -7.04103763               -1.98401745               10.41543668               -0.55058642
              24.75877574               10.11793190               73.05771861                0.00010000                2.40236979                2.95844251               -8.58427419               -1.49589523                8.04333402               -0.55202606
              25.78472823                9.60945880               72.65636069                0.00010000                2.73766915                3.36029228               -9.77820471               -0.74602420                4.50651876               -0.71468161
              26.81352912                9.10886458               72.21715749                0.40709301                2.88008869                3.27663733              -10.24034616               -0.27292619                2.15710019               -1.30461226
              17.16958230               15.17707806               75.95079223                0.92554439                0.07377819                0.08020428               -0.29133864               -0.02578227                0.29939844                0.60951571
              18.17032009               14.69061534               75.46980578                0.59854848                0.12085213                0.03900565               -0.18798417               -0.08582636                0.91567362               -0.53523473
              19.17199935               14.20248844               75.00141568                0.34334677                0.62192389               -0.01935281               -0.19688609               -0.58748158                8.69914665               -1.13359543
              20.18275856               13.70431963               74.67752409                0.33497318                1.17477560                0.19692463               -1.36532756               -0.55262215               14.96793013               -0.42478131
              21.19549486               13.19864517               74.34548996                0.33225164                1.34542119                0.61525373               -2.60064621               -0.64026741               14.01492319               -0.41030333
              22.20966699               12.68696247               74.00869622                0.33407051                1.47848240                1.10257234               -3.96386660               -0.77157516               13.29747991               -0.38907887
              23.22506451               12.17201772               73.66525514                0.34034814                1.61483055                1.67484715               -5.47002598               -0.83564045               12.38194519               -0.38929417
              24.24196360               11.65718652               73.31107799                0.35153705                1.82131829                2.27812167               -7.07013631               -0.76766263               10.95720752               -0.41488304
              25.26149087               11.14609894               72.93939864                0.36795234                2.16827603                2.81670378               -8.61622727               -0.53633419                8.66474077               -0.49045733
              26.28532912               10.64102956               72.54069232                0.39008269                2.61964153                3.15707582               -9.83890685               -0.23271423                5.08371395               -0.65665124
              27.31388370               10.14024287               72.10140439                0.70397070                2.85545836                3.13782952              -10.30860002               -0.04321009                2.68787269               -1.20749003
              12.75140432                5.32138404               78.31520820                0.99377071               -0.12117238               -0.10710778                0.38779243               -0.00481695               -0.38899802                0.48594160
              13.75019260                4.83292410               77.88241798                0.98590485               -0.12695134               -0.11204180                0.40409513                0.00742854               -0.47216032                0.05428999
              14.74886529                4.34421886               77.44741501                0.98635107               -0.13704291               -0.11434903                0.41954498                0.00798728               -0.49235131               -0.05089429
              15.74745174                3.85511309               77.01406750                0.64258949               -0.15859345               -0.11776001                0.43193987               -0.02305735               -0.45232845               -0.29741248
              16.74569343                3.36514199               76.58010584                0.44858483               -0.17757184               -0.11577195                0.44781745               -0.04508998               -0.44077174               -0.30125696
              17.74390030                2.87443244               76.14752261                0.11073176               -1.17989911               -0.13477788                0.45190557               -0.96132579                0.88815309               -0.55958896
              18.72209544                2.36527454               75.74106657                0.00010000               -3.39208790                1.09181733                0.39056827               -5.60506116                9.80052921               -2.88008612
              19.67605854                1.74432611               75.48201922                0.00010000               -1.08183905               -0.39633189               -1.11980535               -5.48647038               18.33813395                0.13717915
              20.70045866                1.10676805               75.22228611                0.00010000                5.33590811               -1.49640929               -1.96984222               -5.31245192               18.13860840                0.41920372
              21.78277671                0.45970618               74.95550610                1.00000000                4.48200724                0.60775875               -2.45653218               -5.20799103                8.62548605               -0.04311761
              22.79009881               -0.07990440               74.51648802                1.00000000                0.73221003                0.58585941               -2.36137308               -0.13807262                0.00036552               -0.03906275
              13.23981609                6.32031296               78.17802330                0.98755875               -0.09666233               -0.09762506                0.32185282               -0.00695038                0.02200718                0.67963745
              14.23884947                5.83180368               77.74506721                0.96550896               -0.09827108               -0.10494508                0.33915435                0.00550316                0.09697885                0.07769539
              15.23785067                5.34307537               77.31313464                0.97243274               -0.10449340               -0.10822060                0.35576749                0.00475274                0.16145827               -0.23857204
              16.23675960                4.85393549               76.88139380                0.79293697               -0.11339117               -0.11722497                0.38009340               -0.01520100                0.23951238               -0.24488529
              17.23558285                4.36398427               76.45134533                0.64300287               -0.12694170               -0.11701915                0.38334464               -0.03608464                0.22461282               -0.22849104
              18.23422077                3.87308466               76.02001142                0.29651973               -0.22424266               -0.12879788                0.38927371               -0.31295319                0.25340173               -0.41170925
              19.23109799                3.37619272               75.59161653                0.00010000                0.81131585                0.44882663                0.37039600               -6.34990864                9.42026255               -1.57089805
              20.25044708                2.74036280               75.34431479                0.00010000                2.92730565               -1.81263525               -0.97443282               -8.75800605               17.33522234                0.48006974
              21.28964411                2.09180396               75.07003436                0.00010000                3.67929698               -0.99022858               -1.54735283               -7.21359676               15.67806946                0.37368333
              22.32403302                1.46578377               74.78465729                1.00000000                1.93422795                0.48719709               -1.51058394               -4.15406254                7.68939810               -0.00114465
              23.32832867                0.92595419               74.34557478                1.00000000                0.42956425                0.47295661               -1.42696286               -0.16273722               -0.00042752               -0.03390660
              13.72828388                7.31943154               78.04397733                0.98681737               -0.07436294               -0.07455982                0.25376383               -0.00981447                0.15690378                0.79742946
              14.72754025                6.83082519               77.60787988                0.96819056               -0.07276683               -0.08994771                0.27436252                0.00011520                0.34802648               -0.00035155
              15.72682854                6.34205445               77.17520635                0.00010000               -0.06507132               -0.09165283                0.29338323               -0.01751600                0.90698767               -0.67253776
              16.72623882                5.85276859               76.75029768                0.00010000               -0.05029918               -0.62093241                0.33112933               -0.33394911                1.25541132                0.22621976
              17.72582256                5.36280161               76.32501586                0.00010000               -0.04030141               -1.09116901                0.31586056               -0.24205013                1.04599970                1.17155155
              18.72543279                4.87185648               75.89684442                0.00010000                0.09982904               -1.84690106                0.32508276                0.16294906                1.04288933                2.49028391
              19.72781914                4.37425108               75.47285573                0.00010000                2.99271927               -4.20601876                0.29158461               -6.33042095                9.65241483                5.08908547
              20.78528718                3.70807341               75.21956206                0.00010000                5.14733066               -2.62384465               -1.51226115              -11.35153962               15.44276977                1.69719670
              21.83076575                3.08696348               74.91823924                0.00010000                4.01290234               -0.42172663               -1.84474445               -8.95070541               13.01569368               -0.24990302
              22.86554522                2.46945013               74.61464093                0.00010000                1.78687357                0.24539807               -0.52967904               -3.76206024                6.77889089               -0.22551225
              23.86650322                1.92955473               74.17529056                1.00000000                0.09579969                0.25294870               -0.45624370               -0.14806738                0.02154280               -0.30085030
              14.21683249                8.31882176               77.90847904                0.98135179               -0.06036288               -0.04459475                0.18744860               -0.00677978                0.26415702                0.68007191
              15.21622886                7.83000472               77.46873496                0.42056969               -0.06377647               -0.08026316                0.21454482                0.01220181                0.45237159               -0.36678669
              16.21555696                7.34124232               77.03243229                0.00010000               -0.34476977               -0.11870687                0.22595759               -0.50495936                2.19438640               -1.18789138
              17.20933346                6.84151684               76.62761048                0.00010000               -0.19515046               -0.94249043               -0.17979047               -1.25281796                3.95961668                0.32704225
              18.21165395                6.34216089               76.22525144                0.00010000                0.83484085               -1.92091049               -0.59683787               -1.25052915                4.38289593                2.01852329
              19.22603028                5.83614664               75.82884663                0.00010000                2.83093506               -3.53179172               -1.09926323               -2.39048016                5.84969815                4.24998113
              20.26827265                5.29207234               75.45858983                0.00010000                4.23368024               -6.10755413               -1.85870836               -5.72928583                7.53511390                7.08431003
              21.31070389                4.68788590               75.10558831                0.00010000                4.04903164               -1.60259703               -2.54762419               -9.75460461                8.12343285                2.47753589
              22.34925328                4.08336943               74.75926237                0.00010000                4.77483435                0.15689158               -2.91042470              -10.85796728                8.74232812                0.36331793
              23.40620057                3.47069173               74.43856821                0.00010000                2.79524140                2.72086229               -3.14946539               -8.77215604                2.69509806               -0.99297636
              24.40515811                2.93101317               73.99890152                0.39475188               -0.10424612                4.48655880               -0.77841531               -5.41550701               -2.86614405                1.64503228
              14.70578236                9.31853964               77.77149092                0.97641116               -0.04186296               -0.01659663                0.12115076               -0.00735225               -0.00728436                0.59226664
              15.70536373                8.82921993               77.32406564                0.28488320               -0.02825612               -0.07268789                0.16664542                0.00004688                0.39764167               -0.54951705
              16.70521724                8.33968031               76.88448155                0.00010000               -0.25499218               -0.18509269                0.16472557               -0.79700907                3.42686322               -1.73917118
              17.70026389                7.83391878               76.49783498                0.00010000                0.04824662               -0.67706687               -0.56741792               -1.65806591                6.26687537               -0.37543056
              18.70618217                7.32438340               76.11386041                0.00010000                1.37239258               -1.54287373               -1.32259977               -2.28605024                6.66774642                0.87651549
              19.72771174                6.80122065               75.73552247                0.00010000                2.76559947               -2.68635817               -2.16955569               -4.07419304                7.07908226                2.10036467
              20.76149416                6.25209999               75.36361881                0.00010000                3.55931298               -2.75538743               -3.07159330               -7.49443515                7.12661963                2.43216314
              21.79889800                5.67602147               74.99460582                0.00010000                3.46532072               -0.53326112               -3.87749555              -10.01977815                6.43389306                2.24247597
              22.83080057                5.09010131               74.62154850                0.00010000                2.17801845                1.66238370               -4.37107985              -10.32621751                4.09411844                1.76253744
              23.84245837                4.52386737               74.22098620                0.00010000                0.33748209                5.25033351               -4.30814162               -8.47711995                1.94742289               -0.33882636
              24.83755022                4.01928591               73.80814005                0.39513404               -0.49081513                7.16971486               -4.18754503               -5.06615436                1.89022274                0.28417263
              15.19532486               10.31848983               77.63374123                0.97545883               -0.02357390                0.00385842                0.04847749               -0.00793654                0.00194910                0.60451183
              16.19508912                9.82855097               77.18122829                0.28295755               -0.02034671               -0.05774558                0.11634894               -0.04385906                0.12849198               -0.44536128
              17.19491793                9.33754046               76.73107739                0.00010000               -0.18100314               -0.18125812                0.15258283               -1.03088059                4.25719719               -1.85052113
              18.19146906                8.82797550               76.36140709                0.00010000                0.18565723               -0.48007848               -0.83920643               -2.22806509                8.21978446               -0.95757116
              19.19863107                8.31130342               75.99011901                0.00010000                1.26803814               -0.94624881               -1.82957398               -3.20243764                8.15281272               -0.15422275
              20.21682982                7.78241948               75.61979676                0.00010000                2.24760271               -1.22844736               -2.88190093               -5.00881663                8.03799938                0.51037875
              21.24358313                7.23696459               75.24925189                0.00010000                2.77385884               -0.74258679               -3.96980610               -7.22218367                7.49491343                1.00222795
              22.27230700                6.67722068               74.87423870                0.00010000                2.56499510                0.75865622               -4.97318794               -8.72998302                6.22584271                1.35546272
              23.29488303                6.11661710               74.48709345                0.00010000                1.75832903                2.89566052               -5.72527192               -8.37559322                4.34776830                1.55612836
              24.30747358                5.57569840               74.08265291                0.00010000                0.90574628                4.83764366               -6.11258983               -5.19749499                2.18475396                1.97245181
              25.31299796                5.07440746               73.65565973                0.39627847                0.55243738                5.06624050               -6.03895323               -2.30027613                1.07926215                1.03199597
              15.68550136               11.31861681               77.49662925                0.97606809               -0.00654412                0.02213444               -0.02082210               -0.00523977               -0.00186889                0.67071069
              16.68543592               10.82806502               77.03867114                0.30921610               -0.01631343               -0.04075780                0.06963683               -0.06150768                0.03073569               -0.43134330
              17.68517509               10.33605515               76.58128523                0.00010000               -0.17481433               -0.12447154                0.14576322               -1.12102528                4.87666089               -1.61394753
              18.68193963                9.82431721               76.22057369                0.00010000                0.12571750               -0.21098921               -1.00626516               -2.47049161                9.57528530               -1.29714377
              19.68768944                9.30545842               75.85769198                0.00010000                0.99672989               -0.27819969               -2.14698148               -3.48418003                9.33116680               -0.82610389
              20.70187423                8.77665170               75.49304328                0.00010000                1.72799218               -0.13612555               -3.33853041               -4.87855661                8.95146935               -0.35335560
              21.72224928                8.23724826               75.12476789                0.00010000                2.13857992                0.49260960               -4.56698185               -6.26854781                8.18103020                0.10150931
              22.74464583                7.69119459               74.74864836                0.00010000                2.12808511                1.69878071               -5.74489519               -6.93559608                6.85321940                0.54032647
              23.76481099                7.14801452               74.35915847                0.00010000                1.80361396                3.15390190               -6.72370291               -6.14380670                4.95326463                0.94488321
              24.78071811                6.62062025               73.95065233                0.00010000                1.46577936                4.23005158               -7.33105588               -3.65864703                2.61270237                1.00981505
              25.79412657                6.12061072               73.51934695                0.39747312                1.34084668                4.26229490               -7.42235532               -1.61524869                1.25165921                0.37653181
              16.17632365               12.31893252               77.35985871                0.97689280                0.00969809                0.04140569               -0.08662364               -0.00313779                0.00193901                0.71164386
              17.17642063               11.82773581               76.89626850                0.33348128               -0.00392074               -0.02553998                0.02497029               -0.06127606                0.02740212               -0.44412131
              18.17624523               11.33505103               76.43318534                0.00010000               -0.18823350               -0.08809822                0.13377669               -1.05685769                5.43195075               -1.55222262
              19.17265596               10.82375572               76.07811178                0.00010000                0.01838733                0.07560182               -1.09858857               -2.31924378               10.65272984               -1.39391586
              20.17661298               10.30573942               75.72104434                0.00010000                0.74064484                0.24091498               -2.32538027               -3.18473099               10.32278602               -1.12378449
              21.18746886                9.77969697               75.36083430                0.00010000                1.35281502                0.56107073               -3.59769478               -4.17754596                9.80543942               -0.79231580
              22.20366928                9.24681678               74.99524645                0.00010000                1.76799780                1.17682501               -4.91007666               -4.96735940                8.93969533               -0.44214298
              23.22282881                8.71119629               74.62030616                0.00010000                1.94559818                2.08397641               -6.18791320               -5.12634279                7.56318096               -0.10095445
              24.24258124                8.17969514               74.23072282                0.00010000                1.94378189                3.06107550               -7.28826175               -4.31077593                5.58743013                0.13534610
              25.26170445                7.66029944               73.82081361                0.00010000                1.90653978                3.70469285               -8.01558661               -2.48138734                3.01823283                0.06640979
              26.28071204                7.15965336               73.38539194                0.39870293                1.90075899                3.57097094               -8.16589055               -1.07794099                1.41266523               -0.61516837
              16.66783202               13.31944492               77.22323390                0.97758460                0.02598620                0.05987770               -0.15544168               -0.00278280                0.00417480                0.71365029
              17.66809188               12.82755422               76.75371283                0.36262519                0.00930034               -0.01021023               -0.01544976               -0.05482809                0.05969073               -0.48425257
              18.66801803               12.33429319               76.28537238                0.00010000               -0.16127600               -0.06774440                0.12051884               -0.85354843                6.05119643               -1.33451734
              19.66486636               11.82582925               75.93622200                0.00010000                0.00177705                0.28447625               -1.15346903               -1.83858940               11.68640264               -1.27442171
              20.66805357               11.31027672               75.58367332                0.00010000                0.61897912                0.56141726               -2.41944937               -2.49577735               11.19693326               -1.07682953
              21.67724595               10.78787312               75.22720846                0.00010000                1.16745992                0.93539267               -3.72884097               -3.13186438               10.57372510               -0.85454501
              22.69140277               10.26078476               74.86433742                0.00010000                1.59973341                1.47237482               -5.07640168               -3.52875140                9.63376538               -0.62443727
              23.70924062                9.73287412               74.49116239                0.00010000                1.90447791                2.14246538               -6.39429240               -3.44651973                8.20101254               -0.42027815
              24.72949233                9.20923604               74.10230888                0.00010000                2.09457620                2.80361792               -7.54189061               -2.73642983                6.12275328               -0.32823257
              25.75113214                8.69471410               73.69147146                0.00010000                2.21837870                3.20782029               -8.31370341               -1.48485667                3.34158280               -0.51185678
              26.77385990                8.19203014               73.25257399                0.39960074                2.27277616                3.00244272               -8.48133289               -0.60366015                1.57340129               -1.18110040
              17.16004940               14.32013007               77.08622851                0.90601708                0.04264048                0.07712784               -0.22061355               -0.00218335                0.04088421                0.63498812
              18.16047580               13.82753161               76.61082978                0.28016501                0.04249200                0.00551369               -0.05773249               -0.04659681                0.38661008               -0.49726386
              19.16089924               13.33369614               76.14249832                0.00010000               -0.02875836               -0.06279541                0.06580353               -0.57424395                6.83585273               -1.08537843
              20.15990064               12.82944524               75.79685660                0.00010000                0.18771613                0.33539024               -1.20784109               -1.06378479               12.58891842               -0.82008022
              21.16465356               12.31696777               75.44874965                0.00010000                0.72114474                0.67639475               -2.49316515               -1.44850615               11.98913205               -0.67910859
              22.17432353               11.79840482               75.09554421                0.00010000                1.17198430                1.08498566               -3.81659249               -1.76075845               11.23719824               -0.56106179
              23.18809325               11.27626428               74.73526385                0.00010000                1.55618042                1.57603761               -5.17561612               -1.91836364               10.23857082               -0.44280752
              24.20544714               10.75404560               74.36412031                0.00010000                1.89597094                2.10770268               -6.50655153               -1.79665991                8.76962857               -0.34515813
              25.22601267               10.23576750               73.97662419                0.00010000                2.18830380                2.58390453               -7.67297214               -1.33485801                6.61806496               -0.32313262
              26.24921322                9.72445584               73.56575968                0.00010000                2.39970521                2.85836662               -8.46212845               -0.65276398                3.64058445               -0.47638729
              27.27400677                9.21970222               73.12392829                0.40086933                2.47935548                2.70834420               -8.61330871               -0.20635327                1.73461018               -1.01925974
              17.65298529               15.32098748               76.94783913                0.93358554                0.06085865                0.08574067               -0.29756313               -0.03870934                0.29133630                0.57067228
              18.65359388               14.82766449               76.46841018                0.60746414                0.08171108                0.01328884               -0.09739506               -0.08570260                0.86005853               -0.49811422
              19.65461951               14.33303728               76.00059605                0.34266055                0.33625832               -0.06588650                0.01038142               -0.38434469                7.94656591               -1.08154316
              20.66031904               13.83253705               75.66403124                0.33482051                0.77521776                0.30918084               -1.31452690               -0.41979229               13.59500879               -0.38680976
              21.67012387               13.32380462               75.31913427                0.33217601                1.12076097                0.68368484               -2.61875834               -0.60118028               12.60039973               -0.35380544
              22.68273426               12.80957283               74.96868760                0.33403403                1.36354229                1.11680095               -3.96204077               -0.73388200               11.76949345               -0.31467495
              23.69739471               12.29230551               74.61075946                0.33964807                1.55349674                1.60412283               -5.34255015               -0.79708603               10.73941392               -0.29021046
              24.71380420               11.77502818               74.24184491                0.34979486                1.74951066                2.09825731               -6.70080656               -0.73386326                9.29317973               -0.28509871
              25.73238493               11.26091413               73.85661853                0.36475636                2.01689721                2.51466261               -7.90356570               -0.52011088                7.19121038               -0.32857143
              26.75414214               10.75188143               73.44795421                0.38528027                2.34275791                2.74255935               -8.73960756               -0.24296257                4.14675928               -0.46759748
              27.77924009               10.24619702               73.00596532                0.70087937                2.50979426                2.64948031               -8.89723086               -0.04511002                2.15888423               -0.92485046
              13.18021389                5.46374121               79.31845753                0.99144006               -0.09426285               -0.07138264                0.26519112                0.00738934               -0.38968077                0.48271712
              14.17927126                4.97114204               78.88617222                0.98322878               -0.10961355               -0.09689017                0.34721232                0.01748466               -0.47461930                0.05447768
              15.17802162                4.47832485               78.45166289                0.98718804               -0.13872486               -0.11879175                0.42755161                0.01798605               -0.49685614               -0.04755383
              16.17649676                3.98515275               78.01877908                0.65344535               -0.17692664               -0.14245628                0.50511385               -0.00915312               -0.45498055               -0.28198227
              17.17448308                3.49122511               77.58531467                0.45603433               -0.21271974               -0.16205693                0.58574777               -0.02809325               -0.44363707               -0.29862558
              18.17224237                2.99666385               77.15315215                0.11264842               -1.04600252               -0.20115758                0.66398821               -0.79755379                0.80320651               -0.56006622
              19.15356303                2.48661659               76.74549134                0.00010000               -2.70873711                0.83101269                0.48351903               -4.79319472                9.12087708               -2.66752953
              20.11806762                1.88163304               76.47230582                0.00010000               -0.47555787               -0.67447127               -0.83415285               -4.70648807               16.98698791               -0.05225560
              21.14405188                1.25974470               76.20357401                0.00010000                5.16995750               -1.56405683               -1.77763536               -4.63140985               17.15242460                0.18079583
              22.22146677                0.62523959               75.93099214                1.00000000                4.22937211                0.58988690               -2.43370404               -4.57888593                8.27421662               -0.04894730
              23.22863932                0.08568812               75.49331696                1.00000000                0.71725434                0.53384014               -2.24842388               -0.11744100               -0.01009443               -0.06836426
              13.67288696                6.46302739               79.18067213                0.98367739               -0.07326697               -0.06366910                0.21080128               -0.00506015                0.01948483                0.67320706
              14.67215429                5.97017313               78.74823170                0.96130620               -0.08454187               -0.09157696                0.29401348                0.00560970                0.09317896                0.07784399
              15.67119612                5.47713693               78.31680441                0.97467126               -0.10995954               -0.11464535                0.37571676                0.00479932                0.16156734               -0.23257746
              16.66995510                4.98372819               77.88564187                0.81900236               -0.13747602               -0.14304320                0.46450128               -0.01248910                0.23631977               -0.22499400
              17.66844660                4.48960454               77.45598397                0.66481885               -0.16920031               -0.16433561                0.53746371               -0.03115275                0.21912364               -0.22283582
              18.66657109                3.99465228               77.02509339                0.31386145               -0.26500540               -0.19788307                0.61828755               -0.25062227                0.24970503               -0.40692756
              19.66314649                3.49492672               76.59702197                0.00010000                0.89337990                0.27024399                0.69913793               -5.51836310                8.71337438               -1.50265213
              20.68443869                2.87488833               76.33595998                0.00010000                3.13940041               -1.93771046               -0.71387835               -7.62533817               16.27174852                0.06170375
              21.72593450                2.24410413               76.05539121                0.00010000                3.91337570               -1.19226575               -1.42240758               -6.27107556               15.22511999               -0.23056264
              22.76270620                1.63113846               75.76948295                1.00000000                2.05409384                0.45934195               -1.54001145               -3.51425414                7.58857048               -0.04394875
              23.76701638                1.09102653               75.33159348                1.00000000                0.43101740                0.40387946               -1.37334974               -0.13412022                0.00523522               -0.09911712
              14.16582119                7.46246783               79.04600488                0.98403344               -0.05472797               -0.04444841                0.15452254               -0.00764840                0.15297804                0.78822899
              15.16527391                6.96931050               78.61045805                0.96537109               -0.06293191               -0.08017436                0.24138687                0.00073148                0.34269199                0.00236284
              16.16456255                6.47603194               78.17831608                0.00010000               -0.07472721               -0.10249662                0.32603435               -0.01592276                0.91028463               -0.66657306
              17.16377936                5.98229188               77.75410434                0.00010000               -0.08133057               -0.61867201                0.42556314               -0.29556050                1.24792336                0.02285942
              18.16293594                5.48793840               77.32904565                0.00010000               -0.09358078               -1.06753058                0.48440539               -0.19116659                1.03566950                0.76605176
              19.16190775                4.99270619               76.90135932                0.00010000                0.00118904               -1.75349744                0.57081797                0.22166606                1.04027271                1.84345416
              20.16295972                4.49202147               76.47759348                0.00010000                2.72378485               -3.87468481                0.64739081               -5.44170294                8.75472945                4.09264159
              21.21638345                3.84287883               76.20678621                0.00010000                4.97102543               -2.53673998               -1.10688616              -10.00524592               14.23613881                0.72005559
              22.26238023                3.23589938               75.89998548                0.00010000                4.39379255               -0.65281856               -1.77528122               -8.38834510               13.21488950               -1.15730944
              23.30425930                2.63442643               75.60799440                0.00010000                2.19002790                1.76729235               -0.73744394               -6.20378588                7.29501181               -3.67212301
              24.30618079                2.09376571               75.16989965                0.95848611                0.19214893                3.09958639               -0.58153648               -3.03363621                0.06955539               -1.45677245
              14.65904866                8.46213842               78.90990751                0.97955454               -0.04438505               -0.01963197                0.10090881               -0.00318850                0.25796146                0.66776877
              15.65860481                7.96856965               78.47077938                0.43562660               -0.05761908               -0.07458976                0.19418043                0.01363497                0.43772101               -0.35405546
              16.65789628                7.47508700               78.03492817                0.00010000               -0.32336908               -0.13417057                0.27048690               -0.47110064                1.96686202               -1.17771051
              17.65213743                6.97135475               77.62644451                0.00010000               -0.18436567               -0.93034270               -0.05425929               -1.14645527                3.48945331               -0.05183526
              18.65420896                6.46825393               77.22043438                0.00010000                0.73919591               -1.83888925               -0.37391736               -1.08380970                3.83818591                1.27613325
              19.66692134                5.95958233               76.81970793                0.00010000                2.49654148               -3.27949735               -0.74651006               -2.02574701                5.12318475                3.08950150
              20.70413979                5.41743302               76.44288560                0.00010000                3.67672555               -5.54333958               -1.35642272               -4.84433422                6.68165698                5.44749271
              21.74045586                4.82415353               76.08286644                0.00010000                3.12401014               -1.48246860               -1.97417738               -8.52577381                7.73418417                1.17712092
              22.76662000                4.23104776               75.73822942                0.00010000                2.01541503                0.39155197               -2.10315514               -8.28362286                6.80384578               -1.28766613
              23.78076416                3.66648431               75.37344793                0.00010000                1.05225472                3.20525855               -4.74122883               -5.78904054                2.23295927               -3.68539661
              24.78766509                3.15301825               74.98131540                0.38851791                0.69009339                4.84659253               -2.81528933               -3.24965526                0.85649163               -1.18885494
              15.15289496                9.46207519               78.77230861                0.97546329               -0.02969323                0.00290512                0.04625486               -0.00233360               -0.00696076                0.57363941
              16.15259803                8.96781870               78.32571473                0.30528557               -0.02697612               -0.07186134                0.16402657                0.00118938                0.37174241               -0.53004815
              17.15235544                8.47334853               77.88646058                0.00010000               -0.24573524               -0.20190823                0.22784820               -0.74857410                3.01418622               -1.69235618
              18.14768332                7.96368503               77.49288854                0.00010000                0.03383627               -0.68911590               -0.42171846               -1.54155300                5.43313316               -0.62551579
              19.15303216                7.45116062               77.10193369                0.00010000                1.22651988               -1.48950665               -1.06864147               -2.04606289                5.73444330                0.34053905
              20.17221372                6.92711624               76.71602297                0.00010000                2.42348354               -2.51106786               -1.76054872               -3.54449379                6.04353989                1.27833286
              21.20150184                6.38115468               76.33621670                0.00010000                3.00197543               -2.53245408               -2.47308756               -6.43763078                6.12511099                1.38663561
              22.23225323                5.81322946               75.96065374                0.00010000                2.64375769               -0.51528797               -3.07276872               -8.23482133                5.56206000                0.93904311
              23.25437699                5.24373042               75.58124447                0.00010000                1.71273812                1.58854795               -3.59959774               -7.46789414                3.92262421               -0.18444833
              24.26650799                4.69853160               75.18758681                0.00010000                0.68714018                3.12849841               -3.31325127               -4.53838164                1.80895243               -0.98155533
              25.26811979                4.19069756               74.76971477                0.38944001                0.16117997                3.69273207               -3.51264474               -2.69006386                0.97066666               -2.65223884
              15.64751497               10.46219652               78.63391530                0.97507121               -0.01597089                0.02122226               -0.01032821               -0.00177434                0.00277980                0.58297523
              16.64735526                9.96713242               78.18244048                0.30643647               -0.02282506               -0.06286165                0.12661595               -0.03933553                0.11623702               -0.42599387
              17.64705847                9.47104883               77.73308523                0.00010000               -0.19304893               -0.20130963                0.24187443               -0.96812510                3.71233110               -1.77006323
              18.64349428                8.95757243               77.35378290                0.00010000                0.13990141               -0.50161447               -0.68508836               -2.07351315                7.11052774               -1.08083242
              19.64985649                8.43846380               76.97312706                0.00010000                1.12715642               -0.93141595               -1.57264116               -2.87915941                6.96957939               -0.46880957
              20.66603741                7.90936097               76.59319450                0.00010000                1.97087344               -1.18387675               -2.46365789               -4.38185700                6.77421897                0.00672881
              21.68927396                7.36678394               76.21311600                0.00010000                2.35731377               -0.75478643               -3.32854057               -6.14101123                6.23859409                0.28720894
              22.71318368                6.81384777               75.82952569                0.00010000                2.13430026                0.54589553               -4.08890597               -7.12685168                5.16277308                0.34748608
              23.73195997                6.26281872               75.43678701                0.00010000                1.49228502                2.10582018               -4.58031470               -6.40483191                3.58326748                0.24582114
              24.74302938                5.72905428               75.02874087                0.00010000                0.87859620                3.14171366               -4.82008385               -3.87356930                1.82220747               -0.09882487
              25.74953189                5.22687290               74.60358106                0.39068372                0.65025082                3.41143589               -4.74567822               -1.77962013                1.03006705               -0.97048793
              16.14298768               11.46249964               78.49617432                0.97593914               -0.00286696                0.03873415               -0.06788076               -0.00133985               -0.00002615                0.64891305
              17.14295901               10.96656147               78.03949206                0.33419355               -0.02173731               -0.05092872                0.09292378               -0.05345075                0.02938460               -0.40857485
              18.14255293               10.46932234               77.58332148                0.00010000               -0.20804558               -0.15443326                0.25220891               -1.04377437                4.24606559               -1.53267799
              19.13879809                9.95365274               77.21125189                0.00010000                0.05537528               -0.24122935               -0.85690658               -2.28697849                8.28653614               -1.31286166
              20.14366043                9.43253230               76.83739472                0.00010000                0.87291741               -0.30086959               -1.91173613               -3.13127146                7.98464966               -0.95270421
              21.15625644                8.90343871               76.46167497                0.00010000                1.52671886               -0.18135841               -2.95165848               -4.27720455                7.52776427               -0.60123337
              22.17419481                8.36605895               76.08242505                0.00010000                1.87124869                0.34563336               -3.95631520               -5.35519975                6.74773960               -0.29451179
              23.19368142                7.82414737               75.69628891                0.00010000                1.84395142                1.30697417               -4.84727307               -5.74107533                5.54822281               -0.05208019
              24.21107384                7.28584683               75.29887319                0.00010000                1.56505072                2.38010946               -5.52455970               -4.93320871                3.95299463                0.07688183
              25.22498243                6.76136588               74.88604562                0.00010000                1.29081572                3.11424974               -5.88663254               -2.85655246                2.06609433               -0.06470082
              26.23689015                6.25892628               74.45437693                0.39141179                1.19077241                3.03537631               -5.87993250               -1.25790425                1.00873988               -0.86293955
              16.63936451               12.46297120               78.35879137                0.97682006                0.00990366                0.05509827               -0.12487411               -0.00051776                0.00216519                0.68644389
              17.63946354               11.96611385               77.89671300                0.36098714               -0.01364004               -0.03862567                0.06146186               -0.05263592                0.02915138               -0.41613371
              18.63909170               11.46796017               77.43516597                0.00010000               -0.24593971               -0.12712479                0.25215690               -0.96634643                4.74555944               -1.46963258
              19.63454475               10.95274784               77.06778384                0.00010000               -0.08233035                0.04338564               -0.96444798               -2.12320925                9.25575207               -1.33749760
              20.63744510               10.43244641               76.69873475                0.00010000                0.62109583                0.20662659               -2.13001859               -2.85440804                8.87952747               -1.11554272
              21.64696666                9.90573380               76.32650010                0.00010000                1.20081042                0.48466720               -3.27377042               -3.68129005                8.29230222               -0.84536181
              22.66146131                9.37369661               75.94897969                0.00010000                1.58038165                0.98784461               -4.37904751               -4.29064213                7.40580852               -0.57334379
              23.67857430                8.83998725               75.56291509                0.00010000                1.73079893                1.70017048               -5.37926698               -4.33008616                6.13357699               -0.33772859
              24.69607728                8.31042091               75.16425202                0.00010000                1.71222909                2.43086180               -6.16796989               -3.55567770                4.44609113               -0.22631348
              25.71281888                7.79133927               74.74876156                0.00010000                1.65878551                2.86373161               -6.62267116               -2.00370453                2.37205106               -0.41525339
              26.72925300                7.28758042               74.31279112                0.39257644                1.64341157                2.68127465               -6.63074096               -0.84955557                1.13372864               -1.11576793
              17.13669204               13.46360160               78.22152620                0.97744959                0.02252871                0.06996760               -0.18379857                0.00013835                0.00624574                0.68650507
              18.13691732               12.96578896               77.75382747                0.39272762               -0.00500153               -0.02655957                0.03489979               -0.04696821                0.06167284               -0.45179332
              19.13659201               12.46677984               77.28729968                0.00010000               -0.25348269               -0.11047178                0.25239487               -0.74718318                5.31987295               -1.26523605
              20.13184767               11.95452045               76.92523287                0.00010000               -0.15028458                0.26958461               -1.03913313               -1.63847888               10.21972803               -1.18714297
              21.13358631               11.43666483               76.56013979                0.00010000                0.47663871                0.55015512               -2.27347669               -2.22597619                9.70262860               -0.99890068
              22.14138044               10.91313205               76.19109721                0.00010000                1.02711027                0.87512849               -3.48413874               -2.77584373                9.02074192               -0.79456791
              23.15412852               10.38581584               75.81574512                0.00010000                1.44874738                1.31472216               -4.65493550               -3.08571627                8.06060526               -0.58969539
              24.17035539                9.85815078               75.43085617                0.00010000                1.72398728                1.84161856               -5.72234122               -2.96065018                6.72274689               -0.42036036
              25.18860826                9.33446406               75.03229182                0.00010000                1.86967181                2.33693427               -6.57624542               -2.30449427                4.92698690               -0.37037373
              26.20774883                8.81864051               74.61543398                0.00010000                1.94042403                2.60545170               -7.07415149               -1.22476718                2.65460549               -0.57949419
              27.22741675                8.31255178               74.17592187                0.39371221                1.96679184                2.37538194               -7.07536348               -0.47731759                1.25956966               -1.21717260
              17.63499257               14.46437056               78.08393091                0.92367275                0.03533727                0.08343355               -0.23776983               -0.00004597                0.03328240                0.60262657
              18.63534594               13.96558265               77.61060097                0.30779100                0.02119878               -0.01483565                0.00778110               -0.03864061                0.36140959               -0.46153124
              19.63541654               13.46575073               77.14396884                0.00010000               -0.17278787               -0.10588627                0.21416382               -0.43627608                6.05724435               -1.02777598
              20.63189018               12.95813953               76.78521709                0.00010000               -0.05512829                0.38568447               -1.11107567               -0.90141852               11.07903791               -0.75404349
              21.63431398               12.44344951               76.42419327                0.00010000                0.52042981                0.70675017               -2.39465794               -1.28214882               10.45939865               -0.60677223
              22.64229878               11.92323637               76.05808816                0.00010000                1.02071392                1.06250755               -3.64860801               -1.57036211                9.66113640               -0.48682108
              23.65472825               11.39999105               75.68501263                0.00010000                1.42071467                1.47032221               -4.86164370               -1.69248951                8.64486274               -0.36838545
              24.67071307               10.87681962               75.30181972                0.00010000                1.73847070                1.89422925               -5.97206981               -1.56093604                7.26377144               -0.27267621
              25.68949767               10.35715959               74.90425916                0.00010000                1.97613765                2.25373782               -6.86753062               -1.13869042                5.38479584               -0.25437019
              26.71023582                9.84344831               74.48711812                0.00010000                2.11932210                2.43240168               -7.39124761               -0.54514203                2.92340265               -0.40395105
              27.73188411                9.33508806               74.04489132                0.39470191                2.16482862                2.25600118               -7.36937748               -0.15490294                1.39172658               -0.88436364
              18.13426692               15.46527027               77.94484097                0.94192118                0.04974149                0.08997174               -0.30233612               -0.05036780                0.28154485                0.53166564
              19.13476433               14.96549224               77.46785788                0.61726969                0.05213428               -0.00904122               -0.01848372               -0.08856836                0.80860500               -0.45806072
              20.13530960               14.46466212               77.00162330                0.34181153                0.06780934               -0.10886169                0.17829896               -0.17359863                7.09171950               -1.01612065
              21.13612052               13.96223414               76.65123356                0.33457031                0.37684475                0.40946104               -1.22992611               -0.27008020               12.00773692               -0.35154081
              22.14284650               13.45079983               76.29311479                0.33217208                0.86555706                0.73503226               -2.54952210               -0.53934467               11.01987170               -0.31097829
              23.15343166               12.93438220               75.92945540                0.33386216                1.19244890                1.11458320               -3.83908305               -0.66558894               10.14450451               -0.26674461
              24.16669548               12.41522229               75.55840414                0.33906727                1.42682317                1.52312362               -5.08817924               -0.72061965                9.09149517               -0.23433056
              25.18196813               11.89603536               75.17706186                0.34818776                1.62551470                1.92157409               -6.23829361               -0.65866783                7.72024035               -0.21823573
              26.19920577               11.37953882               74.78132733                0.36177999                1.84746973                2.23792264               -7.17784273               -0.46653069                5.87291813               -0.24806835
              27.21891752               10.86728854               74.36590017                0.38047828                2.09167036                2.38402359               -7.74686186               -0.22518149                3.34444407               -0.36792855
              28.24103918               10.35767180               73.92345977                0.69769948                2.21216591                2.25837384               -7.72923397               -0.04616750                1.72590056               -0.74554578
              13.60818134                5.60660919               80.32051202                0.98990296               -0.06864808               -0.03794422                0.14908669                0.01907838               -0.39104641                0.47977201
              14.60749486                5.10989467               79.88936222                0.98114775               -0.09300157               -0.08199526                0.29144590                0.02736836               -0.47854290                0.05509433
              15.60632131                4.61298474               79.45596604                0.98789066               -0.13972551               -0.12141142                0.43061682                0.02771449               -0.50361629               -0.04380182
              16.60470035                4.11574787               79.02416977                0.66381163               -0.19368466               -0.16375223                0.56759936                0.00291661               -0.46037478               -0.26807311
              17.60244761                3.61783088               78.59182079                0.46578992               -0.24562935               -0.20343129                0.70690601               -0.01334336               -0.44478715               -0.29459648
              18.59978776                3.11934864               78.16080237                0.12280995               -0.85441484               -0.26096902                0.85431493               -0.60949875                0.62956739               -0.56184591
              19.58535932                2.60886270               77.75073695                0.00010000               -2.10360640                0.51748381                0.60435839               -4.25483915                8.32232608               -2.27341786
              20.55771563                2.01597269               77.46533616                0.00010000               -0.02692411               -0.88562042               -0.56962630               -4.12593860               15.60618803               -0.22531930
              21.58482083                1.40674957               77.18673340                0.00010000                5.04012315               -1.59683299               -1.59941126               -4.13108371               15.98119549               -0.04471165
              22.65851809                0.78174562               76.90683202                1.00000000                4.02132270                0.61569179               -2.35697435               -4.12030689                7.80269839                0.02750493
              23.66524729                0.24217527               76.47151955                1.00000000                0.67291934                0.52138869               -2.06185620               -0.06053084               -0.02067084               -0.02070312
              14.10508664                6.60622975               80.18223933                0.98113872               -0.05058709               -0.03242303                0.10568461               -0.00271426                0.01667902                0.66694534
              15.10458077                6.10907472               79.75094748                0.95799558               -0.07073914               -0.07849499                0.24951347                0.00644537                0.08869611                0.07854963
              16.10367185                5.61177062               79.32064897                0.97665111               -0.11371624               -0.11927536                0.39070142                0.00511305                0.16044518               -0.22564997
              17.10230644                5.11411035               78.89068382                0.84347987               -0.15790291               -0.16623698                0.53859858               -0.01033411                0.23482604               -0.20693893
              18.10051380                4.61579657               78.46209460                0.68896951               -0.20647880               -0.20793278                0.67703289               -0.02690219                0.22151493               -0.21631591
              19.09817686                4.11673895               78.03237717                0.33914274               -0.30074489               -0.26188015                0.82948012               -0.19281881                0.26909665               -0.40285860
              20.09449890                3.61403753               77.60559929                0.00010000                0.96679725                0.06887922                1.00169762               -4.87474694                7.95183367               -1.33466518
              21.11751281                3.00711648               77.33003722                0.00010000                3.30623176               -2.02023157               -0.48685154               -6.66769891               15.01986306               -0.27861935
              22.16062353                2.39078124               77.04158621                0.00010000                4.10446809               -1.28852405               -1.35240330               -5.50897206               14.53382458               -0.75993721
              23.19960217                1.78790253               76.75385706                1.00000000                2.17943949                0.51485382               -1.71456777               -3.01894358                7.36390532                0.00475107
              24.20421232                1.24738916               76.31810778                1.00000000                0.46101508                0.42610443               -1.42930251               -0.10950962                0.01770101               -0.08695658
              14.60243710                7.60596073               80.04706778                0.98226392               -0.03542170               -0.01781671                0.06093639               -0.00552810                0.14894552                0.77923487
              15.60208289                7.10832477               79.61270762                0.96310810               -0.05245808               -0.07038911                0.20863651                0.00101805                0.33723731                0.00579602
              16.60138794                6.61059923               79.18172704                0.00010000               -0.08075836               -0.11135069                0.35355690               -0.01722179                0.91211952               -0.65972381
              17.60046772                6.11242313               78.75880894                0.00010000               -0.10534864               -0.62072070                0.51047240               -0.28085656                1.24589253               -0.17105341
              18.59928097                5.61367223               78.33470397                0.00010000               -0.13886506               -1.05005246                0.64104943               -0.18358189                1.04034053                0.37892546
              19.59769042                5.11411103               77.90826078                0.00010000               -0.08970660               -1.67329646                0.80345319                0.22169746                1.07141988                1.23433818
              20.59748684                4.61024028               77.48580355                0.00010000                2.49637661               -3.58192770                0.98489224               -4.71472984                7.85680941                3.11836725
              21.64761795                3.97556806               77.19742433                0.00010000                4.81842527               -2.47778476               -0.83119505               -8.83651317               12.92758807               -0.02592953
              22.69385534                3.38097909               76.88273362                0.00010000                4.69566742               -0.72120581               -1.63811678               -7.47000918               13.20056903               -1.94816451
              23.74153130                2.79204269               76.59989205                0.00010000                2.51142506                1.47444301               -1.09673948               -6.10550554                7.61675953               -5.03299122
              24.74408384                2.25069736               76.16365983                0.53334520                0.25525452                3.00158907               -0.83170172               -4.01749918                0.07748111               -3.39321254
              15.10024798                8.60587341               79.91049722                0.97847497               -0.02853598                0.00219577                0.01975827               -0.00095695                0.25036848                0.65566940
              16.09996262                8.10766694               79.47261857                0.45274890               -0.05094602               -0.06834536                0.17369995                0.01169600                0.42133732               -0.33755248
              17.09922906                7.60954361               79.03784203                0.00010000               -0.31731545               -0.14615521                0.30925588               -0.45159020                1.74732446               -1.16330765
              18.09361632                7.10169593               78.62652530                0.00010000               -0.20374047               -0.91765269                0.06420710               -1.08811851                3.05253751               -0.41843277
              19.09515425                6.59479552               78.21777309                0.00010000                0.62132227               -1.75853609               -0.17070052               -0.99836402                3.36692585                0.55577193
              20.10604276                6.08327302               77.81391643                0.00010000                2.17965108               -3.04051502               -0.44288965               -1.78937156                4.50372780                1.97276554
              21.13874728                5.54239898               77.43146138                0.00010000                3.20004906               -5.03189902               -0.97403362               -4.19167248                6.00492037                3.88101687
              22.17004374                4.95756079               77.06610477                0.00010000                2.80007192               -1.37124852               -1.55111742               -7.42741933                7.27542372                0.02780388
              23.19474871                4.37635712               76.71719927                0.00010000                1.88650215                0.34378361               -2.06871491               -7.58523764                6.74912894               -2.43268574
              24.20777378                3.81739139               76.34374363                0.00010000                0.59021438                2.84503137               -2.65695313               -6.01501821                4.10958051               -7.37329512
              25.20655300                3.30742094               75.94259574                0.38311511               -0.12207829                4.66390529               -3.25476555               -3.56585635                2.40621143               -6.07914935
              15.59883091                9.60600464               79.77241601                0.97496381               -0.01843032                0.02051038               -0.02184641               -0.00057221               -0.00360028                0.55733832
              16.59864661                9.10695787               79.32734617                0.32749616               -0.02518833               -0.07065947                0.16054825               -0.00236049                0.34567408               -0.50717414
              17.59832715                8.60767613               78.88903852                0.00010000               -0.25965843               -0.21326557                0.28361484               -0.71473636                2.60953550               -1.63457782
              18.59345344                8.09407008               78.48940061                0.00010000               -0.02952703               -0.68502135               -0.28342165               -1.45765743                4.64271424               -0.88112197
              19.59773661                7.57850150               78.09248758                0.00010000                1.04230435               -1.41646637               -0.83871476               -1.86562679                4.89674065               -0.20635915
              20.61429953                7.05330073               77.70031150                0.00010000                2.08145048               -2.31854816               -1.42142828               -3.13083544                5.17369510                0.44740547
              21.63936561                6.50960230               77.31415706                0.00010000                2.54059481               -2.29492825               -2.02059789               -5.59405474                5.33966414                0.36406652
              22.66511142                5.94814309               76.93315045                0.00010000                2.14771853               -0.45127803               -2.55880594               -6.99499165                5.04266924               -0.31836278
              23.68231999                5.38785476               76.54955655                0.00010000                1.25278449                1.37738427               -2.96583430               -6.33076438                3.99520604               -1.97419338
              24.69016711                4.84894332               76.15472118                0.00010000                0.51938194                2.89358523               -3.16881292               -3.72646943                2.08144749               -3.26145907
              25.69270762                4.34397547               75.73788716                0.38406141                0.25405104                3.14573057               -3.22053784               -1.62848939                1.04976269               -4.36371439
              16.09833009               10.60628362               79.63353467                0.97488654               -0.00861628                0.03571745               -0.06430975               -0.00126493                0.00339111                0.56260208
              17.09824393               10.10625375               79.18376060                0.33177703               -0.02539829               -0.06684313                0.13590480               -0.03877371                0.10729208               -0.40605318
              18.09782213                9.60527830               78.73591487                0.00010000               -0.23030710               -0.21776396                0.31881209               -0.91244071                3.17386180               -1.68097788
              19.09363779                9.08799551               78.34770532                0.00010000                0.03944664               -0.50055188               -0.53875417               -1.93342187                6.03246765               -1.22577355
              20.09861106                8.56646619               77.95866619                0.00010000                0.93437336               -0.88524290               -1.33758283               -2.59353544                5.87917211               -0.82556833
              21.11232526                8.03690205               77.57052360                0.00010000                1.67063823               -1.09896469               -2.11228500               -3.84330624                5.68544351               -0.55095927
              22.13202383                7.49650041               77.18268107                0.00010000                1.97830971               -0.70539843               -2.84086981               -5.25711497                5.24322061               -0.48239657
              23.15189145                6.94853523               76.79246058                0.00010000                1.76546838                0.43102482               -3.45945379               -5.92724436                4.42703150               -0.71140773
              24.16733319                6.40390481               76.39548715                0.00010000                1.26161177                1.71161999               -3.86852891               -5.07389718                3.19229472               -1.17012501
              25.17712369                5.87526310               75.98625123                0.00010000                0.82928634                2.51811111               -4.01562661               -2.86000536                1.64638406               -1.85445017
              26.18391892                5.37033555               75.56074617                0.38489947                0.67952339                2.50832009               -4.02565711               -1.24619808                0.85138870               -2.78867188
              16.59886536               11.60671899               79.49527164                0.97588062                0.00111010                0.05129521               -0.11119659               -0.00011835                0.00072481                0.62343822
              17.59887646               11.10562100               79.04052962                0.36197073               -0.02643896               -0.05880100                0.11303564               -0.05065097                0.03193162               -0.38403701
              18.59833658               10.60332085               78.58632941                0.00010000               -0.26396731               -0.17990603                0.33973092               -0.96492580                3.61176989               -1.44804112
              19.59359711               10.08405904               78.20343556                0.00010000               -0.06886139               -0.24853602               -0.71316160               -2.09798828                7.00481518               -1.36286216
              20.59695935                9.56079665               77.81945726                0.00010000                0.69010351               -0.28913457               -1.68999749               -2.79306950                6.70572612               -1.14306123
              21.60739918                9.03132144               77.43401012                0.00010000                1.28153954               -0.17672805               -2.61652843               -3.72788095                6.25530708               -0.93857853
              22.62259014                8.49549433               77.04564159                0.00010000                1.58814827                0.27647168               -3.47235024               -4.56056117                5.55489846               -0.80402793
              23.63916215                7.95676358               76.65170290                0.00010000                1.57620161                1.06696195               -4.19437678               -4.75352993                4.54441029               -0.77321164
              24.65411417                7.42208716               76.24866727                0.00010000                1.36870567                1.89227199               -4.70435552               -3.95673171                3.23271129               -0.89715080
              25.66653626                6.89930554               75.83291968                0.00010000                1.17622920                2.36714554               -4.95095981               -2.22313000                1.69551996               -1.25974024
              26.67763876                6.39414187               75.40174830                0.38596424                1.11024963                2.27287546               -4.89988838               -0.94593855                0.85738853               -2.03375816
              17.10052371               12.60730953               79.35736123                0.97677462                0.01053522                0.06582462               -0.15914337                0.00127220                0.00251283                0.65714947
              18.10062906               12.10507773               78.89749774                0.39033684               -0.02190629               -0.04953137                0.09277625               -0.04769719                0.03309116               -0.38566378
              19.10008558               11.60168018               78.43822848                0.00010000               -0.32134158               -0.15676235                0.34939534               -0.86897170                4.04022700               -1.38452868
              20.09420223               11.08302479               78.05882282                0.00010000               -0.22991543                0.02970496               -0.83200052               -1.90864864                7.83298629               -1.32045155
              21.09548727               10.56068350               77.67844397                0.00010000                0.44338637                0.20217680               -1.93575126               -2.51874214                7.46416100               -1.18017683
              22.10306995               10.03336749               77.29535889                0.00010000                0.99415933                0.45361271               -2.97815268               -3.19986877                6.88316956               -1.00432317
              23.11537046                9.50202985               76.90766550                0.00010000                1.35790363                0.87317898               -3.93928788               -3.66136209                6.05781687               -0.84388122
              24.13022803                8.96987447               76.51272082                0.00010000                1.51430715                1.43993499               -4.76154430               -3.61464497                4.94886316               -0.74209523
              25.14565660                8.44175025               76.10736342                0.00010000                1.51891741                1.98671292               -5.36423907               -2.89641876                3.55100427               -0.76989918
              26.16060637                7.92260601               75.68836019                0.00010000                1.48354480                2.27310548               -5.66311891               -1.59496212                1.88448551               -1.04518748
              27.17532750                7.41579306               75.25277712                0.38702763                1.47211220                2.07223052               -5.59412588               -0.65945704                0.91559282               -1.72493952
              17.60335439               13.60803549               79.21955793                0.97734298                0.01974694                0.07791537               -0.20795058                0.00205010                0.00799292                0.65674710
              18.60355186               13.10463038               78.75441083                0.42517709               -0.01721510               -0.04035779                0.07778612               -0.04064358                0.06344025               -0.41631407
              19.60301009               12.60018560               78.29042028                0.00010000               -0.35655219               -0.14315908                0.36045360               -0.63174048                4.55200946               -1.18998683
              20.59642082               12.08465314               77.91543933                0.00010000               -0.33841446                0.26694501               -0.92061885               -1.41453424                8.68987059               -1.13470360
              21.59624180               11.56484018               77.53820378                0.00010000                0.28173212                0.55869098               -2.11292968               -1.93881279                8.19010027               -0.98776679
              22.60205546               11.04039369               77.15752568                0.00010000                0.83070615                0.84713587               -3.23992381               -2.41126635                7.51480614               -0.83356966
              23.61285592               10.51295791               76.77123871                0.00010000                1.25466959                1.21038489               -4.28112919               -2.64714613                6.60854792               -0.68895076
              24.62714885                9.98556228               76.37671556                0.00010000                1.52991666                1.62559572               -5.17948785               -2.49442417                5.42516443               -0.58778986
              25.64345425                9.46182142               75.97078397                0.00010000                1.67226753                1.99471719               -5.84671298               -1.90205249                3.92469818               -0.60074511
              26.66059420                8.94476765               75.54998843                0.00010000                1.73106282                2.16523071               -6.17976267               -0.98960983                2.09888699               -0.83776884
              27.67807551                8.43558648               75.11106672                0.38779991                1.74813108                1.93419903               -6.08670252               -0.36974651                1.00898354               -1.41892752
              18.10737492               14.60886783               79.08147311                0.94352302                0.02911459                0.08825981               -0.25162167                0.00167335                0.02655443                0.56835132
              19.10766607               14.10427057               78.61098540                0.33783355                0.00265427               -0.03204510                0.06363890               -0.03095264                0.33501878               -0.42286561
              20.10742801               13.59881700               78.14678159                0.00010000               -0.32045553               -0.13898349                0.33475596               -0.29193774                5.22412757               -0.96053127
              21.10125696               13.08836369               77.77463508                0.00010000               -0.32287755                0.44100809               -1.00246060               -0.71990974                9.46931522               -0.70891901
              22.10097046               12.57185732               77.40085650                0.00010000                0.27349691                0.74509158               -2.26283373               -1.09979089                8.86921867               -0.57652399
              23.10672690               12.05031021               77.02257205                0.00010000                0.81442425                1.05548839               -3.44972846               -1.36701149                8.08250101               -0.47678781
              24.11725894               11.52623755               76.63803098                0.00010000                1.23745697                1.39389853               -4.54852274               -1.45807947                7.11689437               -0.38284452
              25.13147604               11.00238638               76.24467892                0.00010000                1.55756188                1.73084496               -5.50218080               -1.32279923                5.88478462               -0.31374855
              26.14841018               10.48164459               75.83927358                0.00010000                1.77865381                1.99975101               -6.21731803               -0.94625170                4.30428453               -0.31739192
              27.16704911                9.96591062               75.41793473                0.00010000                1.89423649                2.10955570               -6.57492284               -0.44315829                2.31680200               -0.46744483
              28.18629491                9.45447704               74.97654074                0.38885062                1.92457977                1.92813623               -6.45616998               -0.11518852                1.10900401               -0.88725437
              18.61258237               15.60980068               78.94179240                0.95149779                0.04012683                0.09328498               -0.30547734               -0.06037584                0.27103959                0.49065156
              19.61298364               15.10398948               78.46804051                0.62986236                0.02479244               -0.02810990                0.04891850               -0.08798044                0.75554998               -0.41563404
              20.61307822               14.59740593               78.00416203                0.34130014               -0.20006721               -0.14110658                0.31442230                0.03921237                6.16769781               -0.93869544
              21.60898230               14.09347330               77.63943272                0.33437326               -0.03893829                0.51096136               -1.12301290               -0.11066213               10.29628074               -0.32085952
              22.61229946               13.57974201               77.26814383                0.33228759                0.56763525                0.78846935               -2.42663446               -0.46559219                9.36019206               -0.28394799
              23.62033500               13.06150346               76.89190594                0.33377560                0.96593516                1.11932509               -3.65432529               -0.58449620                8.49910896               -0.24630594
              24.63161816               12.54083588               76.50899588                0.33853894                1.24754098                1.45983350               -4.79232943               -0.63029235                7.49327520               -0.21970142
              25.64528582               12.02017918               76.11707903                0.34660355                1.46934099                1.77928002               -5.78636391               -0.56999380                6.26231661               -0.20764858
              26.66100498               11.50181644               75.71306168                0.35913078                1.68063796                2.01718468               -6.54293890               -0.40154107                4.70418938               -0.23684377
              27.67889858               10.98695877               75.29301698                0.37586592                1.88169626                2.10481422               -6.93854758               -0.19841480                2.66020167               -0.34488406
              28.69863890               10.47414920               74.85138064                0.69472526                1.97403231                1.96721621               -6.82183045               -0.04655689                1.37669607               -0.66122662
              14.03469255                5.74988203               81.32143927                0.98907102               -0.04461714               -0.00714968                0.04028329                0.03030789               -0.39386656                0.47750215
              15.03424637                5.24907342               80.89200113                0.97964511               -0.07754024               -0.06746859                0.23728523                0.03726513               -0.48521683                0.05626126
              16.03314174                4.74808295               80.46027522                0.98843158               -0.14059281               -0.12200158                0.42877391                0.03718225               -0.51418474               -0.03959108
              17.03143452                4.24676319               80.03013107                0.67383768               -0.20935002               -0.18129486                0.61888515                0.01227833               -0.47005450               -0.25605938
              18.02895474                3.74478557               79.59945279                0.47848677               -0.27584802               -0.23905170                0.80874438               -0.00141085               -0.44589483               -0.28920419
              19.02591756                3.24227734               79.17023845                0.14013479               -0.67394873               -0.31406478                1.01908813               -0.41502291                0.41939500               -0.56441993
              20.01547577                2.73142355               78.75757851                0.00010000               -1.58613111                0.17432574                0.83045387               -3.82290624                7.39719658               -1.84950493
              20.99419494                2.14772453               78.46091329                0.00010000                0.33520816               -1.04967604               -0.32709766               -3.64852548               14.17709399               -0.38616754
              22.02217993                1.54914485               78.17158579                0.00010000                4.92698306               -1.62396823               -1.42078088               -3.73812281               14.69009480               -0.21400426
              23.09273460                0.93173962               77.88385265                1.00000000                3.83354608                0.64338383               -2.24530616               -3.77954969                7.22792792                0.00394523
              24.09885085                0.39209759               77.45207983                1.00000000                0.61162539                0.50495242               -1.83454207                0.03760668               -0.02054155               -0.04694067
              14.53580424                6.74981053               81.18278582                0.97978389               -0.02856749               -0.00436962                0.00702845                0.00021275                0.01320610                0.66127825
              15.53551856                6.24839873               80.75322197                0.95550774               -0.05677811               -0.06590438                0.20586687                0.00827106                0.08292319                0.07990968
              16.53466868                5.74686294               80.32461844                0.97822221               -0.11562863               -0.12192715                0.40051122                0.00566934                0.15755688               -0.21774131
              17.53320599                5.24495024               79.89641384                0.86569453               -0.17425621               -0.18669207                0.60156648               -0.00910567                0.23521920               -0.19078605
              18.53118355                4.74239505               79.46952462                0.71567161               -0.23788284               -0.24735748                0.80056255               -0.02386856                0.23365235               -0.20875187
              19.52844834                4.23913670               79.04168300                0.37321656               -0.33302218               -0.32118254                1.02190205               -0.14546172                0.31080215               -0.39963855
              20.52452311                3.73316681               78.61705592                0.00010000                1.02003481               -0.14484154                1.27485629               -4.32261669                7.13722525               -1.12647482
              21.54884903                3.13722777               78.32622295                0.00010000                3.41340242               -2.07159169               -0.30113073               -5.82257182               13.57269689               -0.60973709
              22.59279116                2.53290517               78.02834315                0.00010000                4.23068505               -1.39109086               -1.28500861               -4.86551765               13.52227681               -1.13614404
              23.63346273                1.93817345               77.73519160                1.00000000                2.30388943                0.60702091               -1.98361948               -2.64121904                6.92700951               -0.00565203
              24.63886895                1.39714711               77.30300743                1.00000000                0.54062141                0.46579626               -1.55041983               -0.03543438                0.01657606               -0.10844215
              15.03752041                7.74979464               81.04722361                0.98138199               -0.01610163                0.00465177               -0.02667490               -0.00347651                0.14446156                0.77106397
              16.03735939                7.24775533               80.61463078                0.96132839               -0.04083952               -0.06093400                0.17612255                0.00089743                0.33138112                0.01018769
              17.03670362                6.74564441               80.18538722                0.00010000               -0.08195526               -0.11767852                0.37557536               -0.02293115                0.91302842               -0.65219963
              18.03572029                6.24302935               79.76431379                0.00010000               -0.12063538               -0.62779065                0.58481734               -0.28774329                1.25190799               -0.35701378
              19.03429091                5.73983842               79.34186664                0.00010000               -0.17418625               -1.04046491                0.78504208               -0.21014298                1.06645464                0.00285807
              20.03223656                5.23585369               78.91742838                0.00010000               -0.16792770               -1.60748872                1.02409836                0.17737905                1.14298401                0.63474765
              21.03093236                4.72852672               78.49729133                0.00010000                2.28842891               -3.32334808                1.30152909               -4.10171215                6.91174798                2.12540946
              22.07800514                4.10629270               78.19016231                0.00010000                4.64957673               -2.41221410               -0.65604945               -7.79131391               11.44670504               -0.70964356
              23.12392389                3.52132303               77.86722315                0.00010000                4.88315670               -0.86670273               -1.47116523               -6.56200558               12.71114775               -2.66941362
              24.17566828                2.94388003               77.58605961                0.01496583                2.81354790                1.30079133               -1.68370178               -5.79064795                7.54138944               -5.76392685
              25.18019485                2.40141351               77.15326561                0.43735667                0.45265746                3.00304152               -1.22496133               -4.28584394                0.07743963               -4.46633974
              15.53981333                8.74990357               80.91030268                0.97801009               -0.01265877                0.01949349               -0.05578260               -0.00024024                0.24183315                0.64480232
              16.53968674                8.24718005               80.47425338                0.47094650               -0.04386468               -0.06110733                0.15305535                0.00677047                0.40320499               -0.31844747
              17.53893604                7.74450937               80.04111329                0.00010000               -0.32148139               -0.15301403                0.34175783               -0.44987670                1.53503931               -1.14569727
              18.53325712                7.23239442               79.62772866                0.00010000               -0.23898455               -0.90733880                0.16749860               -1.07776779                2.64370856               -0.77409496
              19.53415635                6.72158575               79.21702037                0.00010000                0.50252485               -1.68490417                0.00324585               -0.98211635                2.94074986               -0.15344676
              20.54330761                6.20698692               78.81085013                0.00010000                1.89467582               -2.81982573               -0.19601013               -1.65521584                3.93668610                0.86914986
              21.57204986                5.66669985               78.42340492                0.00010000                2.84594150               -4.56552056               -0.69147565               -3.67398118                5.28529344                2.32574353
              22.60022644                5.08898349               78.05184409                0.00010000                2.59569234               -1.28931527               -1.33891299               -6.57133752                6.61698833               -0.96911036
              23.62396371                4.51557112               77.69685513                0.00010000                1.86664275                0.23178184               -1.96223048               -6.80038584                6.27622365               -3.47665991
              24.63755930                3.96418928               77.32030886                0.00010000                0.70607019                2.34573956               -2.22055026               -5.71125579                3.89354753               -8.64480434
              25.63808511                3.45720794               76.91622009                0.37791168                0.05258157                4.19296659               -2.36710670               -3.56872204                2.68828866               -7.72472691
              16.04296264                9.75018451               80.77187168                0.97484404               -0.00736381                0.03446854               -0.08449233                0.00074653                0.00033051                0.54155704
              17.04288901                9.24653318               80.32892569                0.35228183               -0.02354674               -0.06760716                0.15448353               -0.00831153                0.31878165               -0.48076295
              18.04249171                8.74258413               79.89213288                0.00010000               -0.29002314               -0.21854923                0.33161215               -0.69978309                2.21297529               -1.56804649
              19.03708854                8.22488257               79.48722011                0.00010000               -0.12178106               -0.66862098               -0.16483376               -1.41542944                3.88456523               -1.14117589
              20.04005609                7.70614034               79.08515939                0.00010000                0.84648032               -1.33014997               -0.64950477               -1.74800436                4.11380810               -0.76360019
              21.05401815                7.17945718               78.68759441                0.00010000                1.77000393               -2.11718770               -1.16221222               -2.82501226                4.36967322               -0.38883815
              22.07545617                6.63721631               78.29580474                0.00010000                2.18444880               -2.05241880               -1.71408098               -4.93996248                4.58834096               -0.62945973
              23.09770713                6.08050639               77.90947762                0.00010000                1.86271079               -0.39581633               -2.25599954               -6.12829236                4.48537940               -1.42437059
              24.11271038                5.52595867               77.52192779                0.00010000                1.10496041                1.23671894               -2.66149845               -5.58300324                3.73965986               -3.22081599
              25.11980633                4.99079483               77.12421055                0.00010000                0.50363529                2.47887438               -2.92875736               -3.37735399                2.14036863               -4.60898140
              26.12278309                4.48527284               76.70530402                0.37881643                0.29767543                2.50151864               -3.04091700               -1.57796453                1.13810809               -5.69389578
              16.54713092               10.75059294               80.63262910                0.97489631               -0.00100229                0.04786677               -0.11464645               -0.00032539                0.00392713                0.54085531
              17.54712089               10.24582791               80.18515858                0.35885850               -0.02699640               -0.06947935                0.14207957               -0.04018518                0.10010365               -0.38417440
              18.54659099                9.74013838               79.73946147                0.00010000               -0.28642872               -0.22681096                0.38237975               -0.87076121                2.64073584               -1.58693115
              19.54139232                9.21902201               79.34300782                0.00010000               -0.09846688               -0.48022865               -0.41322427               -1.82388105                4.97792065               -1.38812848
              20.54462165                8.69498275               78.94637540                0.00010000                0.71695364               -0.81235231               -1.14444517               -2.36172617                4.84230655               -1.21204827
              21.55573139                8.16464317               78.55094880                0.00010000                1.37898749               -0.98126660               -1.84634051               -3.40855871                4.67758036               -1.13819303
              22.57220140                7.62565147               78.15629861                0.00010000                1.65934226               -0.61111736               -2.50677368               -4.57160885                4.33997726               -1.25518582
              23.58891824                7.08106716               77.76033661                0.00010000                1.49069054                0.39582532               -3.06935812               -5.07545826                3.74155912               -1.68097843
              24.60201521                6.54030549               77.35941644                0.00010000                1.08899051                1.50344356               -3.46583642               -4.27497458                2.79616498               -2.36230950
              25.61069805                6.01376677               76.94842834                0.00010000                0.77772881                2.16336455               -3.65049465               -2.35308561                1.49692528               -3.19741892
              26.61756979                5.50723831               76.52306792                0.37963869                0.68717403                2.04736619               -3.63117521               -0.97296524                0.79907111               -3.94349447
              17.05248620               11.75114184               80.49395039                0.97590297                0.00536576                0.06174782               -0.15098801                0.00071606                0.00092307                0.59623147
              18.05253986               11.24514359               80.04175278                0.39041641               -0.03019090               -0.06542706                0.12940191               -0.04783584                0.03328740               -0.35959856
              19.05188239               10.73804791               79.59011610                0.00010000               -0.33866567               -0.19798248                0.41024714               -0.89427114                2.97649821               -1.36432176
              20.04576655               10.21527800               79.19698866                0.00010000               -0.23409916               -0.23434836               -0.58794087               -1.92789769                5.73437475               -1.44048127
              21.04720040                9.68989329               78.80359477                0.00010000                0.47058537               -0.24432019               -1.50330691               -2.49377783                5.46824739               -1.37957080
              22.05517826                9.15983185               78.40934441                0.00010000                1.01997963               -0.12556988               -2.35674365               -3.26110943                5.06254311               -1.33163558
              23.06760000                8.62499397               78.01297805                0.00010000                1.31828425                0.27851945               -3.13040376               -3.91773131                4.47066296               -1.36134747
              24.08154394                8.08842290               77.61240138                0.00010000                1.34556444                0.95327621               -3.77252998               -4.00155091                3.66022101               -1.51116750
              25.09451128                7.55602754               77.20478608                0.00010000                1.21339307                1.63003652               -4.21605262               -3.24589952                2.62505237               -1.81837094
              26.10581180                7.03406212               76.78702642                0.00010000                1.09347039                1.98000020               -4.40788272               -1.77052671                1.38445281               -2.29363267
              27.11638069                6.52622017               76.35637916                0.38073009                1.05688899                1.82624461               -4.33507571               -0.72613527                0.70641346               -2.99961180
              17.55914174               12.75182790               80.35560851                0.97675698                0.01163750                0.07414057               -0.18924313                0.00214210                0.00258489                0.62669220
              18.55925811               12.24451936               79.89856852                0.42184567               -0.02852864               -0.05842894                0.11824438               -0.04326209                0.03520563               -0.35593834
              19.55857116               11.73617873               79.44215388                0.00010000               -0.41345638               -0.18104588                0.42660418               -0.77315130                3.32405293               -1.29927971
              20.55098898               11.21433504               79.05114383                0.00010000               -0.41894599                0.03680617               -0.71269852               -1.69936773                6.40143674               -1.33640550
              21.55019224               10.69009635               78.66001972                0.00010000                0.22097720                0.23018396               -1.76390145               -2.20508515                6.06915113               -1.29987972
              22.55540853               10.16213177               78.26693704                0.00010000                0.75317394                0.47078270               -2.73782230               -2.77055515                5.53392120               -1.23573337
              23.56525572                9.63122186               77.87019394                0.00010000                1.12225568                0.83386904               -3.61488307               -3.12447399                4.80858051               -1.19730306
              24.57785364                9.10013269               77.46768421                0.00010000                1.31011399                1.30069913               -4.34305524               -3.02730818                3.88748058               -1.22635197
              25.59145800                8.57290622               77.05696724                0.00010000                1.36206240                1.72557309               -4.85207990               -2.37239207                2.77249079               -1.37379552
              26.60509489                8.05336677               76.63549918                0.00010000                1.36364892                1.91242369               -5.07382652               -1.27555033                1.47060730               -1.71009133
              27.61873098                7.54376321               76.20090860                0.38162962                1.36360915                1.70947216               -4.95695896               -0.50739947                0.73383632               -2.32094170
              18.06714611               13.75262466               80.21736718                0.97724966                0.01776758                0.08376071               -0.22825759                0.00290371                0.00997877                0.62622953
              19.06732379               13.24397502               79.75538319                0.45919070               -0.02712111               -0.05118528                0.11223122               -0.03589694                0.06395466               -0.38068309
              20.06660369               12.73442699               79.29450875                0.00010000               -0.47311054               -0.16901889                0.44515354               -0.51413257                3.76292329               -1.11513573
              21.05786157               12.21601412               78.90682049                0.00010000               -0.56508592                0.28163633               -0.80833563               -1.18587102                7.12769634               -1.11191260
              22.05530197               11.69449697               78.51788119                0.00010000                0.03900330                0.59413174               -1.95887404               -1.65987416                6.67201687               -1.02842346
              23.05864164               11.16924750               78.12629874                0.00010000                0.59038154                0.85942961               -3.02577993               -2.07299181                6.04030573               -0.94442374
              24.06710960               10.64167135               77.73012253                0.00010000                1.03358880                1.16775620               -3.98735342               -2.25535318                5.22798528               -0.87773475
              25.07931342               10.11443688               77.32726641                0.00010000                1.33598785                1.50242470               -4.79015451               -2.09099077                4.22919425               -0.85676573
              26.09382936                9.59053900               76.91535756                0.00010000                1.50651991                1.78139120               -5.35629217               -1.56283714                3.02821225               -0.93514974
              27.10944381                9.07231059               76.49183872                0.00010000                1.58052392                1.88520472               -5.59996102               -0.79597890                1.61305323               -1.18999997
              28.12543984                8.56040961               76.05418782                0.38233861                1.59960205                1.66329260               -5.45089396               -0.28403829                0.79104081               -1.70468913
              18.57649909               14.75350311               80.07889848                0.96676304                0.02387461                0.09100350               -0.26090659                0.00152457                0.02061176                0.53245797
              19.57673784               14.24349566               79.61187375                0.37055682               -0.01248412               -0.04528379                0.10772293               -0.02614167                0.30701704               -0.38270929
              20.57624941               13.73279835               79.15066396                0.00010000               -0.47681258               -0.16498279                0.42951213               -0.14301169                4.36110570               -0.89259035
              21.56720158               13.21996776               78.76516788                0.00010000               -0.62440140                0.51037791               -0.89318012               -0.53083023                7.80733195               -0.68177856
              22.56376138               12.70197899               78.37893660                0.00010000               -0.02136352                0.80246197               -2.12098810               -0.91861231                7.25084676               -0.57905120
              23.56677431               12.17932036               77.98909359                0.00010000                0.55989494                1.07704091               -3.25533080               -1.17409247                6.51054397               -0.51412508
              24.57495928               11.65457699               77.59404218                0.00010000                1.01959264                1.36135551               -4.28020899               -1.24304481                5.63538053               -0.45889340
              25.58716617               11.13018118               77.19177611                0.00010000                1.36841355                1.63226396               -5.14108573               -1.11038481                4.58630474               -0.42851302
              26.60232755               10.60853405               76.77991280                0.00010000                1.60692693                1.83433681               -5.75397615               -0.77940269                3.31627012               -0.46088677
              27.61930471               10.09107087               76.35561967                0.00010000                1.72623125                1.89578859               -6.01849855               -0.35731062                1.77548722               -0.61194857
              28.63685217                9.57702906               75.91576792                0.38310703                1.75474688                1.71789245               -5.84204942               -0.08388381                0.86315366               -0.97433436
              19.08719150               15.75444473               79.93873142                0.96284149                0.03142055                0.09416144               -0.30091528               -0.06829720                0.25838237                0.44678530
              20.08750571               15.24306934               79.46883625                0.64357071                0.00399224               -0.04263199                0.10051567               -0.08908219                0.69942768               -0.37060003
              21.08727135               14.73112734               79.00791175                0.34076873               -0.47206856               -0.16710183                0.41888769                0.25981098                5.20957593               -0.85937459
              22.07806434               14.22622168               78.62877330                0.33415264               -0.48471111                0.62539129               -1.00766112                0.05721899                8.52295618               -0.29542291
              23.07757713               13.71054621               78.24458210                0.33239895                0.22487257                0.85672230               -2.28083048               -0.39009332                7.66748626               -0.27017775
              24.08256179               13.19078832               77.85636890                0.33353561                0.69053797                1.14679568               -3.45642939               -0.50364012                6.85698166               -0.24708754
              25.09138789               12.66889846               77.46255755                0.33796210                1.02934351                1.43214687               -4.51982107               -0.54244723                5.94010451               -0.23454480
              26.10314866               12.14708216               77.06133458                0.34555386                1.29818653                1.69009799               -5.41900544               -0.48538653                4.88652317               -0.23457141
              27.11735162               11.62722574               76.65046855                0.35639489                1.53269669                1.86916922               -6.06964667               -0.34038323                3.63462221               -0.26949089
              28.13380259               11.11022636               76.22712922                0.37133965                1.72470802                1.91554952               -6.36660262               -0.17312534                2.05174128               -0.36887789
              29.15184578               10.59476746               75.78702316                0.69181514                1.80431832                1.77384010               -6.19081053               -0.04653009                1.08080960               -0.63715437
              14.45918027                5.89346613               82.32131768                0.98884765               -0.02257067                0.02048395               -0.05968966                0.04102774               -0.39913247                0.47626207
              15.45895456                5.38857822               81.89410793                0.97870432               -0.06362964               -0.05349545                0.18544794                0.04722269               -0.49620646                0.05807390
              16.45790768                4.88350649               81.46454152                0.98878721               -0.14164359               -0.12026875                0.42185753                0.04649069               -0.53034110               -0.03485043
              17.45612169                4.37806114               81.03654748                0.68191435               -0.22426716               -0.19492354                0.65844455                0.01812686               -0.48707849               -0.24616569
              18.45342233                3.87190313               80.60799568                0.49382088               -0.30358762               -0.26954482                0.89146937                0.00503571               -0.45008074               -0.27953059
              19.45004994                3.36517115               80.18118414                0.16831412               -0.53969651               -0.36149047                1.15713055               -0.26810064                0.25319577               -0.56566603
              20.44262840                2.85291777               79.76734603                0.00010000               -1.13998527               -0.11225507                1.13051856               -3.36955091                6.39658452               -1.56810609
              21.42725023                2.27763003               79.45879421                0.00010000                0.65274834               -1.19573020               -0.11069426               -3.15522187               12.61171389               -0.51014627
              22.45568337                1.68895476               79.15831778                0.00010000                4.76661869               -1.65337643               -1.25611108               -3.28246504               13.23742113               -0.26301643
              23.52258261                1.07914664               78.86192590                1.00000000                3.63493649                0.64358978               -2.19372309               -3.38912652                6.53928520               -0.10545943
              24.52838210                0.53938127               78.43482870                1.00000000                0.57994932                0.46532651               -1.67504656                0.07647212               -0.01429180               -0.11441944
              14.96447845                6.89367097               82.18237990                0.97944107               -0.00718411                0.01995115               -0.08402672                0.00381656                0.00833094                0.65655558
              15.96440661                6.38804327               81.75506482                0.95375770               -0.04236631               -0.05405497                0.16336377                0.01125845                0.07475777                0.08204198
              16.96363112                5.88230380               81.32865920                0.97919463               -0.11509853               -0.12230468                0.40419386                0.00632314                0.15199043               -0.20867807
              17.96210464                5.37611190               80.90271515                0.88429169               -0.18567193               -0.20465516                0.65234398               -0.00956753                0.23807104               -0.17659099
              18.95991769                4.86920768               80.47810585                0.74517700               -0.26215147               -0.28347433                0.90758711               -0.02412620                0.25942937               -0.19865478
              19.95686161                4.36155624               80.05281521                0.41897151               -0.36071176               -0.37661508                1.19361987               -0.11684912                0.37715304               -0.39697983
              20.95270345                3.85179522               79.63109641                0.00010000                1.04089556               -0.32591521                1.51019673               -3.77620204                6.26465577               -0.96857617
              21.97767952                3.26567273               79.32401461                0.00010000                3.46984840               -2.09379970               -0.21155571               -5.00021159               11.97962899               -0.83692139
              23.02210042                2.67242099               79.01588603                0.00010000                4.28992816               -1.49379607               -1.17214848               -4.17962899               12.23402321               -1.28272261
              24.06347808                2.08558253               78.71418467                1.00000000                2.34058829                0.62501270               -2.04640962               -2.23262190                6.30709319               -0.12537038
              25.06891219                1.54403454               78.28709939                1.00000000                0.54341006                0.43883177               -1.49700723               -0.01287259                0.00303941               -0.16682617
              15.47051200                7.89386515               82.04653428                0.98125560                0.00349023                0.02252125               -0.10757313               -0.00156285                0.13882292                0.76441123
              16.47054690                7.38749712               81.61623007                0.95992419               -0.02732469               -0.05200934                0.14381036                0.00023751                0.32419669                0.01580479
              17.46996550                6.88106039               81.18923855                0.00010000               -0.07602193               -0.12098930                0.39073776               -0.03528198                0.91277545               -0.64379484
              18.46902646                6.37396804               80.77050529                0.00010000               -0.12350165               -0.64020954                0.64653189               -0.31739960                1.27023509               -0.53847004
              19.46749547                5.86623364               80.35040481                0.00010000               -0.19505232               -1.03869226                0.91350262               -0.26995513                1.12516957               -0.37326915
              20.46512541                5.35763885               79.92874275                0.00010000               -0.22537982               -1.55331279                1.22904463                0.08480733                1.26548479                0.02170867
              21.46298787                4.84639947               79.51183413                0.00010000                2.07474071               -3.06973915                1.58436508               -3.55645356                5.90511685                1.06377644
              22.50662023                4.23575404               79.18430334                0.00010000                4.45965578               -2.34047319               -0.55819828               -6.80334224                9.81585576               -1.24283502
              23.55218099                3.65907884               78.85331031                0.00010000                4.98481982               -1.01508538               -1.29714967               -5.71995765               11.74760501               -3.14169399
              24.60631662                3.09164689               78.56621801                0.02396558                2.95198260                1.03809180               -1.85812578               -5.40596188                7.10157334               -6.10768425
              25.61122064                2.54815791               78.13916060                0.43684820                0.49040164                2.84267308               -1.26576844               -4.36969097                0.05649437               -5.02900089
              15.97718325                8.89412139               81.90938157                0.97806496                0.00328698                0.03221062               -0.12519754               -0.00095564                0.23167650                0.63623027
              16.97721612                8.38700308               81.47567967                0.49096996               -0.03643377               -0.05298558                0.13192388               -0.00116148                0.38246136               -0.29669411
              17.97645457                7.87988401               81.04467719                0.00010000               -0.33163585               -0.15466905                0.36719242               -0.46843186                1.32648323               -1.12461586
              18.97058340                7.36330771               80.62987527                0.00010000               -0.28033993               -0.90003204                0.25001771               -1.11792061                2.25300411               -1.12400889
              19.97084777                6.84843383               80.21783801                0.00010000                0.39042649               -1.61795835                0.14194676               -1.03373635                2.54099145               -0.86576864
              20.97839193                6.33048999               79.80999623                0.00010000                1.63057065               -2.61067723               -0.00274831               -1.60555820                3.36901128               -0.25553649
              22.00345919                5.79040044               79.41763187                0.00010000                2.52706888               -4.11400218               -0.48061356               -3.26826851                4.46671389                0.76307125
              23.02893331                5.21886327               79.03932651                0.00010000                2.41746154               -1.22954408               -1.19244553               -5.81027070                5.74467929               -1.79446655
              24.05180842                4.65211929               78.67795466                0.00010000                1.86732340                0.08991456               -1.79534385               -6.11598195                5.64324926               -4.27396041
              25.06627978                4.10634437               78.29933263                0.00010000                0.83439566                1.84986635               -2.03637092               -5.39748281                3.56709979               -9.45945364
              26.06849633                3.60088800               77.89525360                0.37309793                0.22165549                3.75459067               -1.98757505               -3.44252625                2.48199270               -8.96352250
              16.48472950                9.89450936               81.77072617                0.97504974                0.00315440                0.04503131               -0.14163414                0.00112708                0.00432165                0.52838798
              17.48476105                9.38643741               81.33043584                0.37831305               -0.02186353               -0.06299523                0.14685639               -0.01724162                0.29064903               -0.45186779
              18.48429223                8.87796701               80.89567076                0.00010000               -0.33214101               -0.21637777                0.37098187               -0.70684923                1.81983711               -1.49777153
              19.47811823                8.35596740               80.48610393                0.00010000               -0.23268823               -0.64216629               -0.07198839               -1.41968319                3.14225921               -1.40568401
              20.47963847                7.83387447               80.07949749                0.00010000                0.64647092               -1.23219916               -0.50603169               -1.69368289                3.34855902               -1.33138097
              21.49104765                7.30542530               79.67706725                0.00010000                1.48053768               -1.90508966               -0.97584114               -2.60966612                3.55959168               -1.23442214
              22.50924922                6.76411942               79.27987544                0.00010000                1.88241598               -1.80885244               -1.51168672               -4.41428829                3.76918912               -1.58440010
              23.52869597                6.21116316               78.88803046                0.00010000                1.65655135               -0.34356822               -2.06337982               -5.42853997                3.78373731               -2.39495328
              24.54238025                5.66087713               78.49632658                0.00010000                1.04511447                1.08405168               -2.49488969               -4.95812977                3.25455649               -4.19822155
              25.54959826                5.12864422               78.09614603                0.00010000                0.54513044                2.10772407               -2.73401020               -3.02482351                1.90759600               -5.66361735
              26.55328286                4.62324972               77.67706882                0.37392621                0.36846028                1.97512613               -2.70171784               -1.43320676                1.04553468               -6.73484970
              16.99334969               10.89502202               81.63124174                0.97508010                0.00639449                0.05774286               -0.15993241               -0.00040691                0.00435641                0.52097577
              17.99341363               10.38574318               81.18660220                0.38728084               -0.02810436               -0.07091619                0.14499443               -0.04250534                0.09151489               -0.36230798
              18.99278760                9.87555646               80.74356247                0.00010000               -0.35656800               -0.23125029                0.43117006               -0.84701811                2.10912524               -1.49464295
              19.98628227                9.35046439               80.33944083                0.00010000               -0.26356968               -0.44269970               -0.31407082               -1.75394526                3.93431638               -1.56247130
              20.98751621                8.82378985               79.93577728                0.00010000                0.48356911               -0.71567821               -0.99834077               -2.18730569                3.81954454               -1.61598190
              21.99595366                8.29238819               79.53359679                0.00010000                1.09596772               -0.83624090               -1.66177043               -3.06736719                3.67664354               -1.73686724
              23.00943556                7.75422339               79.13254560                0.00010000                1.38255734               -0.48736855               -2.29827577               -4.03495417                3.41844933               -2.00721867
              24.02360480                7.21199190               78.73107342                0.00010000                1.28646002                0.40147395               -2.85693728               -4.42802503                2.98744213               -2.55167026
              25.03516476                6.67380032               78.32617042                0.00010000                0.99029538                1.36459049               -3.26742717               -3.69415648                2.28460513               -3.34014610
              26.04341071                6.14849885               77.91324134                0.00010000                0.77282115                1.88589161               -3.46164893               -2.01879070                1.25522941               -4.20818766
              27.05062119                5.64039052               77.48812266                0.37468345                0.72104754                1.65296157               -3.40411388               -0.82189824                0.69747537               -4.88835935
              17.50327905               11.89566422               81.49225188                0.97599759                0.00974539                0.07022802               -0.18591310                0.00077094                0.00085990                0.56992611
              18.50337650               11.38501909               81.04311766                0.42122688               -0.03241936               -0.07073137                0.14090716               -0.04740255                0.03273019               -0.33680168
              19.50263066               10.87334201               80.59453436                0.00010000               -0.42852855               -0.21272632                0.46397191               -0.83509789                2.33933100               -1.28736116
              20.49480593               10.34711340               80.19167674                0.00010000               -0.43310559               -0.19997738               -0.48648314               -1.78491266                4.46805490               -1.53685831
              21.49396855                9.81956091               79.78939112                0.00010000                0.22304170               -0.16951831               -1.35805691               -2.24260240                4.24128763               -1.64267889
              22.49926676                9.28870048               79.38687524                0.00010000                0.74889405               -0.03448504               -2.17356215               -2.87841751                3.88332387               -1.75057571
              23.50894643                8.75437205               78.98303352                0.00010000                1.06458850                0.33579587               -2.91829709               -3.40742513                3.39350739               -1.92678321
              24.52055853                8.21919264               78.57625230                0.00010000                1.15218718                0.92452457               -3.54356974               -3.43017915                2.76697562               -2.21495638
              25.53199017                7.68816894               78.16434622                0.00010000                1.10368525                1.49512692               -3.98100188               -2.73519551                1.99358787               -2.63518308
              26.54263224                7.16636205               77.74476203                0.00010000                1.05356901                1.75465158               -4.16567550               -1.45967679                1.06280571               -3.15744535
              27.55306155                6.65630895               77.31504679                0.37545973                1.04293137                1.55875238               -4.05705238               -0.57709972                0.56833343               -3.76996776
              18.01465537               12.89642658               81.35357636                0.97675968                0.01324251                0.08029428               -0.21472228                0.00234228                0.00222677                0.59713497
              19.01478780               12.38432855               80.89986263                0.45458979               -0.03320206               -0.06538003                0.13703432               -0.04058806                0.03459190               -0.32876379
              20.01399133               11.87130193               80.44676056                0.00010000               -0.52113392               -0.19845977                0.48473914               -0.68315582                2.60187440               -1.22209365
              21.00436512               11.34646484               80.04456885                0.00010000               -0.64571261                0.06387181               -0.61182285               -1.50530395                4.96554397               -1.37486328
              22.00107708               10.82039948               79.64316594                0.00010000               -0.03954777                0.28969647               -1.62238212               -1.92655016                4.67687517               -1.45286844
              23.00357416               10.29169849               79.24060245                0.00010000                0.48589143                0.53240918               -2.56003121               -2.40533535                4.19493141               -1.50562356
              24.01079491                9.76093931               78.83536784                0.00010000                0.88150865                0.85914607               -3.40598194               -2.68572856                3.57533821               -1.58548341
              25.02120434                9.23048240               78.42585971                0.00010000                1.12482677                1.25712151               -4.10819543               -2.56486375                2.84414218               -1.72787751
              26.03329144                8.70370286               78.01032182                0.00010000                1.24364121                1.60019591               -4.59410900               -1.97172496                2.01151835               -1.96498106
              27.04607716                8.18359188               77.58688365                0.00010000                1.29469717                1.72425582               -4.79014850               -1.03722604                1.06673579               -2.32954161
              28.05918539                7.67156557               77.15363794                0.37631515                1.31082254                1.51622115               -4.64154439               -0.39580211                0.55462855               -2.86223293
              18.52752195               13.89727010               81.21499278                0.97717444                0.01674368                0.08630889               -0.24428363                0.00320037                0.01181217                0.59798902
              19.52768939               13.38371149               80.75665545                0.49568730               -0.03453487               -0.05826069                0.13738324               -0.03220785                0.06145799               -0.34799150
              20.52683125               12.86937281               80.29932335                0.00010000               -0.60435442               -0.18698703                0.50603525               -0.39779906                2.96428113               -1.04609558
              21.51560230               12.34839084               79.89927262                0.00010000               -0.83136805                0.31552342               -0.70753528               -0.96260665                5.55241529               -1.11045510
              22.51020389               11.82535484               79.49902630                0.00010000               -0.24910315                0.65879533               -1.82136170               -1.40287859                5.14616807               -1.10129883
              23.51062024               11.29934867               79.09701008                0.00010000                0.31220323                0.91295275               -2.85472506               -1.77709155                4.56668426               -1.09598753
              24.51644796               10.77155497               78.69149164                0.00010000                0.79387360                1.18426754               -3.78574340               -1.92622317                3.85886584               -1.11155229
              25.52649771               10.24433507               78.28091247                0.00010000                1.14991152                1.46327762               -4.55925685               -1.76274735                3.05409915               -1.16880731
              26.53944619                9.72017286               77.86365813                0.00010000                1.37636500                1.68065037               -5.09540484               -1.29436606                2.15556272               -1.30426299
              27.55402501                9.20084717               77.43798921                0.00010000                1.48759762                1.73946357               -5.30716695               -0.64564491                1.14396013               -1.56692435
              28.56919814                8.68663338               77.00204885                0.37698438                1.51731315                1.52947218               -5.12308786               -0.21757433                0.58301747               -2.00793238
              19.04183662               14.89815276               81.07625498                0.97667720                0.02043190                0.09002002               -0.26861699                0.00197909                0.01469861                0.50341828
              20.04204093               14.38316334               80.61313986                0.40465311               -0.02403084               -0.05294998                0.14045879               -0.02440429                0.27944765               -0.34779335
              21.04135600               13.86756219               80.15537184                0.00010000               -0.64549881               -0.18249790                0.49884471                0.00567043                3.48794360               -0.83068855
              22.02913096               13.35277531               79.75677148                0.00010000               -0.96471610                0.59815800               -0.78947945               -0.34090138                6.12462112               -0.66773470
              23.02206168               12.83357539               79.35843673                0.00010000               -0.36493807                0.88463072               -1.98237145               -0.74840341                5.61670902               -0.60215365
              24.02183220               12.30995755               78.95746544                0.00010000                0.26111834                1.13312189               -3.08533359               -1.00358927                4.93072483               -0.57874073
              25.02728404               11.78462466               78.55242680                0.00010000                0.77496554                1.37796309               -4.08112760               -1.06014964                4.15784530               -0.56741768
              26.03733151               11.25974795               78.14185720                0.00010000                1.18039902                1.60178664               -4.91275305               -0.93506037                3.30422064               -0.57838264
              27.05089202               10.73731587               77.72419405                0.00010000                1.46861173                1.75711372               -5.49406140               -0.64550970                2.35167411               -0.63892340
              28.06670374               10.21838115               77.29756476                0.00010000                1.61847278                1.78574674               -5.72415589               -0.29035325                1.25211733               -0.78801284
              29.08326148                9.70215501               76.85969975                0.37776457                1.65577374                1.61311305               -5.51172642               -0.05916017                0.62888929               -1.09380451
              19.55754037               15.89907050               80.93577410                0.97520919                0.02514940                0.09177496               -0.29405551               -0.07142611                0.23894213                0.41498232
              20.55779187               15.38265249               80.47005082                0.65923419               -0.01038422               -0.05108480                0.13677340               -0.09228945                0.64462604               -0.33396172
              21.55733269               14.86572285               80.01253978                0.34043913               -0.75103977               -0.18393378                0.49394664                0.48274445                4.24739265               -0.78842670
              22.54277107               14.36035400               79.61927950                0.33386283               -0.96395523                0.75786893               -0.89296149                0.23024126                6.73157410               -0.27418212
              23.53805358               13.84304745               79.22252722                0.33207289               -0.16359436                0.94720623               -2.13025983               -0.31795395                5.95976873               -0.26557991
              24.53949918               13.32201111               78.82277735                0.33342792                0.37004904                1.20535570               -3.27356940               -0.42996217                5.20805152               -0.26066913
              25.54545456               12.79911424               78.41859946                0.33706634                0.78030539                1.44895788               -4.30751799               -0.46496318                4.39196445               -0.26539879
              26.55510529               12.27637080               78.00869892                0.34388268                1.12241110                1.66228530               -5.17733998               -0.41257690                3.52893164               -0.27983403
              27.56790279               11.75531513               77.59166875                0.35373728                1.41367518                1.79992645               -5.79620441               -0.28935882                2.59174735               -0.32155326
              28.58337879               11.23656210               77.16568492                0.36716074                1.62822166                1.81809459               -6.05836266               -0.15346938                1.46558018               -0.41264703
              29.60046722               10.71889564               76.72756443                0.68907886                1.70884241                1.67406238               -5.84632236               -0.04607243                0.80262128               -0.63678712
              14.88112941                6.03728284               83.32024547                0.98911262               -0.00309994                0.04422065               -0.14819524                0.05098951               -0.40799931                0.47619654
              15.88109841                5.52832112               82.89571009                0.97830638               -0.05170173               -0.04036951                0.13705174                0.05698879               -0.51333260                0.06045500
              16.88009537                5.01915059               82.46871237                0.98893218               -0.14298075               -0.11582405                0.40952529                0.05544768               -0.55361271               -0.02995473
              17.87823879                4.50950452               82.04329996                0.68734657               -0.23894525               -0.20439149                0.68532842                0.01939823               -0.51129376               -0.23825772
              18.87531647                3.99897462               81.61728218                0.51084011               -0.33038324               -0.29617872                0.95949953                0.00542969               -0.45725932               -0.26496808
              19.87163113                3.48770188               81.19338106                0.20751692               -0.47595415               -0.40633898                1.27276811               -0.18372716                0.15624406               -0.56130759
              20.86579738                2.97256066               80.78018888                0.00010000               -0.80868340               -0.32534747                1.40772603               -2.74910936                5.38669418               -1.42724027
              21.85545746                2.40708080               80.45869941                0.00010000                0.89996410               -1.21005963                0.08987829               -2.37117866               11.01524950               -0.60133766
              22.88379666                1.82874802               80.14646357                0.00010000                4.57759604               -1.64898311               -1.24514072               -2.74790616               11.48195452               -0.04647618
              23.94700938                1.22511288               79.83997819                1.00000000                3.44813677                0.62610454               -2.20510511               -3.03582279                5.74745139               -0.13386177
              24.95275940                0.68526783               79.41857890                1.00000000                0.57500215                0.42108562               -1.58922742                0.04958471               -0.00946466               -0.11499549
              15.39060102                7.03772505               83.18110528                0.97989634                0.01333963                0.03991753               -0.16529250                0.00803129                0.00086857                0.65283480
              16.39073442                6.52791743               82.75648925                0.95263465               -0.02714377               -0.04322779                0.12256937                0.01539775                0.06205064                0.08488149
              17.39005815                6.01799235               82.33270232                0.97927221               -0.11068295               -0.12000337                0.39992973                0.00658594                0.14213468               -0.19855456
              18.38852076                5.50746060               81.90946072                0.90044906               -0.18930319               -0.22023445                0.68781254               -0.01297923                0.24510892               -0.16380228
              19.38627208                4.99601283               81.48767637                0.77717288               -0.27599638               -0.31668681                0.99396964               -0.02908698                0.30428162               -0.18478236
              20.38300083                4.48363849               81.06555539                0.47867942               -0.38276297               -0.42975137                1.34276914               -0.11099181                0.46854010               -0.39083156
              21.37861682                3.96930718               80.64725986                0.02232307                1.03255791               -0.46469287                1.71650651               -3.04907804                5.29670068               -0.88669288
              22.40365199                3.39498021               80.32199183                0.00010000                3.43423695               -2.04783530               -0.65809213               -3.98301890                9.70755850               -0.42161530
              23.44730156                2.81225819               80.00490018                0.00010000                4.23696265               -1.61637427               -0.89772996               -3.52208115               10.66604106               -1.29957068
              24.48839124                2.23137393               79.69426340                1.00000000                2.28993675                0.57327535               -1.89908033               -1.89697134                5.58116459               -0.13293257
              25.49310030                1.68947869               79.27306728                1.00000000                0.47090545                0.37057236               -1.28860203               -0.05551606                0.00000701               -0.13836117
              15.90090528                8.03808119               83.04507215                0.98172284                0.02337795                0.03556181               -0.18010492                0.00001819                0.13063839                0.75979105
              16.90113906                7.52745656               82.61750699                0.95873209               -0.01106850               -0.04385128                0.11174551               -0.00123696                0.31334675                0.02300287
              17.90068391                7.01675052               82.19320198                0.00010000               -0.05901659               -0.12037588                0.39652084               -0.05723870                0.90927162               -0.63362641
              18.89995873                6.50509983               81.77724443                0.00010000               -0.10635331               -0.65725004                0.68950110               -0.37370143                1.30148132               -0.71816241
              19.89855684                5.99264088               81.36013669                0.00122834               -0.19208967               -1.04175639                1.01332210               -0.37049251                1.22389622               -0.75551625
              20.89611693                5.47910685               80.94200927                0.00010000               -0.25413722               -1.50434000                1.40436932               -0.07404659                1.44548888               -0.62091531
              21.89347410                4.96326680               80.52897863                0.00010000                1.83645706               -2.76936072                1.82009213               -2.97728575                4.84348260               -0.07850011
              22.93284608                4.36612410               80.17899834                0.00010000                4.17436108               -2.28065832               -0.19421916               -5.78505107                7.90902420               -0.63879540
              23.97696132                3.79642053               79.84128016                0.00010000                4.95016876               -1.25912729               -0.99556322               -5.00123487               10.60384310               -3.68143372
              25.03184945                3.23657839               79.54889710                0.01580847                2.92391195                0.68491321               -1.57329163               -5.02650749                6.55122289               -6.36726292
              26.03543956                2.69267928               79.12795024                0.42291545                0.35901091                2.52752951               -0.96821521               -4.25077510                0.04167415               -5.50544130
              16.41185065                9.03843629               82.90779873                0.97852641                0.01897048                0.04054506               -0.18714366               -0.00336612                0.21881261                0.63114975
              17.41204035                8.52704040               82.47689186                0.51198936               -0.02902687               -0.04416305                0.11022336               -0.01165599                0.35761263               -0.27187707
              18.41127011                8.01558483               82.04845713                0.00010000               -0.34419872               -0.15035548                0.38423530               -0.50941742                1.11590257               -1.09991971
              19.40515638                7.49431560               81.63272901                0.00010000               -0.32074464               -0.89482533                0.30635982               -1.21294300                1.86985072               -1.47056524
              20.40485522                6.97517770               81.21985931                0.00010000                0.28688019               -1.55337198                0.23992224               -1.16284064                2.15295677               -1.58744635
              21.41089398                6.45355169               80.81079517                0.00010000                1.35993222               -2.39693400                0.13761214               -1.62713164                2.80017156               -1.42828554
              22.43205386                5.91391997               80.41379265                0.00010000                2.19516288               -3.63261128               -0.27727596               -2.88909997                3.49765449               -0.79573673
              23.45479724                5.34936704               80.02799518                0.00010000                2.23843575               -1.26318408               -0.94367481               -5.13798358                4.79541273               -2.43311800
              24.47682257                4.78707564               79.66094825                0.00010000                1.84025555               -0.13210292               -1.57173240               -5.57851147                4.94554937               -5.07738818
              25.49160235                4.24507219               79.27958144                0.00010000                0.95302222                1.35176893               -1.93074015               -5.08398991                3.09552189              -10.23295988
              26.49588302                3.74002928               78.87646858                0.36838108                0.42806706                3.25137534               -1.83255059               -3.18385900                2.23160926              -10.07188763
              16.92362973               10.03889210               82.76903900                0.97550635                0.01276617                0.05252302               -0.19184372                0.00044507                0.00789035                0.51965961
              17.92375739                9.52657330               82.33186282                0.40591000               -0.02046867               -0.05702354                0.13765645               -0.02792857                0.26012975               -0.42097285
              18.92322036                9.01374341               81.89955251                0.00010000               -0.38251963               -0.21014530                0.39934538               -0.73526164                1.42488352               -1.42757122
              19.91610700                8.48720332               81.48578034                0.00010000               -0.35782047               -0.60579169               -0.00630857               -1.47312598                2.40176366               -1.67088178
              20.91606395                7.96157344               81.07503876                0.00010000                0.43625167               -1.12041099               -0.40697974               -1.70168953                2.57939631               -1.90628394
              21.92483203                7.43116817               80.66807759                0.00010000                1.19063981               -1.67269262               -0.85078148               -2.46784498                2.71499217               -2.08781930
              22.93987674                6.89061458               80.26557100                0.00010000                1.60493492               -1.57854726               -1.37475664               -3.96339238                2.89086301               -2.54387030
              23.95693073                6.34086042               79.86821002                0.00010000                1.49045985               -0.37775644               -1.93385576               -4.82955404                2.97198821               -3.32880804
              24.96968594                5.79377847               79.47202999                0.00010000                1.01426422                0.92036446               -2.41349108               -4.42649151                2.62938429               -5.13703684
              25.97721602                5.26361377               79.06953035                0.00010000                0.60811340                1.79574115               -2.66210618               -2.69118225                1.57164535               -6.63033980
              26.98184821                4.75770679               78.65126966                0.36915296                0.46321931                1.57319394               -2.56455738               -1.29701737                0.89210178               -7.76284859
              17.43649713               11.03948675               82.62943045                0.97538876                0.01333298                0.06568235               -0.19857844               -0.00157645                0.00444433                0.50510742
              18.43663046               10.52589993               82.18805846                0.41762932               -0.02811374               -0.07130868                0.14434225               -0.04751132                0.08088040               -0.34140351
              19.43593486               10.01138193               81.74808487                0.00010000               -0.43833147               -0.23204114                0.46527720               -0.84052981                1.57641490               -1.41042505
              20.42786383                9.48219977               81.33672640                0.00010000               -0.45391378               -0.38952555               -0.24063765               -1.72242841                2.89036553               -1.74086021
              21.42685658                8.95276948               80.92640858                0.00010000                0.23160572               -0.59611926               -0.89446472               -2.06691137                2.78431478               -2.02417167
              22.43249595                8.42009783               80.51771339                0.00010000                0.81185921               -0.66767461               -1.54510825               -2.80250744                2.64167972               -2.34032951
              23.44309376                7.88234902               80.11033309                0.00010000                1.12731561               -0.34892557               -2.18946869               -3.60347906                2.42701960               -2.75446201
              24.45504226                7.34181191               79.70319786                0.00010000                1.12228145                0.42385286               -2.78042314               -3.91130380                2.12401777               -3.39294520
              25.46553939                6.80548293               79.29406789                0.00010000                0.94040677                1.26970036               -3.23197245               -3.23187622                1.64715187               -4.23604396
              26.47385039                6.28098702               78.87919536                0.00010000                0.81086226                1.68285609               -3.43739834               -1.74192199                0.92499070               -5.12081623
              27.48175664                5.77149316               78.45498564                0.36981151                0.79062454                1.37993744               -3.33068450               -0.68290400                0.55688140               -5.77313776
              17.95077184               12.04020574               82.49023213                0.97613429                0.01401480                0.07714721               -0.21457534               -0.00003051                0.00046643                0.54664812
              18.95091199               11.52514713               82.04457092                0.45334213               -0.03309585               -0.07468156                0.14674823               -0.04839315                0.02882811               -0.31644871
              19.95010992               11.00910259               81.59939553                0.00010000               -0.53205540               -0.22170300                0.49943793               -0.78833729                1.70143561               -1.21872350
              20.94027088               10.47941281               81.18725899                0.00010000               -0.66411320               -0.14789369               -0.40675593               -1.67104414                3.20208251               -1.64177531
              21.93682766                9.94965105               80.77643363                0.00010000               -0.05342679               -0.06828385               -1.24866445               -2.03792842                3.00099306               -1.91434717
              22.93920234                9.41781468               80.36587316                0.00010000                0.46327136                0.08933108               -2.05574630               -2.57028387                2.66956589               -2.17578167
              23.94609308                8.88363606               79.95461211                0.00010000                0.81842036                0.43525232               -2.81580674               -3.00328713                2.25615725               -2.48820010
              24.95557075                8.34933747               79.54152998                0.00010000                0.98901153                0.95515259               -3.47519998               -2.98616694                1.79143898               -2.88851688
              25.96587331                7.81917248               79.12516604                0.00010000                1.03983006                1.44058817               -3.95091290               -2.34707755                1.27771614               -3.38497819
              26.97636735                7.29727089               78.70371291                0.00010000                1.06522662                1.62808696               -4.15585723               -1.23019279                0.68550661               -3.92806260
              27.98717785                6.78530553               78.27523811                0.37058138                1.08104966                1.40116651               -4.02274510               -0.46861864                0.40501229               -4.47597521
              18.46661374               13.04102969               82.35131406                0.97676577                0.01520036                0.08500368               -0.23470288                0.00191953                0.00161640                0.57048515
              19.46676575               12.52440630               81.90130921                0.48865540               -0.03556585               -0.07045871                0.14827020               -0.03857152                0.03081468               -0.30494735
              20.46590243               12.00694787               81.45184866                0.00010000               -0.64356318               -0.21043921                0.52241166               -0.60010917                1.87961256               -1.15452324
              21.45389448               11.47924190               81.03890737                0.00010000               -0.91031399                0.10947870               -0.52711596               -1.33040082                3.53051721               -1.42469147
              22.44769615               10.95140380               80.62757208                0.00010000               -0.33946127                0.37745733               -1.50680808               -1.68486160                3.27087141               -1.61861857
              23.44710526               10.42188446               80.21573642                0.00010000                0.19045380                0.63250422               -2.43754915               -2.10210446                2.82304583               -1.78773163
              24.45150522                9.89105407               79.80207430                0.00010000                0.63386209                0.93726374               -3.30050753               -2.33390225                2.29087860               -1.97975752
              25.45978250                9.36091497               79.38552030                0.00010000                0.95796011                1.28628843               -4.03664606               -2.20506072                1.73875346               -2.22116077
              26.47066443                8.83429469               78.96508506                0.00010000                1.16654920                1.57045155               -4.55974663               -1.66878279                1.19170917               -2.52734193
              27.48311348                8.31354875               78.53969621                0.00010000                1.28252760                1.65100553               -4.77657281               -0.86066286                0.62742056               -2.90485839
              28.49631498                7.79951649               78.10807771                0.37144299                1.32014932                1.44418111               -4.61003796               -0.31307312                0.36231346               -3.36123887
              18.98405702               14.04190582               82.21248151                0.97709889                0.01653639                0.08802338               -0.25585566                0.00369259                0.01194138                0.57166867
              19.98422238               13.52373796               81.75813086                0.53347431               -0.03924380               -0.06309385                0.15286699               -0.02839104                0.05447740               -0.31817195
              20.98327214               13.00489381               81.30462945                0.00010000               -0.75077272               -0.19898605                0.54491024               -0.28306713                2.16770063               -0.98601391
              21.96920692               12.48160239               80.89266979                0.00010000               -1.13921370                0.36821482               -0.61681806               -0.74794903                3.97994251               -1.12014953
              22.96048787               11.95720020               80.48145396                0.00010000               -0.58484687                0.75155962               -1.69800572               -1.17160850                3.60607839               -1.18769188
              23.95750999               11.43046476               80.06920424                0.00010000               -0.00516679                1.00469137               -2.72458780               -1.52626888                3.06006556               -1.26238779
              24.96038453               10.90238134               79.65440766                0.00010000                0.53594620                1.25333726               -3.67363894               -1.65911612                2.44157140               -1.35867725
              25.96822891               10.37506324               79.23608127                0.00010000                0.97396698                1.49560544               -4.48174815               -1.50495004                1.82443627               -1.48851242
              26.97986387                9.85058151               78.81344946                0.00010000                1.28516945                1.67251349               -5.05474219               -1.08915949                1.23440489               -1.67248452
              27.99393230                9.33029100               78.38569538                0.00010000                1.45585256                1.70330717               -5.28702261               -0.53322412                0.64552481               -1.93494634
              29.00898092                8.81418916               77.95172606                0.37206974                1.50486201                1.50604485               -5.08766538               -0.16793444                0.36215518               -2.30058980
              19.50302332               15.04279016               82.07352614                0.97659948                0.01866198                0.09001619               -0.27639741                0.00342045                0.01399048                0.48020395
              20.50320994               14.52314442               81.61468293                0.44071302               -0.03233308               -0.05848912                0.16266035               -0.02059230                0.25273481               -0.31832660
              21.50237665               14.00296815               81.16064085                0.00010000               -0.82904131               -0.19354498                0.54244868                0.15900779                2.62033517               -0.77544689
              22.48662911               13.48660619               80.74937829                0.00010000               -1.34875255                0.70598066               -0.68984322               -0.15158449                4.44690637               -0.66098449
              23.47540160               12.96643500               80.33928917                0.00010000               -0.76151827                0.99267199               -1.84684847               -0.59205621                3.96931394               -0.63405909
              24.47139874               12.44197828               79.92738692                0.00010000               -0.08385921                1.22431763               -2.94244033               -0.85867949                3.31714693               -0.65366961
              25.47372442               11.91612082               79.51241963                0.00010000                0.50422908                1.44319120               -3.95731642               -0.91150700                2.63110757               -0.68640877
              26.48148333               11.39082707               79.09352105                0.00010000                0.99645293                1.63693963               -4.82539795               -0.79733788                1.96727849               -0.73716084
              27.49365348               10.86774496               78.67003158                0.00010000                1.36790165                1.76318898               -5.44561397               -0.54377411                1.33872001               -0.82288960
              28.50884136               10.34761490               78.24113655                0.00010000                1.57532504                1.77210417               -5.69778099               -0.24106836                0.69977982               -0.96688372
              29.52515998                9.82963738               77.80553339                0.37280265                1.63186198                1.60565984               -5.46883618               -0.03983777                0.38210224               -1.21233873
              20.02341690               16.04370614               81.93285031                0.98829510                0.02156451                0.09159810               -0.29360274               -0.07443816                0.22562295                0.39439020
              21.02363255               15.52256817               81.47157171                0.67513222               -0.02131882               -0.05762470                0.16334172               -0.09190063                0.59753756               -0.30666185
              22.02299052               15.00102291               81.01779068                0.33988243               -1.04620804               -0.19452388                0.54190038                0.71907827                3.30083485               -0.72441737
              23.00270838               14.49572200               80.61091407                0.33375840               -1.48579367                0.91158076               -0.77835758                0.40946420                4.95295124               -0.25673461
              23.99327465               13.97705364               80.20197690                0.33245900               -0.60289029                1.06186445               -1.97609873               -0.25123959                4.24262611               -0.26609098
              24.99065058               13.45495111               79.79089751                0.33319265                0.00154741                1.29728306               -3.11094122               -0.36524045                3.52594919               -0.28012696
              25.99330560               12.93124516               79.37640719                0.33683148                0.50037133                1.51243473               -4.16553167               -0.39933594                2.79237798               -0.30201111
              27.00065801               12.40780204               78.95778778                0.34248783                0.94474820                1.69749616               -5.07546711               -0.35252553                2.11221168               -0.32985489
              28.01220056               11.88584529               78.53454446                0.35097989                1.32802538                1.81003288               -5.73820405               -0.24873905                1.49521727               -0.37668319
              29.02721851               11.36573308               78.10596197                0.36322203                1.59693155                1.81181864               -6.02791907               -0.13943153                0.84557959               -0.45750668
              30.04413919               10.84630235               77.67009671                0.68653404                1.69206806                1.66649693               -5.80050045               -0.04515162                0.50711024               -0.63336808
              15.30009104                6.18127043               84.31835378                0.98970286                0.01299669                0.06305510               -0.22116374                0.05954298               -0.42146324                0.47713189
              16.30022101                5.66822901               83.89684896                0.97841724               -0.04227437               -0.02850100                0.09377912                0.06581182               -0.53813280                0.06307201
              17.29924556                5.15492751               83.47273203                0.98883403               -0.14474981               -0.10844043                0.39160275                0.06295201               -0.58438827               -0.02608811
              18.29732601                4.64097447               83.05025405                0.69274263               -0.25247555               -0.20830761                0.69669090                0.01506919               -0.53662039               -0.23201751
              19.29419604                4.12581538               82.62718567                0.53033387               -0.35289493               -0.31578709                1.00386207                0.00235338               -0.45614388               -0.24622277
              20.29026812                3.60959633               82.20663950                0.25579803               -0.45760527               -0.44849346                1.36388068               -0.14113791                0.12171426               -0.53901024
              21.28504394                3.09023101               81.79550055                0.00010000               -0.44937886               -0.49593973                1.61070643               -1.81318638                4.45175689               -1.32221603
              22.28128054                2.53901844               81.46059178                0.00010000                0.94998693               -0.20769393                0.10071427               -2.66296718                9.28218629               -1.93737762
              23.30404368                1.97115201               81.13341497                0.00010000                4.20678803               -1.95390175               -1.49050535               -2.64537388                9.80477094                0.20423349
              24.36541630                1.36789898               80.81782379                1.00000000                3.34738557                0.61059999               -2.18831375               -3.00057277                4.97917658               -0.07070517
              25.37099139                0.82810460               80.40304416                1.00000000                0.55750905                0.37913701               -1.48397357                0.05188071               -0.00593391               -0.07177318
              15.81372789                7.18190098               84.17907405                0.98085904                0.03226964                0.05485470               -0.23313509                0.01250388               -0.01067892                0.64982166
              16.81405059                6.66794400               83.75751620                0.95200870               -0.01127735               -0.03372194                0.08458246                0.02025573                0.04172197                0.08807510
              17.81350235                6.15384310               83.33665779                0.97805322               -0.10089120               -0.11472303                0.38587772                0.00576655                0.12438190               -0.18810849
              18.81203277                5.63889139               82.91647140                0.91481938               -0.17968517               -0.23189852                0.70105525               -0.01951164                0.25455505               -0.15266918
              19.80990864                5.12265751               82.49798524                0.81101734               -0.26919229               -0.34375045                1.04394966               -0.03837441                0.37413808               -0.16771843
              20.80664892                4.60511140               82.07967059                0.55191222               -0.38538098               -0.48077846                1.45778553               -0.12303771                0.61184101               -0.37094010
              21.80220102                4.08527161               81.66542654                0.15164105                0.37707237               -0.59671722                1.93249160               -1.51726915                3.83215574               -0.83461646
              22.81419037                3.53694150               81.31085277                0.00010000                3.04743218               -1.10218262               -0.62186822               -3.12199896                7.77341309               -0.68993101
              23.86314967                2.95161299               80.99793144                0.00010000                4.63719523               -2.08749573               -0.43293786               -3.63105525                9.69505138               -1.18610763
              24.90693427                2.37400498               80.67620306                1.00000000                2.40774512                0.55423075               -1.82031703               -1.72311607                4.67036007               -0.06967340
              25.91130457                1.83189597               80.26132735                1.00000000                0.43702974                0.32715886               -1.13374315               -0.06307817               -0.00192554               -0.09948717
              16.32825509                8.18236753               84.04293218                0.98256461                0.04289193                0.04382763               -0.24123780                0.00097189                0.11803417                0.75759607
              17.32868401                7.66755457               83.61846498                0.95755586                0.00792052               -0.03671457                0.08045354               -0.00375545                0.29511081                0.03210173
              18.32841350                7.15263305               83.19716896                0.00010000               -0.02813176               -0.11540099                0.39016711               -0.08924777                0.89559152               -0.61993001
              19.32812137                6.63633650               82.78429531                0.00181732               -0.06024750               -0.67654481                0.70231313               -0.45735990                1.33287270               -0.89506937
              20.32720855                6.11894037               82.37067125                0.01324484               -0.14640563               -1.04373360                1.05962724               -0.52118123                1.35507069               -1.13961698
              21.32519326                5.59998077               81.95683014                0.00463975               -0.21700436               -1.46277167                1.51461375               -0.34153069                1.69163822               -1.28179950
              22.32286846                5.07829667               81.54823597                0.00010000                1.36529631               -2.36891448                2.00922871               -1.44973726                4.09865416               -1.25060521
              23.35249918                4.51697478               81.18041896                0.00010000                3.57453164               -2.79761350                0.83773573               -4.26994890                5.89297872               -0.36823693
              24.39435909                3.92940209               80.83339905                0.00010000                4.90859052               -1.58956515               -0.25238131               -5.10038592                9.35601202               -4.56023736
              25.45067099                3.37898359               80.53475218                0.01344517                2.97943710                0.35234731               -1.47075531               -4.45093549                5.85164361               -6.68290547
              26.45394783                2.83464778               80.11979630                0.41374113                0.32768399                2.21174293               -0.80225078               -4.03109800                0.03736696               -6.10024919
              16.84337324                9.18277754               83.90563869                0.97924755                0.03367207                0.04516501               -0.23902355               -0.00755348                0.20197568                0.63100658
              17.84370996                8.66720971               83.47788414                0.53449272               -0.02188870               -0.03516134                0.08808626               -0.02381659                0.32714927               -0.24339962
              18.84293547                8.15153508               83.05236189                0.00010000               -0.35658610               -0.14225993                0.39096676               -0.56951657                0.89692483               -1.07105455
              19.83657824                7.62536049               82.63600246                0.00010000               -0.35473588               -0.88920639                0.33259955               -1.36031792                1.47975076               -1.80666965
              20.83584075                7.10178284               82.22263645                0.00010000                0.19418866               -1.48704288                0.28761172               -1.38919617                1.76511604               -2.30541433
              21.84046201                6.57585597               81.81274847                0.00010000                1.01857554               -2.16150370                0.21357690               -1.71337645                2.27675875               -2.62898666
              22.85621226                6.03789333               81.41208635                0.00010000                1.86119762               -3.07975441               -0.10861182               -2.54005780                2.69643031               -2.48662995
              23.87768597                5.48098923               81.02045301                0.00010000                2.14604400               -2.37952331               -0.58131115               -4.44470401                3.95204204               -3.64558596
              24.89913314                4.91982169               80.64652001                0.00010000                1.74919551               -0.21926728               -1.44093498               -5.03243934                4.07104912               -6.19351619
              25.91266988                4.38105192               80.26071782                0.00010000                1.01105470                0.87199572               -1.87832324               -4.62851782                2.55268161              -11.03952457
              26.91935424                3.87613083               79.85860259                0.36398825                0.66843589                2.74139580               -1.80838637               -2.80718736                1.95604171              -11.24040841
              17.35923967               10.18327083               83.76688929                0.97611639                0.02104570                0.05767489               -0.23280520               -0.00148250                0.01059356                0.51760939
              18.35945013                9.66685135               83.33318897                0.43643834               -0.01836452               -0.05013525                0.12641787               -0.04080596                0.22632921               -0.38848941
              19.35887238                9.14978785               82.90365767                0.00010000               -0.43914367               -0.20150733                0.41378033               -0.77932414                1.02433844               -1.35929943
              20.35066725                8.61855237               82.48597776                0.00010000               -0.49716147               -0.55959821                0.03462927               -1.57003489                1.65292657               -1.92536895
              21.34892915                8.08919952               82.07135789                0.00010000                0.20739948               -0.99356485               -0.34785429               -1.77134573                1.79321065               -2.46929815
              22.35481524                7.55675069               81.66005162                0.00010000                0.90024465               -1.40349700               -0.78746684               -2.40486035                1.84974893               -2.95497385
              23.36693404                7.01670158               81.25238031                0.00010000                1.34307495               -1.39001401               -1.30780471               -3.55435758                1.96998400               -3.60833495
              24.38167674                6.46938432               80.84935334                0.00010000                1.33567826               -0.50880917               -1.90625884               -4.35102211                2.03238028               -4.47027291
              25.39364761                5.92501675               80.44805676                0.00010000                1.00573755                0.80608508               -2.47029853               -3.99918241                1.85298831               -6.17482984
              26.40179149                5.39642351               80.04290391                0.00010000                0.69993311                1.54240204               -2.75256749               -2.36090748                1.15724428               -7.60227630
              27.40764627                4.88947569               79.62577767                0.36453272                0.58547774                1.24142426               -2.62003207               -1.15358003                0.72882604               -8.77371408
              17.87618256               11.18393103               83.62727017                0.97575745                0.01942678                0.07213736               -0.22869244               -0.00384678                0.00406921                0.49565828
              18.87637682               10.66620700               83.18948904                0.45013479               -0.02672965               -0.07059883                0.13946909               -0.05432837                0.06749181               -0.32234576
              19.87564796               10.14750494               82.75286801                0.00010000               -0.53054747               -0.22920505                0.48129586               -0.84697791                1.04328140               -1.33395020
              20.86576587                9.61416853               82.33462808                0.00010000               -0.67162247               -0.32277217               -0.18575425               -1.72255831                1.84338340               -1.91136063
              21.86221551                9.08191154               81.91788799                0.00010000               -0.04515649               -0.45445232               -0.82122082               -1.99687070                1.72296384               -2.42013704
              22.86486274                8.54778603               81.50269463                0.00010000                0.51379856               -0.47944338               -1.48221091               -2.60770680                1.54656837               -2.94278417
              23.87249148                8.01009305               81.08875623                0.00010000                0.87438067               -0.19173676               -2.16952677               -3.27471359                1.33087939               -3.52112963
              24.88235036                7.47081304               80.67546495                0.00010000                0.98094101                0.48577754               -2.83219850               -3.49965117                1.12164104               -4.25775471
              25.89211030                6.93594339               80.26153097                0.00010000                0.93212106                1.22177310               -3.35548176               -2.85995625                0.87726878               -5.13828345
              26.90099278                6.41189996               79.84449337                0.00010000                0.90339761                1.54382213               -3.60489942               -1.52526309                0.51551826               -6.03815971
              27.91017826                5.90095932               79.42150897                0.36533609                0.91854781                1.21108413               -3.48644867               -0.57080826                0.38278770               -6.68112764
              18.39461080               12.18471357               83.48796037                0.97627242                0.01788641                0.08279324               -0.23555876               -0.00167811               -0.00022554                0.52849957
              19.39478966               11.66543937               83.04605262                0.48737378               -0.03197490               -0.07686695                0.14626322               -0.05085812                0.02216007               -0.29914647
              20.39397130               11.14520375               82.60452311                0.00010000               -0.64900891               -0.22636957                0.51588280               -0.75024946                1.06909628               -1.16093254
              21.38180948               10.61209692               82.18354162                0.00010000               -0.92985281               -0.08041558               -0.34003618               -1.58035523                1.94107640               -1.74280316
              22.37537424               10.08011047               81.76441784                0.00010000               -0.36649373                0.05476207               -1.15958341               -1.87425780                1.73362045               -2.17671184
              23.37447961                9.54716182               81.34576032                0.00010000                0.15192576                0.24133808               -1.98483857               -2.32867542                1.38637581               -2.59205194
              24.37841276                9.01286684               80.92671738                0.00010000                0.56768854                0.57277774               -2.80334383               -2.68624191                1.00937844               -3.04222877
              25.38583338                8.47909987               80.50674830                0.00010000                0.84744039                1.03474233               -3.54841833               -2.63981745                0.68397116               -3.55149784
              26.39536156                7.94945221               80.08532796                0.00010000                1.02184638                1.44646067               -4.11428663               -2.04802554                0.43789349               -4.11909887
              27.40627031                7.42729995               79.66164488                0.00010000                1.13749189                1.58061404               -4.38031759               -1.05573454                0.23003201               -4.69103322
              28.41811140                6.91369738               79.23459188                0.36595998                1.18410969                1.34467635               -4.24608464               -0.38573727                0.20750415               -5.19235892
              18.91469740               13.18558690               83.34888231                0.97674441                0.01720846                0.08889127               -0.24807066                0.00084121                0.00077744                0.54792977
              19.91486949               12.66466967               82.90282803                0.52500219               -0.03559933               -0.07325198                0.15123377               -0.03840114                0.02442058               -0.28450564
              20.91398542               12.14297754               82.45720880                0.00010000               -0.78087216               -0.21717011                0.53824897               -0.52172052                1.16821973               -1.09604412
              21.89925205               11.61256022               82.03402653                0.00010000               -1.21599796                0.17100034               -0.44892929               -1.17017989                2.10888816               -1.47422874
              22.88966546               11.08300678               81.61302978                0.00010000               -0.68595920                0.48867206               -1.40131037               -1.47653309                1.84190371               -1.77926667
              23.88553286               10.55261279               81.19185147                0.00010000               -0.14184281                0.76442929               -2.35203012               -1.85349745                1.38376315               -2.06317142
              24.88682860               10.02154860               80.76935769                0.00010000                0.37178914                1.05846276               -3.28025665               -2.05576534                0.90034160               -2.36609561
              25.89296864                9.49150789               80.34512679                0.00010000                0.80605555                1.37321018               -4.11275790               -1.92823712                0.50686189               -2.70402481
              26.90294971                8.96487260               79.91912689                0.00010000                1.13321372                1.61622194               -4.73781997               -1.44185185                0.25438318               -3.07760848
              27.91563292                8.44351224               79.49135220                0.00010000                1.33594699                1.67039754               -5.02906054               -0.73155789                0.11504904               -3.46953789
              28.92966865                7.92785284               79.06143718                0.36670524                1.40357340                1.47342605               -4.87303855               -0.25251574                0.13713044               -3.85988705
              19.43646209               14.18649140               83.20987567                0.97697358                0.01689042                0.09005679               -0.26272688                0.00356517                0.01099656                0.54673263
              20.43663099               13.66397433               82.75971279                0.57312003               -0.04078763               -0.06568596                0.15858372               -0.02598127                0.04507384               -0.29031325
              21.43564633               13.14086034               82.31022155                0.00010000               -0.91271740               -0.20427601                0.56057194               -0.16877374                1.38798859               -0.93253029
              22.41837664               12.61551693               81.88693626                0.00010000               -1.49276622                0.43755593               -0.52629799               -0.54038555                2.43011903               -1.13109232
              23.40579101               12.08988391               81.46506619                0.00010000               -0.97544002                0.86822398               -1.57382201               -0.96463304                2.04886455               -1.27220612
              24.39886784               11.56245041               81.04251833                0.00010000               -0.36943308                1.12890478               -2.61947939               -1.31679984                1.48921996               -1.42574374
              25.39840235               11.03403610               80.61801886                0.00010000                0.25383956                1.36741758               -3.63776803               -1.44714340                0.92011400               -1.60173647
              26.40394463               10.50656407               80.19127751                0.00010000                0.80589121                1.58951652               -4.54934109               -1.30814846                0.47016708               -1.80268558
              27.41452017                9.98177665               79.76256328                0.00010000                1.23571360                1.74452375               -5.23291808               -0.93774827                0.19759664               -2.03331114
              28.42865891                9.46070790               79.33224876                0.00010000                1.49298587                1.76323261               -5.54718217               -0.45230727                0.07541498               -2.29443825
              29.44437989                8.94316590               78.90029554                0.36737691                1.57209840                1.58423714               -5.36254570               -0.13214071                0.10853036               -2.58330495
              19.95980285               15.18738804               83.07072703                0.97644951                0.01780703                0.09092832               -0.27999294                0.00418806                0.01806129                0.45650167
              20.95998092               14.66335595               82.61639306                0.47842969               -0.03677541               -0.06163257                0.17278833               -0.01623784                0.22556998               -0.28905548
              21.95906734               14.13889202               82.16622081                0.00010000               -1.02800758               -0.19627520                0.56038145                0.31580428                1.77457605               -0.72593017
              22.93942077               13.62131134               81.74297462                0.00010000               -1.78140103                0.83154064               -0.58426692                0.03732356                2.80196296               -0.65447283
              23.92343932               13.10037126               81.32149976                0.00010000               -1.21880451                1.12331250               -1.69975826               -0.44943994                2.31131772               -0.66564862
              24.91504468               12.57519088               80.89861663                0.00010000               -0.48336238                1.34684925               -2.81244716               -0.73771390                1.64155661               -0.72743702
              25.91377207               12.04889695               80.47328047                0.00010000                0.20102254                1.55313897               -3.89915186               -0.79415816                0.99887775               -0.80332743
              26.91906513               11.52329822               80.04534924                0.00010000                0.81394239                1.73380779               -4.87674562               -0.69331252                0.50185478               -0.89262929
              27.93005092               10.99976308               79.61528177                0.00010000                1.30661973                1.84895253               -5.61526514               -0.47042744                0.20503218               -1.00220431
              28.94519752               10.47877690               79.18360914                0.00010000                1.60294599                1.85266153               -5.95571095               -0.20731317                0.07177228               -1.13935829
              29.96210984                9.95953759               78.75032302                0.36802136                1.69123174                1.69678665               -5.74042662               -0.02592888                0.09895425               -1.31705835
              20.48461003               16.18830997               82.92990204                0.98819441                0.01922194                0.09219312               -0.29312627               -0.07611119                0.21869835                0.37231846
              21.48480224               15.66274168               82.47331766                0.69223584               -0.03014982               -0.06142686                0.17847958               -0.08662373                0.54904481               -0.27839562
              22.48400703               15.13693484               82.02337779                0.33942284               -1.35791853               -0.19571842                0.56109835                0.96427216                2.38251153               -0.66553738
              23.45764387               14.63214774               81.60371235                0.33345211               -2.05421822                1.08364072               -0.65192398                0.59307674                3.22213956               -0.24211051
              24.44292266               14.11235016               81.18300524                0.33209845               -1.10279982                1.19788971               -1.80154046               -0.18968305                2.52095528               -0.26948034
              25.43558788               13.58938739               80.76055852                0.33322245               -0.42554078                1.41965108               -2.95183125               -0.30824408                1.78110801               -0.30159484
              26.43441185               13.06509888               80.33528883                0.33605369                0.18121905                1.62019275               -4.08182342               -0.34338071                1.08006870               -0.33905281
              27.43921226               12.54124023               79.90718958                0.34120909                0.76105491                1.79420074               -5.10898119               -0.30244599                0.55482522               -0.37810598
              28.44963295               12.01875570               79.47690466                0.34908481                1.27629373                1.89926216               -5.90040263               -0.21575218                0.26249214               -0.42735621
              29.46473813               11.49776113               79.04512654                0.35960178                1.63534933                1.89842333               -6.28970509               -0.12864224                0.13558108               -0.49484528
              30.48233993               10.97710163               78.61155442                0.68433835                1.76018005                1.75640462               -6.07845737               -0.04294041                0.16179855               -0.61109263
              15.71570977                6.32538494               85.31582220                0.99040408                0.02477295                0.07581383               -0.27319792                0.06565040               -0.43999050                0.47851960
              16.71595750                5.80824808               84.89758568                0.97897004               -0.03536235               -0.01851744                0.05798109                0.07237924               -0.57112989                0.06543861
              17.71500252                5.29077730               84.47654443                0.98851719               -0.14523797               -0.09840534                0.36794894                0.06787452               -0.62257885               -0.02482487
              18.71305274                4.77242945               84.05723378                0.69440390               -0.25971945               -0.20634972                0.69007666                0.00685277               -0.56446698               -0.22845050
              19.70980813                4.25245101               83.63735942                0.55082467               -0.36511033               -0.32781338                1.01559095               -0.00374604               -0.43611794               -0.21622750
              20.70575053                3.73085948               83.22065868                0.31361357               -0.44639454               -0.48304362                1.41797285               -0.10475170                0.14669538               -0.47173103
              21.70088024                3.20626434               82.81240301                0.00010000               -0.12818853               -0.63849166                1.71402958               -0.83265868                3.42122831               -1.08129426
              22.70318676                2.66781127               82.46071370                0.00010000                1.08899105               -0.64568652                0.16481936               -2.78036973                7.31978431               -2.75358923
              23.72266006                2.10379975               82.11665346                0.00010000                3.68884794               -1.52477981               -1.22474306               -2.72432794                7.80690988                0.51995939
              24.77696372                1.50694024               81.79621192                1.00000000                2.97699676                0.61118283               -2.12205584               -2.68280701                4.37076580               -0.06794980
              25.78220000                0.96726599               81.38889943                1.00000000                0.52362777                0.34708145               -1.34621195                0.09389617               -0.00662707               -0.06737236
              16.23350314                7.32614308               85.17644258                0.98194619                0.04819788                0.06417632               -0.28247726                0.01651211               -0.02771422                0.64691115
              17.23398511                6.80806291               84.75818090                0.95174666                0.00437246               -0.02587110                0.05130484                0.02485795                0.01067358                0.09111245
              18.23359058                6.28979325               84.34041987                0.97528935               -0.08503514               -0.10647379                0.36092996                0.00329667                0.09264105               -0.17845951
              19.23228441                5.77036595               83.92348182                0.92562299               -0.15174634               -0.23810339                0.68608266               -0.02796058                0.25507775               -0.14540438
              20.23055566                5.24917288               83.50855536                0.84482733               -0.22440294               -0.36268418                1.03923077               -0.05108027                0.46280371               -0.14438866
              21.22779635                4.72602905               83.09471110                0.63862505               -0.32389464               -0.52332512                1.49844679               -0.13295063                0.85223895               -0.31971641
              22.22407776                4.19987943               82.68590969                0.30988907               -0.05904952               -0.73347248                2.10026052               -0.68482651                2.88141160               -0.71089427
              23.22661536                3.66135440               82.30955447                0.00010000                2.58872662               -0.93260762                0.79298864               -2.44858296                7.30860217               -1.45006576
              24.27585230                3.08855195               81.99624142                0.03425952                4.58935865               -2.35862699               -0.29060456               -3.06070271               10.15349876               -1.57806405
              25.31840253                2.51305207               81.65785706                1.00000000                2.34804612                0.57326368               -1.86899510               -1.61469011                3.45728795               -0.07270521
              26.32281322                1.97073680               81.25039242                1.00000000                0.44106846                0.30665325               -1.06531565               -0.03659386                0.00392917               -0.09123067
              16.75220036                8.32666847               85.04024739                0.98348794                0.06041344                0.04781122               -0.28651300                0.00102552                0.09920283                0.75801810
              17.75280449                7.80773066               84.61911606                0.95622146                0.02825259               -0.03072435                0.05125433               -0.00728111                0.26541578                0.04331120
              18.75276541                7.28864782               84.20100532                0.00010000                0.01547006               -0.10591051                0.36972568               -0.12817896                0.85995284               -0.60074423
              19.75311389                6.76766738               83.79129069                0.00196381                0.01790119               -0.69330967                0.67542834               -0.56290365                1.33665248               -1.06310694
              20.75312343                6.24519733               83.38132924                0.02148102               -0.03644601               -1.03950548                1.02756294               -0.72092643                1.47712185               -1.50787836
              21.75238497                5.72039298               82.97230155                0.02572638               -0.06325384               -1.41392918                1.49548996               -0.72097641                1.98667290               -1.92374056
              22.75185836                5.19159489               82.56916320                0.00010000                0.65788012               -1.99181939                2.05731406               -0.85168529                4.04921293               -2.36526211
              23.76554258                4.64915912               82.19575305                0.00010000                2.89449913               -2.69167316                1.52043236               -3.10893135                5.45511657               -2.59956556
              24.80974834                4.05662721               81.83623253                0.00010000                4.84712479               -2.00021724                1.35340359               -4.43135752                9.72629743               -4.75199751
              25.86248507                3.51840552               81.51948199                0.02226829                2.81751627                0.15389521               -1.61943019               -3.55286479                4.56044733               -6.98746684
              26.86609867                2.97339905               81.11190523                0.41216046                0.36135932                1.92514695               -0.78655931               -3.67959148                0.04180225               -6.75416159
              17.27139926                9.32709931               84.90301826                0.98003629                0.04608735                0.04721683               -0.27715727               -0.01299396                0.18014728                0.63717150
              18.27186014                8.80744842               84.47865358                0.55780783               -0.01544906               -0.02660224                0.06606146               -0.03565809                0.28995035               -0.21083188
              19.27109028                8.28767504               84.05627647                0.00010000               -0.36916530               -0.12982598                0.38512612               -0.63978690                0.66488172               -1.03809354
              20.26447683                7.75649976               83.63938100                0.00010000               -0.38393759               -0.87985271                0.33040729               -1.54704267                1.06347416               -2.11319754
              21.26341153                7.22838277               83.22561154                0.00010000                0.12512148               -1.41306957                0.28129612               -1.70092157                1.34100436               -2.98200729
              22.26697926                6.69775046               82.81506671                0.00010000                0.74331969               -1.91352245                0.19124124               -1.99600528                1.76258684               -3.77829800
              23.27827792                6.16004304               82.41162042                0.00010000                1.62125779               -2.49084492               -0.11373964               -2.60565880                2.18739104               -4.39230893
              24.29940442                5.60752094               82.01636896                0.00010000                1.98504100               -2.63580495               -0.50780796               -3.75680601                2.94131966               -5.93033977
              25.31797874                5.04854761               81.63212955                0.00010000                1.55844918               -0.06781498               -1.64570250               -4.39720791                2.63608570               -7.56668410
              26.33057340                4.51612998               81.24201498                0.00010000                1.06277894                0.46935894               -1.90464804               -3.95764758                2.12992363              -11.61424620
              27.33923432                4.00923974               80.84030086                0.35981824                0.86609232                2.29635336               -1.89851801               -2.46009669                1.60841051              -12.57560661
              17.79124225               10.32761281               84.76438289                0.97675755                0.02733515                0.06147650               -0.26170641               -0.00434356                0.01201078                0.52424854
              18.79151560                9.80719862               84.33439118                0.46868026               -0.01619581               -0.04295304                0.11271362               -0.05195927                0.18847457               -0.35472055
              19.79091833                9.28605130               83.90782812                0.00010000               -0.50251472               -0.19187793                0.41300713               -0.82785622                0.62045390               -1.29581337
              20.78146531                8.75007033               83.48647293                0.00010000               -0.65320169               -0.50455328                0.06035937               -1.69403371                0.89184917               -2.14882150
              21.77785430                8.21693594               83.06808167                0.00010000               -0.03303531               -0.85379861               -0.31710646               -1.90550097                0.96636121               -2.98090817
              22.78080460                7.68212253               82.65232825                0.00010000                0.60602031               -1.11085028               -0.78570122               -2.47890646                0.94099647               -3.80169590
              23.78997471                7.14177800               82.23941491                0.00010000                1.05486432               -1.12268417               -1.34950542               -3.35082063                0.93871804               -4.74875892
              24.80190189                6.59644302               81.83008485                0.00010000                1.16102197               -0.41295398               -2.03733533               -4.06055836                0.89966901               -5.78681189
              25.81319515                6.05527091               81.42262402                0.00010000                1.03690517                0.84492235               -2.65856093               -3.62863561                0.94556832               -7.26878747
              26.82263999                5.52779270               81.01447900                0.00010000                0.87410303                1.26764330               -3.00905704               -2.11677185                0.66913784               -8.68318586
              27.83067721                5.01932612               80.59886902                0.36067842                0.80372156                0.99083242               -2.86297655               -1.03931485                0.60598150               -9.86625643
              18.31214077               11.32832884               84.62485661                0.97610992                0.02416801                0.07753962               -0.24828103               -0.00691905                0.00312580                0.49452015
              19.31238245               10.80658936               84.19084785                0.48586014               -0.02396641               -0.06867022                0.12981550               -0.06072585                0.05055788               -0.30528051
              20.31166144               10.28383748               83.75771079                0.00010000               -0.63354656               -0.22540737                0.47769128               -0.85480772                0.51874872               -1.26500390
              21.29971152                9.74640869               83.33301132                0.00010000               -0.92060687               -0.24560153               -0.13490162               -1.73991502                0.80230587               -2.05631965
              22.29324931                9.21130680               82.90998417                0.00010000               -0.35762233               -0.29804559               -0.75648658               -1.97240806                0.62592943               -2.77708284
              23.29255908                8.67553346               82.48806917                0.00010000                0.18458599               -0.26528661               -1.45343640               -2.49458651                0.35895010               -3.51305908
              24.29694103                8.13758936               82.06694256                0.00010000                0.60706283                0.02060163               -2.22798134               -3.04768182                0.08982594               -4.28441942
              25.30470033                7.59926186               81.64655389                0.00010000                0.85576623                0.61013315               -3.00699405               -3.17027974               -0.04317335               -5.14512793
              26.31405635                7.06544606               81.22695826                0.00010000                0.97412125                1.19618378               -3.65509710               -2.56197802               -0.04470491               -6.07753152
              27.32418276                6.54148284               80.80709737                0.00010000                1.06624153                1.43993498               -3.99534405               -1.36627947                0.01446048               -7.03631131
              28.33538118                6.02905639               80.38525667                0.36090189                1.11984257                1.11020145               -3.89990203               -0.50480917                0.15868227               -7.70804188
              18.83458282               12.32916360               84.48552095                0.97636693                0.02096221                0.08720760               -0.24745357               -0.00398520               -0.00119828                0.51699919
              19.83479244               11.80582521               84.04749618                0.52452103               -0.02899879               -0.07666709                0.13909113               -0.05376133                0.01337558               -0.28461364
              20.83400284               11.28154316               83.60971319                0.00010000               -0.77973785               -0.22544649                0.51009082               -0.71300183                0.45653132               -1.11088409
              21.81919769               10.74515830               83.18045827                0.00010000               -1.23607350               -0.00230039               -0.26866003               -1.50141936                0.70404987               -1.82649503
              22.80928137               10.21097503               82.75324196                0.00010000               -0.72836861                0.19316598               -1.06436345               -1.74407595                0.43527183               -2.40907989
              23.80463031                9.67681680               82.32617639                0.00010000               -0.19943535                0.41647778               -1.93288474               -2.14457302                0.00713114               -2.98022344
              24.80529267                9.14219003               81.89854523                0.00010000                0.30046393                0.74206605               -2.85717589               -2.44377084               -0.38796658               -3.58066009
              25.81063959                8.60864568               81.47056161                0.00010000                0.72209675                1.15217005               -3.75156891               -2.37726174               -0.60316597               -4.21786291
              26.81973460                8.07919459               81.04288031                0.00010000                1.05322385                1.50305721               -4.47676078               -1.82919769               -0.56667844               -4.88823687
              27.83170407                7.55659140               80.61610656                0.00010000                1.28496646                1.60356382               -4.86940766               -0.93715128               -0.32811338               -5.51842211
              28.84543393                7.04153015               80.19031642                0.36165980                1.37298628                1.37793514               -4.77976688               -0.33080308               -0.03364372               -5.99482244
              19.35873784               13.33007299               84.34635265                0.97666386                0.01898246                0.09160705               -0.25382172               -0.00070283               -0.00031274                0.53025215
              20.35892767               12.80505602               83.90433388                0.56260324               -0.03347610               -0.07292765                0.14588638               -0.03794550                0.01607566               -0.26689004
              21.35806832               12.27932855               83.46261364                0.00010000               -0.93382020               -0.21559842                0.53150316               -0.44438671                0.48728832               -1.04629714
              22.34025126               11.74636269               83.02992879                0.00010000               -1.56795175                0.24370781               -0.35905846               -1.01957228                0.72855143               -1.51219334
              23.32670929               11.21517012               82.59954587                0.00010000               -1.08993247                0.61555338               -1.27798534               -1.29489803                0.39161973               -1.91968382
              24.31845261               10.68386301               82.16869582                0.00010000               -0.52362778                0.91839604               -2.27390680               -1.65140210               -0.14888077               -2.31846293
              25.31623673               10.15243068               81.73646916                0.00010000                0.08489610                1.21168986               -3.32136424               -1.84113952               -0.64483863               -2.73963574
              26.32015054                9.62230526               81.30326514                0.00010000                0.66449752                1.50706992               -4.32486357               -1.72376192               -0.91145040               -3.18778592
              27.32952668                9.09550720               80.87032866                0.00010000                1.14768177                1.72829081               -5.13518602               -1.28205974               -0.85760346               -3.64498817
              28.34310417                8.57355412               80.43911500                0.00010000                1.46804689                1.77769506               -5.57629234               -0.64439156               -0.50674200               -4.06974321
              29.35888762                8.05661509               80.01061694                0.36199346                1.57834469                1.60535342               -5.47984229               -0.21270068               -0.13840272               -4.40783113
              19.88460270               14.33099574               84.20722697                0.97677088                0.01752694                0.09104141               -0.26363874                0.00282398                0.00978575                0.52455771
              20.88477797               13.80436666               83.76130253                0.61290134               -0.03971307               -0.06487868                0.15465555               -0.02323295                0.03355833               -0.26462895
              21.88380844               13.27723119               83.31584089                0.00010000               -1.09066516               -0.20176220                0.55300388               -0.05579520                0.64880349               -0.88599334
              22.86296467               12.75003245               82.88214383                0.00010000               -1.89626776                0.51889802               -0.41731344               -0.34034714                0.93917813               -1.13497615
              23.84588309               12.22328610               82.44997752                0.00010000               -1.43114784                1.00064251               -1.42054611               -0.77855383                0.48084860               -1.34396042
              24.83434171               11.69518472               82.01681465                0.00010000               -0.79277284                1.27631664               -2.51028301               -1.14328580               -0.17100111               -1.57599289
              25.83002763               11.16642383               81.58165230                0.00010000               -0.06269414                1.51768130               -3.65575852               -1.28325062               -0.75798889               -1.83531176
              26.83308783               10.63878708               81.14509445                0.00010000                0.64084600                1.73785764               -4.75301472               -1.16474197               -1.07719800               -2.11382686
              27.84284455               10.11376040               80.70879110                0.00010000                1.23102586                1.89261486               -5.63935849               -0.83371166               -1.02161070               -2.39941963
              28.85770835                9.59214530               80.27475174                0.00010000                1.61067123                1.91979152               -6.11873466               -0.39959028               -0.60958620               -2.66574556
              29.87505797                9.07363722               79.84447515                0.36291524                1.73496274                1.77111218               -6.00093737               -0.10962465               -0.19902198               -2.87719533
              20.41205248               15.33189382               84.06792628                0.97619083                0.01750749                0.09033752               -0.27698754                0.00430985                0.02228572                0.43316908
              21.41222756               14.80375844               83.61813869                0.51513441               -0.03829318               -0.06077919                0.17063269               -0.01203949                0.19717204               -0.26016607
              22.41128662               14.27529330               83.17184848                0.00010000               -1.24190728               -0.19164951                0.55454784                0.47099122                0.97936710               -0.68248001
              23.38738941               13.75674065               82.73769295                0.00010000               -2.26503391                0.96859371               -0.45324996                0.22243593                1.23319434               -0.64365272
              24.36598594               13.23518297               82.30529400                0.00010000               -1.74701228                1.26834903               -1.51133652               -0.31934039                0.65414743               -0.69105587
              25.35244917               12.70938935               81.87113798                0.00010000               -0.95082909                1.49253544               -2.66496411               -0.63756106               -0.12000781               -0.79432662
              26.34696936               12.18278430               81.43443659                0.00010000               -0.14650253                1.70117868               -3.88370447               -0.70393238               -0.79421271               -0.91397657
              27.34951912               11.65706241               80.99598613                0.00010000                0.62624334                1.88860803               -5.05801791               -0.61869820               -1.16669692               -1.04367426
              28.35949423               11.13335950               80.55772627                0.00010000                1.28582185                2.01459919               -6.01344858               -0.42217850               -1.12373267               -1.17949833
              29.37523556               10.61194995               80.12202233                0.00010000                1.71085308                2.03280337               -6.53065128               -0.18750653               -0.68019762               -1.31082469
              30.39371129               10.09203734               79.69072486                0.36329960                1.84757346                1.89902460               -6.38175643               -0.01818962               -0.24452008               -1.41034829
              20.94095964               16.33280249               83.92698778                0.98803586                0.01780519                0.09086740               -0.28697995               -0.07442575                0.21164238                0.34907514
              21.94113769               15.80315107               83.47514130                0.71000668               -0.03567897               -0.06073699                0.17922988               -0.07920109                0.49676781               -0.24924432
              22.94024606               15.27339820               83.02901265                0.33917156               -1.68069859               -0.18951054                0.55471830                1.20860690                1.52763032               -0.61522625
              23.90752372               14.76940433               82.59787559                0.33333817               -2.66992422                1.26636813               -0.49085180                0.77617474                1.59224897               -0.23058950
              24.88684758               14.24865308               82.16594609                0.33220067               -1.67672830                1.34701074               -1.57159193               -0.13228135                0.81076993               -0.27597314
              25.87398916               13.72503543               81.73186088                0.33298027               -0.92858321                1.56460829               -2.75962844               -0.25628503               -0.05066650               -0.32484522
              26.86827591               13.20044740               81.29477072                0.33558581               -0.19252432                1.76630960               -4.02671176               -0.29315422               -0.80481197               -0.37600704
              27.87013867               12.67655924               80.85560816                0.33991303                0.56187647                1.94968243               -5.26215351               -0.25779528               -1.22572763               -0.42405041
              28.87951344               12.15405239               80.41653641                0.34678520                1.25708543                2.06928905               -6.28620690               -0.18597208               -1.19065802               -0.47307004
              29.89528038               11.63280137               79.98016787                0.35597341                1.75029839                2.08514154               -6.86927662               -0.11725160               -0.72165160               -0.52329882
              30.91451941               11.11161771               79.54852756                0.68187155                1.92390326                1.95803732               -6.72866454               -0.03755351               -0.26483082               -0.56271671
              16.12776428                6.46960006               86.31288982                0.99097374                0.03119033                0.08139554               -0.29841780                0.06799864               -0.46272950                0.47944965
              17.12807618                5.94834734               85.89800859                0.97986082               -0.03092009               -0.01114736                0.03256105                0.07506295               -0.61132281                0.06700477
              18.12714588                5.42668013               85.48009101                0.98812158               -0.14272478               -0.08671058                0.33961582                0.06893787               -0.66633458               -0.02742562
              19.12522169                4.90390936               85.06405558                0.69326395               -0.25485442               -0.19829735                0.66391798               -0.00134416               -0.59276588               -0.23120946
              20.12204879                4.37909895               84.64749749                0.56999095               -0.35316273               -0.32990313                0.98695491               -0.00396017               -0.39719807               -0.18959364
              21.11815843                3.85205686               84.23499896                0.37602931               -0.43176510               -0.49826602                1.40743474               -0.05726504                0.21439608               -0.37247828
              22.11341349                3.32159177               83.82978114                0.09953714                0.26336718               -0.72982307                1.77894035               -0.13234705                2.61601393               -0.63349147
              23.12342577                2.78626510               83.46388816                0.00010000                0.56350837               -1.33642830                0.54601233               -2.30033450                5.18534753               -2.32598677
              24.12468365                2.22237527               83.10892011                0.00010000                2.85799341               -2.19026306               -0.16647451                2.17256861                8.26377459               -0.54843130
              25.18058564                1.64324969               82.77538268                1.00000000                3.04000847                0.60311097               -2.00399698               -1.79586527                3.30567419               -0.10685506
              26.18548382                1.10377118               82.37611992                1.00000000                0.48981797                0.32943836               -1.25128927                0.13501124               -0.00979262               -0.04147604
              16.64969698                7.47041401               86.17342450                0.98272606                0.05897945                0.06760799               -0.30754234                0.01906216               -0.05064986                0.64329470
              17.65028678                6.94823587               85.75854230                0.95174313                0.01786308               -0.01996132                0.02549187                0.02786120               -0.03289815                0.09349204
              18.65005424                6.42581302               85.34387639                0.97121701               -0.06439711               -0.09592819                0.32617471               -0.00087137                0.04151871               -0.17051968
              19.64899883                5.90192639               84.93019306                0.93338785               -0.10594017               -0.23670921                0.64133538               -0.03521436                0.22981735               -0.14610411
              20.64793544                5.37579992               84.51876986                0.87394051               -0.13297308               -0.36861616                0.96978714               -0.05804279                0.52706264               -0.12477400
              21.64633937                4.84707420               84.10963953                0.73026944               -0.14747735               -0.54532534                1.41614732               -0.12860293                1.12124647               -0.24907663
              22.64498589                4.31429354               83.70743175                0.49827147                0.18456540               -0.81555349                2.00698916               -0.35928243                2.83161384               -0.44906791
              23.65003068                3.77290082               83.32671254                0.24190266                3.64655780               -1.40480619                1.79545466               -2.13572428                6.69057337               -1.34696298
              24.71791705                3.20047264               82.99211934                0.35885894                3.59491781               -1.19506264               -0.63855522                0.84262126                7.32241907               -0.30332366
              25.72192904                2.64928080               82.63882316                1.00000000                0.41976986                0.59133258               -1.90794289               -0.38927381                2.31656460               -0.13529810
              26.72631245                2.10706556               82.24002103                1.00000000                0.43834096                0.29424658               -1.01967052                0.00115571                0.02862666               -0.03758027
              17.17250181                8.47095222               86.03720192                0.98415470                0.07325836                0.04857275               -0.31071997                0.00001764                0.07335028                0.76080345
              18.17323440                7.94794811               85.61949007                0.95464457                0.04680560               -0.02589549                0.02643192               -0.01133350                0.22148721                0.05661658
              19.17343792                7.42476156               85.20456348                0.00010000                0.06480532               -0.09313044                0.33552061               -0.16607463                0.79055638               -0.57427823
              20.17453050                6.89917518               84.79780388                0.00010000                0.11511004               -0.70060420                0.60819621               -0.67605592                1.27612921               -1.21009600
              21.17574012                6.37172663               84.39122251                0.02156032                0.12811257               -1.02048287                0.91073563               -0.94925671                1.50090579               -1.83209589
              22.17709275                5.84115035               83.98673993                0.04257775                0.23305444               -1.34054450                1.30806100               -1.15402121                2.16677910               -2.49462055
              23.18040121                5.30528070               83.58938226                0.03372824                0.87197174               -1.72490491                1.76478476               -1.46547165                3.84387104               -3.32801521
              24.19453219                4.75816898               83.21082761                0.00010000                4.23774448               -2.24250912                1.33657891               -2.04170668                6.39422862               -4.60129183
              25.26515610                4.19847401               82.86046712                0.00010000                3.58375275               -0.91880621                0.87297128               -4.74004274                6.79428051               -5.35333608
              26.26620724                3.65507634               82.50236358                0.03715280                0.23906531                0.22445978               -1.75986426               -3.18249502                2.04943582               -7.29305416
              27.26993741                3.10965611               82.10406511                0.41067596                0.37301662                1.52946736               -0.77623025               -3.11011067                0.03611879               -7.39861621
              17.69570554                9.47138547               85.90009555                0.98067425                0.05452188                0.04826171               -0.29740538               -0.01867540                0.15316417                0.65015441
              18.69625076                8.94771796               85.47920537                0.58263556               -0.00999282               -0.01927216                0.04526112               -0.04475275                0.24617341               -0.17416535
              19.69550568                8.42395041               85.06006441                0.00010000               -0.38690529               -0.11621520                0.36495750               -0.70209323                0.42222456               -0.99983025
              20.68851265                7.88791431               84.64261061                0.00010000               -0.42652746               -0.86147785                0.31413449               -1.74199847                0.60852026               -2.36094579
              21.68697513                7.35539026               84.22826238                0.00010000                0.05961116               -1.32589493                0.24187467               -2.04950345                0.81893290               -3.55629706
              22.68970488                6.82026331               83.81657329                0.00010000                0.58413481               -1.67180233                0.07904672               -2.51928191                1.07910853               -4.77606895
              23.69865783                6.27979544               83.40981155                0.00010000                1.31491765               -1.94382172               -0.30677601               -3.23310374                1.42938855               -6.13871750
              24.71600323                5.72805064               83.01029685                0.00010000                1.37755029               -1.73529181               -0.87141370               -3.78850500                1.41302779               -7.77017344
              25.72620884                5.18209651               82.61360596                0.00010000                1.55469066               -0.68308631               -1.69502537               -5.56359632                1.51097149               -9.91253023
              26.74709704                4.65376999               82.22262486                0.00010000                1.43709283                0.13005291               -2.07994687               -3.58597970                1.49081556              -12.59719576
              27.75495069                4.13765491               81.82063223                0.35602406                0.78536504                1.87693247               -2.12662150               -2.55908580                1.03915842              -14.09982009
              18.21946332               10.47191745               85.76165516                0.97730225                0.03110702                0.06489559               -0.27575994               -0.00762546                0.01191530                0.54043162
              19.21977439                9.94756267               85.33544324                0.50281348               -0.01318080               -0.03607847                0.09642597               -0.05985762                0.14849306               -0.31981329
              20.21919971                9.42243726               84.91191781                0.00010000               -0.57618549               -0.18153116                0.39596996               -0.86316314                0.22705814               -1.24043462
              21.20825068                8.88194562               84.48718495                0.00010000               -0.83993270               -0.44287569                0.09299418               -1.81012849                0.12859087               -2.31435824
              22.20240105                8.34520873               84.06501576                0.00010000               -0.29743738               -0.70903318               -0.28197148               -2.07651034                0.07360360               -3.39329138
              23.20230194                7.80771430               83.64433760                0.00010000                0.27753764               -0.82933031               -0.80734795               -2.67129902               -0.10279192               -4.52509204
              24.20795181                7.26640426               83.22539020                0.00010000                0.70795382               -0.72605509               -1.48322726               -3.35528526               -0.29790055               -5.74119150
              25.21646101                6.72346314               82.80860664                0.00010000                1.01065081               -0.03084614               -2.28201741               -3.80620065               -0.33425729               -7.02918445
              26.22816482                6.18481229               82.39488554                0.00010000                1.12341203                0.60199772               -3.00545465               -3.06609270               -0.11892531               -8.34416803
              27.23892925                5.65767740               81.98272276                0.00010000                1.14105196                0.78880915               -3.44691958               -2.08654958                0.09525031              -10.03315061
              28.25098586                5.14719476               81.56851814                0.35631022                1.20566087                0.88480854               -3.36352207               -0.94413273                0.37069446              -11.31672464
              18.74426259               11.47268338               85.62230455                0.97637924                0.02712062                0.08200332               -0.25576634               -0.01004683                0.00160619                0.50256494
              19.74453380               10.94699639               85.19208535                0.52264098               -0.02015617               -0.06508054                0.11542458               -0.06365238                0.03123536               -0.28954726
              20.74385947               10.42031979               84.76242184                0.00010000               -0.74975909               -0.21770225                0.45660960               -0.84997324                0.02435180               -1.20846943
              21.72953861                9.87905679               84.33193005                0.00010000               -1.20916111               -0.16480339               -0.06316650               -1.74995866               -0.20410855               -2.15505246
              22.71967624                9.34120960               83.90275826                0.00010000               -0.72276278               -0.14207789               -0.66104737               -1.97097939               -0.50913637               -3.05993037
              23.71508336                8.80367670               83.47362590                0.00010000               -0.19364800               -0.03917964               -1.41881221               -2.44591171               -0.94892131               -4.00122580
              24.71580328                8.26527434               83.04419660                0.00010000                0.31939153                0.26613858               -2.32830045               -2.89632951               -1.32002000               -4.99576398
              25.72147119                7.72743372               82.61532507                0.00010000                0.74347223                0.72841100               -3.28763491               -2.90819524               -1.41483495               -6.03473839
              26.73067273                7.19413647               82.18842903                0.00010000                1.07561956                1.17523909               -4.13530259               -2.37846577               -1.14483185               -7.14550725
              27.74298358                6.66954618               81.76458649                0.00010000                1.31802929                1.36182414               -4.65327666               -1.27213557               -0.60308418               -8.23203553
              28.75703331                6.15535108               81.34351093                0.35682789                1.40497344                1.06229486               -4.63599357               -0.51786220               -0.10303380               -8.99329813
              19.27063637               12.47355752               85.48301130                0.97638590                0.02285656                0.09012729               -0.24938734               -0.00634137               -0.00248956                0.51292985
              20.27086494               11.94626106               85.04883445                0.56331296               -0.02482667               -0.07354339                0.12580277               -0.05390449                0.00207209               -0.27163558
              21.27013984               11.41808321               84.61472493                0.00010000               -0.92516160               -0.21979452                0.48498305               -0.66673443               -0.10915600               -1.06846334
              22.25236170               10.87864955               84.17816842                0.00010000               -1.58891397                0.07870015               -0.16580335               -1.41819074               -0.46746789               -1.87836817
              23.23836156               10.34236717               83.74313057                0.00010000               -1.15213707                0.33339786               -0.92279067               -1.63321326               -0.88301588               -2.59110669
              24.22931896                9.80693071               83.30710262                0.00010000               -0.60466778                0.59642855               -1.85753511               -2.00457693               -1.48359037               -3.32276166
              25.22626820                9.27172703               82.86957386                0.00010000                0.00580076                0.91872387               -2.94442833               -2.26700615               -1.97504927               -4.09846980
              26.22943498                8.73803136               82.43171692                0.00010000                0.61074234                1.28928093               -4.07174814               -2.20005052               -2.11808280               -4.91399199
              27.23848305                8.20831707               81.99579275                0.00010000                1.14184766                1.59627909               -5.05565019               -1.69212147               -1.78951692               -5.73993434
              28.25227193                7.68491388               81.56425673                0.00010000                1.52678819                1.69630123               -5.67273887               -0.88250985               -1.02391672               -6.48767682
              29.26901881                7.16844066               81.13899655                0.35755262                1.67468817                1.50932068               -5.70122663               -0.30415227               -0.34047292               -6.98380602
              19.79872868               13.47448592               85.34380587                0.97651064                0.02013313                0.09257029               -0.25133603               -0.00252466               -0.00164115                0.51816907
              20.79893001               12.94552552               84.90574576                0.60282619               -0.02961978               -0.06920588                0.13323848               -0.03693618                0.00675069               -0.25083440
              21.79813628               12.41592390               84.46783886                0.00010000               -1.10195820               -0.20887869                0.50343354               -0.36267261               -0.13230754               -1.00136550
              22.77689084               11.88063080               84.02684536                0.00010000               -1.97027297                0.32018455               -0.22941656               -0.86922346               -0.56145927               -1.52963959
              23.75873082               11.34787755               83.58747007                0.00010000               -1.56294449                0.74447018               -1.09582840               -1.13249602               -1.06283772               -2.02852427
              24.74563195               10.81560527               83.14637333                0.00010000               -0.96841566                1.07788388               -2.16131852               -1.48873325               -1.79128331               -2.54680428
              25.73936251               10.28364881               82.70293040                0.00010000               -0.23759058                1.38177026               -3.39248217               -1.68456854               -2.38886181               -3.10559607
              26.74088014                9.75321933               82.25862952                0.00010000                0.52926379                1.67675877               -4.66258646               -1.58799333               -2.57898185               -3.69354926
              27.74994778                9.22606205               81.81642317                0.00010000                1.21648278                1.90367851               -5.77088845               -1.18997578               -2.20752378               -4.27113294
              28.76520980                8.70347220               81.37982635                0.00010000                1.69744666                1.97858884               -6.47175788               -0.60066757               -1.28061723               -4.76152439
              29.78389672                8.18553749               80.95184034                0.35810057                1.86869194                1.85367085               -6.51573993               -0.19677950               -0.48414742               -5.06937858
              20.32850669               14.47540892               85.20460289                0.97649608                0.01815504                0.09023409               -0.25765165                0.00155490                0.00817077                0.50649033
              21.32868824               13.94487694               84.76280590                0.65470513               -0.03627898               -0.06058336                0.14217963               -0.02155647                0.02225883               -0.24062163
              22.32778111               13.41390564               84.32128163                0.00010000               -1.28323291               -0.19266150                0.52348770                0.05702251               -0.01475762               -0.84353661
              23.30302358               12.88505325               83.87858999                0.00010000               -2.35219735                0.60378626               -0.26094769               -0.14503905               -0.43727066               -1.12649385
              24.28073716               12.35725657               83.43665527                0.00010000               -1.96252711                1.13520095               -1.19614201               -0.61092200               -1.07616044               -1.39685830
              25.26377304               11.82848839               82.99231267                0.00010000               -1.28871959                1.43264216               -2.35447108               -1.00120760               -1.93642857               -1.71057787
              26.25496277               11.29936244               82.54490369                0.00010000               -0.42555807                1.69250921               -3.69620461               -1.16223466               -2.64126963               -2.06356255
              27.25526188               10.77156654               82.09621721                0.00010000                0.47339497                1.93458450               -5.08285373               -1.07052179               -2.88680722               -2.43597774
              28.26443067               10.24639064               81.64977611                0.00010000                1.27606303                2.11828774               -6.29412830               -0.77442992               -2.49429751               -2.79520240
              29.28078314                9.72448566               81.20987407                0.00010000                1.82609853                2.18360384               -7.05677152               -0.37456912               -1.45683964               -3.08247072
              30.30095264                9.20551407               80.78027679                0.35840502                2.01695024                2.08703542               -7.09228362               -0.10127523               -0.58368158               -3.21959150
              20.85982374               15.47629061               85.06518728                0.97585523                0.01784242                0.08797690               -0.26783026                0.00378189                0.02583643                0.41276672
              21.86000216               14.94431385               84.61980572                0.55199151               -0.03616548               -0.05626860                0.15806160               -0.00977193                0.17058558               -0.23286051
              22.85910043               14.41207067               84.17731177                0.00010000               -1.46815149               -0.18018326                0.52560693                0.62184566                0.27518596               -0.64419767
              23.83063913               13.89270652               83.73390962                0.00010000               -2.80115942                1.10587148               -0.26572909                0.40213666               -0.19522394               -0.62552224
              24.80307724               13.37058157               83.29127303                0.00010000               -2.35685979                1.41349716               -1.23650187               -0.20163991               -0.97431761               -0.70827343
              25.78350194               12.84425812               82.84531735                0.00010000               -1.50187865                1.64781460               -2.45401562               -0.55528472               -1.98177465               -0.85375956
              26.77303967               12.31749900               82.39560638                0.00010000               -0.55302145                1.87740133               -3.87616749               -0.63707626               -2.79915324               -1.02070960
              27.77244151               11.79191102               81.94418889                0.00010000                0.42502023                2.09743129               -5.35614833               -0.57005229               -3.11331590               -1.19679377
              28.78154007               11.26842780               81.49501280                0.00010000                1.30767390                2.26416940               -6.65743852               -0.39686679               -2.72521865               -1.36608218
              29.79859498               10.74714428               81.05299611                0.00010000                1.91371557                2.32592125               -7.47570499               -0.18093984               -1.60798434               -1.49619250
              30.81981438               10.22727820               80.62268789                0.35897668                2.12193971                2.23639060               -7.48214377               -0.01804366               -0.67380489               -1.50604910
              21.39253583               16.47716846               84.92416244                0.98784346                0.01769030                0.08778542               -0.27583100               -0.07047938                0.20556515                0.32844165
              22.39271274               15.94375157               84.47690225                0.72647908               -0.03552411               -0.05622823                0.16724782               -0.07226668                0.44726956               -0.22203888
              23.39182535               15.41030197               84.03447216                0.33853857               -2.00786638               -0.17686935                0.52488522                1.44344777                0.78420257               -0.57244845
              24.35255541               14.90717068               83.59389531                0.33309201               -3.33362916                1.44641545               -0.25874542                0.95285482                0.14241621               -0.22534650
              25.32515277               14.38552652               83.15157340                0.33230779               -2.34027456                1.49449433               -1.23362258               -0.07874673               -0.85228579               -0.28906230
              26.30574992               13.86144468               82.70536596                0.33295274               -1.52922168                1.71865659               -2.47948630               -0.20600424               -1.98178927               -0.35343554
              27.29456833               13.33691047               82.25475459                0.33492899               -0.64089465                1.94114683               -3.95596491               -0.24360890               -2.91662669               -0.41656076
              28.29293202               12.81351517               81.80194651                0.33870641                0.33458732                2.16041407               -5.51236315               -0.21277006               -3.31147917               -0.47175506
              29.30126008               12.29167403               81.35118053                0.34471472                1.26909592                2.32462249               -6.90345877               -0.15355313               -2.95129467               -0.51805331
              30.31831394               11.77100408               80.90774101                0.35264664                1.95319190                2.38598046               -7.81063031               -0.09971133               -1.78643030               -0.54652832
              31.34032392               11.25024188               80.47698113                0.67961583                2.20099757                2.29636839               -7.83194500               -0.02526598               -0.80516842               -0.48657394
              16.53621765                6.61390457               87.30985384                0.99120774                0.03122065                0.07923035               -0.29235603                0.06530721               -0.48669350                0.47862922
              17.53652986                6.08852075               86.89823690                0.98091777               -0.02944058               -0.00694851                0.02039253                0.07221273               -0.65417441                0.06746217
              18.53562884                5.56265802               86.48333674                0.98784667               -0.13694580               -0.07476337                0.30981980                0.06461388               -0.71156387               -0.03448898
              19.53379094                5.03553030               86.07051214                0.68995734               -0.23540215               -0.18347329                0.61851479               -0.00754572               -0.62642818               -0.24222187
              20.53092080                4.50611440               85.65709852                0.58774834               -0.30180674               -0.31620211                0.90871048                0.00288787               -0.36615813               -0.17646521
              21.52775481                3.97412877               85.24880737                0.43977747               -0.33047401               -0.48222370                1.29040999               -0.01059799                0.34562080               -0.29274548
              22.52431132                3.43829328               84.84798182                0.23704784               -0.00000297               -0.69963303                1.70423187                0.00827166                2.12633918               -0.36429327
              23.52775475                2.89564278               84.47163394                0.04834751                2.60648631               -0.81670793                0.93482515               -0.79458225                4.06628871               -1.22349729
              24.57644104                2.32643265               84.11332397                0.22428213                2.40613246                0.45058168               -0.05540195               -2.51112824                6.12343205               -1.19261041
              25.57587740                1.77792218               83.75613198                1.00000000                0.20443140                0.54430318               -1.81628628               -0.29444670                1.73373182               -0.21625643
              26.58052967                1.23863423               83.36387364                1.00000000                0.46522738                0.34057673               -1.24898763                0.11723905               -0.05076579                0.02821819
              17.06225454                7.61469688               87.17029174                0.98284795                0.06207170                0.06544607               -0.30364608                0.01910980               -0.07785060                0.63799265
              18.06287526                7.08845126               86.75869073                0.95192781                0.02578281               -0.01604145                0.01025525                0.02781670               -0.08683407                0.09500594
              19.06277020                6.56191038               86.34694336                0.96662071               -0.04439850               -0.08418903                0.28627343               -0.00609017               -0.03005432               -0.16496343
              20.06198729                6.03369557               85.93630853                0.94189350               -0.05598805               -0.22411965                0.57072558               -0.03857482                0.16218907               -0.15643465
              21.06165044                5.50295238               85.52795110                0.89759224               -0.02139526               -0.35257527                0.84210785               -0.05521674                0.50370937               -0.11376344
              22.06155939                4.96930654               85.12303405                0.81210111                0.09932951               -0.52809846                1.20335969               -0.09247125                1.19201857               -0.19270507
              23.06363703                4.43129695               84.72604947                0.68669591                0.70899270               -0.78192461                1.58379072               -0.07470236                2.64555821               -0.27106640
              24.07573924                3.88747570               84.34546356                0.54396065                2.32765146               -1.10469053                1.39782351               -0.28854729                4.61321589               -0.72077997
              25.11019006                3.33093847               83.98347032                0.69671897                2.05464489                0.08206127               -0.66660387               -1.32267744                2.78502377               -0.01983160
              26.11683214                2.78336521               83.61969821                1.00000000                0.53999738                0.54102763               -1.76742739               -0.24500334                1.45893823               -0.24885813
              27.12099001                2.24204000               83.22999901                1.00000000                0.41578685                0.30906493               -1.04242209                0.01189410                0.14292779                0.05729575
              17.58909107                8.61521349               87.03403299                0.98428234                0.07816150                0.04761374               -0.30947537               -0.00193933                0.04192865                0.76492177
              18.58987268                8.08819992               86.61964470                0.95289370                0.05858309               -0.02196613                0.00889294               -0.01498893                0.16449820                0.07154183
              19.59026273                7.56097424               86.20771573                0.00010000                0.10523823               -0.07931436                0.29174300               -0.18963380                0.68295584               -0.54021901
              20.59197745                7.03104791               85.80345461                0.00010000                0.19713832               -0.68978984                0.51110439               -0.77246774                1.12503745               -1.31496721
              21.59420550                6.49906290               85.39954395                0.01066330                0.27916816               -0.97444035                0.73534138               -1.16520211                1.34816900               -2.07464791
              22.59756081                5.96356680               84.99846277                0.04158667                0.52213053               -1.23375582                1.00237357               -1.54776199                1.97154543               -2.93818200
              23.60464811                5.42265479               84.60445890                0.05954103                1.23907378               -1.50181022                1.20351541               -2.02563642                3.10738172               -3.99667252
              24.62234229                4.87354897               84.22248463                0.03796862                2.47249375               -1.65686282                0.82303586               -2.32247933                4.21595223               -5.22427828
              25.65409798                4.32807388               83.85369196                0.00010000                1.87667556               -0.75299405               -0.56469316               -2.95630658                1.88756700               -6.26737311
              26.65987580                3.78874273               83.48428471                0.04207950                0.46599962                0.02308321               -1.61293252               -2.33635211                1.07680111               -7.75288124
              27.66341797                3.24481553               83.09638062                0.40452504                0.35421764                1.03751569               -0.83985263               -2.24208233                0.14252794               -8.14702301
              18.11624290                9.61564915               86.89707015                0.98098051                0.05718368                0.04994719               -0.29645692               -0.02305408                0.12232211                0.66885273
              19.11681474                9.08801194               86.47955880                0.60936586               -0.00566837               -0.01387756                0.02733558               -0.04874599                0.19792593               -0.13422108
              20.11612953                8.56032410               86.06357562                0.00010000               -0.41827312               -0.10445244                0.33001166               -0.73285543                0.18616054               -0.95634413
              21.10844928                8.01989977               85.64566369                0.00010000               -0.51510153               -0.82920922                0.31341999               -1.89493989                0.13501725               -2.51182603
              22.10582750                7.48346357               85.23044903                0.00010000               -0.07185119               -1.22443342                0.22162714               -2.36500638                0.18227586               -3.96325962
              23.10701225                6.94463142               84.81664764                0.00010000                0.36573171               -1.44993593               -0.03084391               -3.06946532                0.15965339               -5.54085026
              24.11314214                6.40126075               84.40548490                0.00010000                0.84291576               -1.50428357               -0.51471352               -3.75967125                0.17446676               -7.34302417
              25.12387057                5.85433844               83.99894069                0.00010000                1.13640125               -1.13589298               -1.22822944               -4.10015230                0.12942504               -9.12813277
              26.13587016                5.31587859               83.59822904                0.00010000                1.47464365               -0.72546984               -1.82618922               -4.39545185                0.58424355              -11.45250435
              27.15336344                4.78382688               83.20041604                0.00010000                1.40662987               -0.17873359               -2.49642820               -3.10258364                0.24749361              -14.16177954
              28.16400276                4.26279031               82.79776843                0.35228207                1.06393196                1.26486951               -2.60757210               -1.94953722                0.36728320              -15.95945193
              18.64390440               10.61621244               86.75886770                0.97765363                0.03184141                0.06874256               -0.27301264               -0.01058707                0.01032759                0.56487369
              19.64422282               10.08792237               86.33631970                0.54029435               -0.00933067               -0.03023654                0.07800594               -0.06260579                0.10825873               -0.28334389
              20.64371779                9.55888519               85.91574752                0.00010000               -0.66418223               -0.17315635                0.36165140               -0.86421966               -0.12643826               -1.18779130
              21.63093917                9.01446373               85.48833281                0.00010000               -1.07720333               -0.37878014                0.16718791               -1.87336522               -0.59070124               -2.39599507
              22.62217372                8.47457423               85.06244224                0.00010000               -0.62824208               -0.57350922               -0.18496283               -2.21762089               -0.86690656               -3.66949509
              23.61837433                7.93456809               84.63618129                0.00010000               -0.12130317               -0.59437495               -0.77700984               -2.84375272               -1.31057300               -5.05988996
              24.61974766                7.39256912               84.20975037                0.00010000                0.36735355               -0.38851687               -1.60800989               -3.40188300               -1.70093758               -6.54813623
              25.62572140                6.85083111               83.78444450                0.00010000                0.84764264                0.05591818               -2.56768458               -3.53520027               -1.72664930               -8.15391930
              26.63670051                6.31356448               83.36251493                0.00010000                1.25954982                0.28750582               -3.49348539               -2.98174561               -1.34020405               -9.92458503
              27.65091240                5.78516806               82.94554061                0.00010000                1.48999201                0.57406458               -4.15133792               -1.98879137               -0.60364482              -11.78863444
              28.66650035                5.27011292               82.53159858                0.35265679                1.55879541                0.79608517               -4.23593476               -0.93207100               -0.03087775              -13.23304749
              19.17261129               11.61702400               86.61974128                0.97652610                0.02785766                0.08542188               -0.25039202               -0.01256241               -0.00039414                0.51879448
              20.17288987               11.08740721               86.19315634                0.56276573               -0.01537551               -0.05951384                0.09715370               -0.06327981                0.01269014               -0.27298504
              21.17230378               10.55686097               85.76684298                0.00010000               -0.87984700               -0.20641595                0.41823471               -0.81575411               -0.40274194               -1.15719017
              22.15529293               10.01232417               85.33174799                0.00010000               -1.54665289               -0.08940529                0.06597469               -1.71820293               -1.11482961               -2.19108410
              23.14137073                9.47199339               84.89676322                0.00010000               -1.15753120               -0.00665748               -0.48004397               -1.95335561               -1.65451247               -3.24433531
              24.13214231                8.93274392               84.45969293                0.00010000               -0.62646355                0.15230261               -1.31619643               -2.41810498               -2.37165043               -4.39383666
              25.12884146                8.39349041               84.02037655                0.00010000                0.00144474                0.44588553               -2.41542661               -2.79286966               -2.92433970               -5.65533781
              26.13217120                7.85545681               83.58080120                0.00010000                0.65284215                0.81151426               -3.65073692               -2.77620275               -3.02030916               -6.99460464
              27.14189830                7.32162870               83.14425221                0.00010000                1.24339846                1.14186425               -4.81511411               -2.27223466               -2.48256123               -8.39289491
              28.15703917                6.79530817               82.71403184                0.00010000                1.67866589                1.32149687               -5.63731768               -1.29035745               -1.39032591               -9.74055046
              29.17547162                6.27871202               82.29253679                0.35300613                1.84324453                1.17058515               -5.81225896               -0.52739034               -0.43746206              -10.65359995
              19.70288673               12.61792087               86.48053321                0.97632281                0.02335173                0.09103865               -0.24127447               -0.00818055               -0.00395871                0.51603737
              20.70312025               12.08673209               86.05001224                0.60293323               -0.02004941               -0.06696679                0.10793045               -0.05120920               -0.00822815               -0.25801426
              21.70248575               11.55475687               85.61941285                0.00010000               -1.08387795               -0.20582150                0.44477715               -0.60188448               -0.58591989               -1.03362248
              22.68144269               11.01267562               85.17714220                0.00010000               -1.98994431                0.15120790                0.00525446               -1.31089282               -1.50445602               -1.88579532
              23.66268686               10.47444108               84.73478615                0.00010000               -1.64637416                0.45407719               -0.68108854               -1.52538230               -2.18565717               -2.71120675
              24.64851521                9.93761414               84.28902569                0.00010000               -1.07547397                0.74864803               -1.70319779               -1.89649686               -3.08764591               -3.61620457
              25.64117738                9.40148683               83.83965666                0.00010000               -0.32280780                1.07492584               -3.02377231               -2.15954476               -3.78388317               -4.61375591
              26.64205905                8.86706139               83.38912665                0.00010000                0.51135384                1.42385899               -4.49454134               -2.10890668               -3.92053221               -5.68042891
              27.65140446                8.33640176               82.94176731                0.00010000                1.29814407                1.72362345               -5.87532247               -1.65911607               -3.29665376               -6.75148144
              28.66802193                7.81159800               82.50265178                0.00010000                1.88701931                1.86990640               -6.86036851               -0.89208256               -1.90572519               -7.68663111
              29.68914484                7.29352462               82.07629189                0.35368577                2.11229089                1.76176289               -7.12083972               -0.32208302               -0.73639536               -8.26457603
              20.23482525               13.61884477               86.34132593                0.97629788                0.02044461                0.09116296               -0.24078343               -0.00402145               -0.00326389                0.51207376
              21.23502969               13.08606788               85.90699865                0.64313739               -0.02513398               -0.06189129                0.11544705               -0.03380366               -0.00290290               -0.23470499
              22.23432257               12.55274454               85.47268231                0.00010000               -1.28194137               -0.19346595                0.46000995               -0.27380460               -0.64442214               -0.96293227
              23.20939087               12.01534833               85.02534046                0.00010000               -2.41990017                0.38813505               -0.02251903               -0.71333393               -1.68273859               -1.51868546
              24.18592456               11.48107493               84.57762930                0.00010000               -2.11121231                0.85524453               -0.80084744               -0.98405540               -2.48342863               -2.09998161
              25.16716662               10.94771688               84.12546945                0.00010000               -1.48606291                1.22075036               -1.96023691               -1.36182498               -3.54581980               -2.75039580
              26.15620331               10.41498893               83.66861952                0.00010000               -0.60442427                1.54948827               -3.45416489               -1.58312922               -4.37071740               -3.47914990
              27.15507813                9.88393399               83.21001341                0.00010000                0.39880339                1.87233821               -5.11498298               -1.52337734               -4.55971995               -4.25427094
              28.16417937                9.35610117               82.75491089                0.00010000                1.34982630                2.14324792               -6.67372712               -1.16652011               -3.86725599               -5.00506863
              29.18207466                8.83270629               82.30967984                0.00010000                2.04986641                2.28640635               -7.79108357               -0.60524767               -2.25748351               -5.61256601
              30.20517670                8.31394728               81.88030214                0.35426724                2.31020414                2.24366016               -8.10302373               -0.20419924               -0.92550027               -5.92846475
              20.76836010               14.61974413               86.20207394                0.97617552                0.01843095                0.08724121               -0.24498055                0.00036843                0.00594472                0.49355392
              21.76854441               14.08549427               85.76414612                0.69512739               -0.03154517               -0.05314970                0.12360931               -0.01857438                0.01060608               -0.21759011
              22.76772920               13.55088755               85.32631065                0.00010000               -1.48493966               -0.17628584                0.47629697                0.16539636               -0.55240434               -0.80496915
              23.73884562               13.02043832               84.87692487                0.00010000               -2.85460003                0.67882761               -0.01798342                0.03956113               -1.61211483               -1.10206941
              24.71063720               12.49154597               84.42605468                0.00010000               -2.57404520                1.25122137               -0.84499786               -0.46209404               -2.57939597               -1.42951885
              25.68736472               11.96202915               83.96972523                0.00010000               -1.86697538                1.57719938               -2.09630125               -0.88778330               -3.80804411               -1.83341267
              26.67329769               11.43247660               83.50772821                0.00010000               -0.84427272                1.87651423               -3.71849128               -1.08047666               -4.77008237               -2.29844145
              27.67047926               10.90450816               83.04343738                0.00010000                0.30020271                2.17316278               -5.52718573               -1.02208134               -5.02672789               -2.79128040
              28.67930175               10.37926672               82.58290853                0.00010000                1.37958086                2.42661353               -7.22664970               -0.75893883               -4.29565159               -3.25488257
              29.69807088                9.85732612               82.13361631                0.00010000                2.16385759                2.57264312               -8.44027046               -0.37713894               -2.51897639               -3.58987528
              30.72257890                9.33839783               81.70262947                0.35454191                2.45080191                2.56323697               -8.76637860               -0.10908349               -1.07114625               -3.66529997
              21.30333235               15.62058960               86.06256968                0.97547674                0.01824407                0.08384336               -0.25313957                0.00308949                0.02832730                0.39658809
              22.30351479               15.08500488               85.62129993                0.58655039               -0.03229541               -0.04885222                0.13777169               -0.00709072                0.14524130               -0.20740814
              23.30268644               14.54921882               85.18236062                0.00010000               -1.69955601               -0.16295504                0.47798426                0.75639287               -0.28160304               -0.61027008
              24.26952367               14.02892488               84.73237837                0.00010000               -3.37972901                1.22438446                0.02003376                0.56528589               -1.38529601               -0.59855001
              25.23509186               13.50609936               84.28056397                0.00010000               -3.05216706                1.53625594               -0.81525371               -0.09849963               -2.52330253               -0.71871314
              26.20848033               12.97926087               83.82205767                0.00010000               -2.14885498                1.79201804               -2.11886915               -0.48863391               -3.94110606               -0.90952409
              27.19211476               12.45251921               83.35691324                0.00010000               -1.03169739                2.06715864               -3.83072088               -0.58992476               -5.05684519               -1.13068144
              28.18784638               11.92739724               82.88886317                0.00010000                0.20339349                2.35503636               -5.75460519               -0.54409398               -5.40936736               -1.36374454
              29.19618263               11.40463344               82.42457750                0.00010000                1.37771983                2.60445762               -7.57264733               -0.39233892               -4.67912043               -1.57902787
              30.21540078               10.88415916               81.97250823                0.00010000                2.23344973                2.75274374               -8.86751631               -0.18705682               -2.76722262               -1.71780178
              31.24085162               10.36521201               81.54108198                0.35503412                2.54508482                2.74509667               -9.17205536               -0.02686874               -1.21624935               -1.62855162
              21.83959133               16.62142100               85.92147117                0.98763519                0.01820463                0.08314022               -0.26056668               -0.06447978                0.20083885                0.31152584
              22.83977337               16.08451722               85.47848626                0.74205879               -0.03271353               -0.04876583                0.14565026               -0.06376901                0.40204926               -0.19746360
              23.83893706               15.54762845               85.03951035                0.33782464               -2.32512875               -0.15903735                0.47582264                1.64550115                0.21820065               -0.53564815
              24.79327080               15.04492601               84.59270068                0.33310184               -4.03029192                1.60011296                0.09295959                1.10684502               -1.00842658               -0.23275504
              25.75833122               14.52227109               84.14127364                0.33241836               -3.10493065                1.61717272               -0.71820638               -0.02888932               -2.40569525               -0.31601925
              26.73117219               13.99786951               83.68227116                0.33271098               -2.24841973                1.86086367               -2.03993038               -0.15338011               -4.00568758               -0.39482191
              27.71336282               13.47381977               83.21565143                0.33449758               -1.18445177                2.13005561               -3.81267517               -0.18822462               -5.29844723               -0.46819904
              28.70748315               12.95160888               82.74536090                0.33787603                0.06651137                2.42116433               -5.83212696               -0.15951753               -5.78023679               -0.52889515
              29.71469305               12.43135588               82.27846723                0.34255125                1.31340100                2.67224321               -7.76704835               -0.11035208               -5.10797407               -0.57018820
              30.73375117               11.91238100               81.82395526                0.34946687                2.26213780                2.82218420               -9.18059594               -0.06776625               -3.12257412               -0.57200343
              31.75993581               11.39329976               81.39188867                0.67774294                2.61846371                2.80877469               -9.50999106                0.00029457               -1.49339002               -0.38546487
              16.94126430                6.75829685               88.30704270                0.99102987                0.02454909                0.06978592               -0.25464040                0.05697257               -0.50628571                0.47458825
              17.94150979                6.22878890               87.89841644                0.98186706               -0.03124705               -0.00607232                0.02285962                0.06288037               -0.69072055                0.06692496
              18.94063936                5.69877711               87.48628740                0.98772605               -0.12892190               -0.06423435                0.28251490                0.05376175               -0.74886840               -0.04416194
              19.93893135                5.16747214               87.07642587                0.68610733               -0.21044831               -0.16169172                0.55832688               -0.01527944               -0.66530162               -0.26040654
              20.93643039                4.63386447               86.66567170                0.60528915               -0.23719026               -0.27852580                0.79207083               -0.00080580               -0.38599782               -0.17759047
              21.93418755                4.09774859               86.26080716                0.50125170               -0.16583470               -0.41838920                1.07460689                0.00468857                0.37161641               -0.25073515
              22.93311370                3.55817059               85.86386578                0.37171181                0.26109248               -0.57754620                1.33849916                0.05475120                1.70721802               -0.32585718
              23.93940940                3.01413592               85.48258467                0.27145933                1.47702802               -0.65013882                0.81103175               -0.45053587                2.84680761               -0.75377865
              24.96265426                2.45823036               85.10781207                0.49304569                1.26506032                0.14776573               -0.41615829               -1.44432883                1.42272188                0.19537299
              25.96471060                1.91179210               84.73905695                1.00000000                0.31654576                0.43588027               -1.57142623               -0.32042671                0.93695891               -0.23984204
              26.96898517                1.37208481               84.35114016                1.00000000                0.42745706                0.36196839               -1.30417033               -0.01230648               -0.05841855                0.02768448
              17.47134197                7.75899471               88.16735158                0.98221571                0.05564943                0.05876930               -0.26983155                0.01598108               -0.10504531                0.62998051
              18.47189847                7.22872818               87.75874740                0.95220212                0.02466942               -0.01390124                0.00777430                0.02359429               -0.14299015                0.09574968
              19.47183536                6.69813476               87.34960186                0.96248869               -0.03317944               -0.07260900                0.24816872               -0.01125974               -0.11365468               -0.16098901
              20.47123488                6.16585522               86.94160757                0.95323206               -0.02756256               -0.19757309                0.48588406               -0.03919363                0.05362485               -0.17462033
              21.47128411                5.63107921               86.53561202                0.91876402                0.04232483               -0.30643676                0.68703898               -0.05127829                0.36850719               -0.10989802
              22.47208137                5.09356470               86.13370672                0.87411031                0.20917183               -0.44877344                0.92348819               -0.06314578                0.96850180               -0.15581611
              23.47546754                4.55239513               85.73910757                0.82551005                0.63963893               -0.61293835                1.05458021               -0.02584395                1.84556743               -0.21267848
              24.48487415                4.00763453               85.35466901                0.77670384                1.19576670               -0.69648140                0.67696162               -0.12391652                2.38935346               -0.48861611
              25.49938288                3.45970802               84.97878727                0.98043965                0.98524788                0.00687339               -0.37962960               -0.65152582                1.33808063               -0.03762059
              26.50457911                2.91615090               84.60347461                1.00000000                0.45932592                0.37543879               -1.32772246               -0.18297629                0.75341298               -0.25322961
              27.50856940                2.37570450               84.21917259                1.00000000                0.39902877                0.34307080               -1.16093285               -0.06409251                0.27604940                0.04495402
              18.00211698                8.75947224               88.03101241                0.98378281                0.07246439                0.04665542               -0.28155255               -0.00450065                0.00906710                0.76834637
              19.00284162                8.22851088               87.61966793                0.95118089                0.05850735               -0.01848227                0.00116965               -0.01709842                0.10175383                0.08685781
              20.00328712                7.69732493               87.21039834                0.00010000                0.11807050               -0.06715111                0.24562930               -0.18507793                0.54737415               -0.50113505
              21.00520303                7.16352068               86.80802597                0.00010000                0.22041122               -0.65278154                0.40573183               -0.82422442                0.89718630               -1.35027074
              22.00769535                6.62773573               86.40592934                0.00010000                0.32028423               -0.89262187                0.55475985               -1.31974811                1.03963551               -2.19882598
              23.01160872                6.08877312               86.00678741                0.01659898                0.54158177               -1.09184571                0.69625092               -1.80216027                1.44672266               -3.22153579
              24.01852698                5.54591182               85.61345256                0.03383548                0.90047292               -1.23758203                0.70937014               -2.20901269                1.93709905               -4.42542461
              25.02961817                5.00020629               85.22728833                0.01904232                1.12901919               -1.20532063                0.36974164               -2.32852802                2.02214936               -5.60751234
              26.04110737                4.45836783               84.84917326                0.00010000                0.77182114               -0.77422825               -0.37073771               -2.19349716                0.91098952               -7.04467084
              27.04505460                3.91930088               84.47010493                0.01880767                0.37443845               -0.34362012               -1.08365384               -1.57465901                0.48210855               -8.51538818
              28.04859614                3.37894623               84.08726806                0.39428176                0.35415400                0.37717089               -1.00713703               -1.08435531                0.26485429               -9.27275421
              18.53317467                9.75992782               87.89416641                0.98089533                0.05291341                0.05357779               -0.27352770               -0.02448327                0.09057646                0.69020799
              19.53370381                9.22835854               87.47975208                0.63771575               -0.00253334               -0.01063117                0.01406569               -0.04589763                0.14923825               -0.09322094
              20.53312401                8.69679174               87.06666465                0.00010000               -0.46821126               -0.09554294                0.28219772               -0.70941218               -0.00645790               -0.90926107
              21.52433958                8.15279959               86.64887901                0.00010000               -0.67436522               -0.77896252                0.36505729               -1.95130322               -0.28533693               -2.52390994
              22.51963670                7.61322677               86.23269492                0.00010000               -0.32387503               -1.11155479                0.28329949               -2.57763557               -0.49062900               -4.15546280
              23.51786208                7.07172778               85.81595642                0.00010000                0.01087094               -1.26509524               -0.03836047               -3.42048246               -0.85719373               -6.05309999
              24.51985412                6.52764349               85.39951728                0.00010000                0.39927520               -1.26809666               -0.61590130               -4.05284011               -1.14269219               -8.23540245
              25.52584758                5.98352812               84.98573226                0.00010000                0.82821146               -1.08410215               -1.40849378               -4.19373716               -1.16478754              -10.59749641
              26.53641835                5.44422345               84.57708217                0.00010000                1.33299717               -0.90352022               -2.31911917               -3.75461757               -0.82532746              -13.47458384
              27.55250753                4.90927850               84.17269630                0.00010000                1.55866187               -0.55059826               -3.10931592               -2.41287133               -0.64295457              -16.12295032
              28.56759159                4.38324791               83.76848079                0.34889461                1.50840588                0.44096060               -3.37799437               -1.12024716               -0.09927095              -18.33358280
              19.06476588               10.76054379               87.75619491                0.97778773                0.02938687                0.07329681               -0.25345225               -0.01205783                0.00750329                0.59406089
              20.06505975               10.22829826               87.33700336                0.57929748               -0.00540244               -0.02571977                0.05883910               -0.05738179                0.07054610               -0.24510507
              21.06465783                9.69541407               86.91915084                0.00010000               -0.76589054               -0.16405442                0.31378099               -0.81339293               -0.38941259               -1.13642012
              22.04974194                9.14794143               86.49052871                0.00010000               -1.37216919               -0.31869363                0.32281817               -1.84636138               -1.17295757               -2.37098344
              23.03721444                8.60550464               86.06131651                0.00010000               -1.04797897               -0.46238957                0.03695088               -2.27329297               -1.77893174               -3.79215683
              24.02878236                8.06347122               85.62879740                0.00010000               -0.57722989               -0.43861072               -0.62447405               -2.93899034               -2.59742383               -5.44692118
              25.02566985                7.52054989               85.19323000                0.00010000                0.01905546               -0.26911025               -1.64187035               -3.42964309               -3.23179012               -7.33105216
              26.02916346                6.97852425               84.75725294                0.00010000                0.72973933               -0.03343240               -2.87971231               -3.44553510               -3.31519090               -9.44500066
              27.04026463                6.44029742               84.32501583                0.00010000                1.43046219                0.14013681               -4.14271492               -2.94314117               -2.74382426              -11.74700536
              28.05777271                5.90828891               83.89969601                0.00010000                1.89938672                0.41727442               -5.18287052               -1.90735185               -1.53914044              -13.97439040
              29.07825237                5.38776544               83.48379944                0.34908820                2.04796593                0.71689281               -5.56388631               -0.86821831               -0.47014637              -15.57216818
              19.59742459               11.76139376               87.61729671                0.97655376                0.02613064                0.08749107               -0.23273327               -0.01329864               -0.00273046                0.54037023
              20.59768589               11.22784414               87.19402843                0.60439429               -0.01058050               -0.05198997                0.07686605               -0.05610584               -0.00429314               -0.25286152
              21.59721298               10.69351065               86.77078653                0.00010000               -1.01820554               -0.19213176                0.36650114               -0.73923889               -0.70606241               -1.10593550
              22.57732178               10.14642572               86.33324954                0.00010000               -1.92859635               -0.03001225                0.29500957               -1.61871614               -1.82747968               -2.14941915
              23.55864105                9.60397898               85.89315738                0.00010000               -1.66423799                0.08861558               -0.15224248               -1.89598318               -2.74308674               -3.32354964
              24.54403702                9.06295557               85.44730197                0.00010000               -1.12164130                0.26794442               -1.07938340               -2.39022634               -3.87906147               -4.71389720
              25.53620823                8.52226128               84.99588807                0.00010000               -0.34238385                0.53295268               -2.44156338               -2.76381840               -4.74156969               -6.32374859
              26.53718935                7.98285947               84.54231033                0.00010000                0.57913182                0.83431622               -4.07756940               -2.77424331               -4.91533279               -8.10241932
              27.54779086                7.44702619               84.09212675                0.00010000                1.48515633                1.11656670               -5.72417619               -2.32376357               -4.13715425               -9.95856111
              28.56689247                6.91762399               83.65184014                0.00010000                2.17416502                1.36221715               -7.02186084               -1.37901382               -2.39550749              -11.64614801
              29.59127416                6.39758577               83.22726575                0.34962902                2.43816886                1.38091737               -7.54624752               -0.56590523               -0.90218244              -12.77349530
              20.13159913               12.76229361               87.47818581                0.97619490                0.02215978                0.08964555               -0.22388487               -0.00884783               -0.00556732                0.52462874
              21.13182073               12.22725846               87.05099305                0.64503221               -0.01538289               -0.05733030                0.08772419               -0.04462554               -0.01653857               -0.24083832
              22.13129147               11.69157143               86.62362047                0.00010000               -1.24607237               -0.18715990                0.39164600               -0.51121094               -0.91388580               -0.99694203
              23.10689928               11.14734118               86.17827351                0.00010000               -2.42632727                0.20243503                0.28944009               -1.16635932               -2.29915134               -1.83945291
              24.08276493               10.60727695               85.72950880                0.00010000               -2.21018761                0.53152049               -0.27593310               -1.41094352               -3.40951079               -2.76395344
              25.06269553               10.06883010               85.27303867                0.00010000               -1.61376764                0.84711252               -1.40683020               -1.81898453               -4.78761723               -3.86969700
              26.05048958                9.53120894               84.80909842                0.00010000               -0.68909202                1.18664944               -3.04844934               -2.12117790               -5.83862104               -5.15706809
              27.04891369                8.99521057               84.34182610                0.00010000                0.42676326                1.54818608               -5.00655461               -2.11875778               -6.06881751               -6.57000470
              28.05902484                8.46262876               83.87828630                0.00010000                1.53595796                1.88966302               -6.96697308               -1.72659726               -5.16108822               -7.98891698
              29.07963285                7.93553326               83.42704936                0.00010000                2.39929297                2.13161815               -8.51738123               -0.97342829               -3.03417576               -9.21396920
              30.10701070                7.41538379               82.99657975                0.34989517                2.73778515                2.15224187               -9.18277857               -0.37154910               -1.24706552               -9.95048090
              20.66731795               13.76318667               87.33899020                0.97605337                0.01976188                0.08713187               -0.22299005               -0.00480896               -0.00497337                0.51142733
              21.66751556               13.22669753               86.90805470                0.68254485               -0.02059546               -0.05172954                0.09517622               -0.02881441               -0.01023685               -0.21654734
              22.66690604               12.68976746               86.47703906                0.00010000               -1.46132420               -0.17217412                0.40646381               -0.17801609               -0.98586103               -0.92698525
              23.63828908               12.15047442               86.02639498                0.00010000               -2.89863897                0.43163825                0.30820182               -0.55100476               -2.52260479               -1.47353948
              24.60893326               11.61460939               85.57145312                0.00010000               -2.72818696                0.92272917               -0.32783949               -0.84963200               -3.80378577               -2.13164686
              25.58372534               11.07989782               85.10716859                0.00010000               -2.07645294                1.32009061               -1.60586136               -1.26860149               -5.39388753               -2.93645417
              26.56740420               10.54599427               84.63384711                0.00010000               -1.01654832                1.69454751               -3.45939915               -1.53576153               -6.61546644               -3.88105897
              27.56339438               10.01382319               84.15632986                0.00010000                0.27660176                2.08403014               -5.66872838               -1.52707584               -6.91243006               -4.90811589
              28.57293623                9.48481945               83.68294863                0.00010000                1.56372509                2.44988091               -7.87939100               -1.21264892               -5.91058771               -5.90737860
              29.59466888                8.96025635               83.22400468                0.00010000                2.56029397                2.71632530               -9.63096109               -0.65695102               -3.49236110               -6.70474815
              30.62414211                8.44063061               82.78977986                0.35044201                2.94732362                2.80222207              -10.40432307               -0.23794019               -1.49092012               -7.09489650
              21.20448122               14.76403625               87.19970328                0.97584442                0.01824368                0.08192383               -0.22653431               -0.00064678                0.00337059                0.48605885
              22.20466365               14.22622387               86.76527809                0.73389103               -0.02634724               -0.04359921                0.10213673               -0.01539109                0.00058871               -0.19490350
              23.20395427               13.68812795               86.33080757                0.00010000               -1.68132007               -0.15509479                0.41986195                0.26169827               -0.89626436               -0.77114644
              24.17103725               13.15597395               85.87823032                0.00010000               -3.38026914                0.72426482                0.35970752                0.20221823               -2.46352249               -1.05972614
              25.13634889               12.62573153               85.41975531                0.00010000               -3.25493134                1.31894766               -0.29914374               -0.33716993               -3.95572360               -1.44382328
              26.10593862               12.09523192               84.95038664                0.00010000               -2.52499576                1.68119419               -1.66807359               -0.80132215               -5.76254260               -1.95266902
              27.08584897               11.56509989               84.47053387                0.00010000               -1.31958150                2.04839417               -3.67287592               -1.03238383               -7.16649352               -2.55653610
              28.07954699               11.03689118               83.98567350                0.00010000                0.12448647                2.44447105               -6.07140184               -1.01389975               -7.55423713               -3.20752020
              29.08833870               10.51162638               83.50524312                0.00010000                1.55678380                2.82345502               -8.47402299               -0.78275252               -6.49824592               -3.82006669
              30.11068267                9.98985976               83.04106866                0.00010000                2.65823422                3.10964691              -10.37225759               -0.40604863               -3.85081623               -4.24670081
              31.14150339                9.47142823               82.60494922                0.35076153                3.08207165                3.24086838              -11.19943960               -0.13316439               -1.68835557               -4.29143828
              21.74292978               15.76482514               87.06012449                0.97509260                0.01862624                0.07798722               -0.23389134                0.00210090                0.02983233                0.38513136
              22.74311604               15.22582555               86.62256115                0.61802869               -0.02699288               -0.03971206                0.11325462               -0.00543514                0.12371109               -0.18399762
              23.74238992               14.68666556               86.18687145                0.00010000               -1.91930902               -0.14192059                0.41970408                0.85774185               -0.61544042               -0.58182511
              24.70472986               14.16495971               85.73431029                0.00010000               -3.97290179                1.29485019                0.45545596                0.69545615               -2.20220333               -0.56252410
              25.66293189               13.64098835               85.27496796                0.00010000               -3.81996614                1.60276209               -0.17454556               -0.01592569               -3.90832884               -0.72676766
              26.62833054               13.11352170               84.80293997                0.00010000               -2.89173125                1.89446731               -1.58586844               -0.43532173               -5.96795600               -0.96874501
              27.60509726               12.58696215               84.31899196                0.00010000               -1.58703220                2.24851090               -3.69159134               -0.55742055               -7.58663889               -1.25436261
              28.59658990               12.06271261               83.82909678                0.00010000               -0.03923327                2.65253134               -6.23336950               -0.53545566               -8.11241880               -1.55988892
              29.60431260               11.54128855               83.34355986                0.00010000                1.50780772                3.04322149               -8.79243304               -0.40478937               -7.05993983               -1.84045980
              30.62674605               11.02244929               82.87564578                0.00010000                2.70146453                3.34050962              -10.80829340               -0.20411084               -4.21403779               -2.00575750
              31.65834189               10.50544798               82.43924679                0.35115828                3.15958374                3.47454964              -11.63121342               -0.04583548               -1.89975882               -1.81485417
              22.28252242               16.76559600               86.91895111                0.98742892                0.01921147                0.07708536               -0.24202387               -0.05737344                0.19745379                0.29875724
              23.28271453               16.22542963               86.47981526                0.75665047               -0.02737364               -0.03959253                0.11821514               -0.05547396                0.36390615               -0.17602931
              24.28197495               15.68528954               86.04398861                0.33688067               -2.60454721               -0.13760204                0.41539703                1.78056829               -0.08005580               -0.50709608
              25.23062359               15.18187095               85.59575450                0.33292841               -4.72532797                1.69112354                0.62364032                1.21423430               -1.69541265               -0.26238370
              26.18746839               14.65778678               85.13720928                0.33240911               -3.96826030                1.67984296                0.05856683                0.01616541               -3.74909718               -0.36852782
              27.15125838               14.13312126               84.66456735                0.33244783               -3.09793671                1.95995597               -1.35533672               -0.09304907               -6.08624166               -0.46054028
              28.12550965               13.61007011               84.17850109                0.33397831               -1.83734490                2.31079573               -3.52902415               -0.11773417               -7.97076572               -0.54206317
              29.11451148               13.08994180               83.68530397                0.33683786               -0.25017075                2.72291891               -6.18979032               -0.08680641               -8.69525021               -0.60657024
              30.12050624               12.57249081               83.19583956                0.34077783                1.39647712                3.12022564               -8.89932080               -0.04422854               -7.74340143               -0.64080161
              31.14244103               12.05666995               82.72412909                0.34648969                2.70415354                3.42206623              -11.07127605               -0.00908158               -4.79398992               -0.61141566
              32.17458931               11.54091922               82.28678131                0.67581927                3.21482805                3.54712463              -11.93387872                0.04966880               -2.36404040               -0.26749929
              17.34334446                6.90277857               89.30476103                0.99053731                0.01262788                0.05481976               -0.19101167                0.04362654               -0.51502332                0.46603102
              18.34347074                6.36919731               88.89869409                0.98238041               -0.03512156               -0.00825462                0.03813925                0.04780809               -0.70997098                0.06608676
              19.34264203                5.83514586               88.48898704                0.98743517               -0.11850648               -0.05661931                0.25957840                0.03756459               -0.76593578               -0.05232899
              20.34110061                5.29995878               88.08167867                0.68180985               -0.19112373               -0.13557119                0.48914771               -0.02829316               -0.69823755               -0.27910136
              21.33881956                4.76268196               87.67293993                0.62200738               -0.20537777               -0.21851759                0.66571143               -0.02200502               -0.45022283               -0.17625988
              22.33699306                4.22331494               87.27029951                0.55693505               -0.10706958               -0.31049739                0.83528824               -0.02538914                0.22554359               -0.21739283
              23.33667817                3.68129255               86.87475180                0.49054761                0.18757754               -0.38359580                0.89352207               -0.05502870                1.02797677               -0.29533965
              24.34074461                3.13639852               86.48785458                0.46635372                0.58725135               -0.33987983                0.41988802               -0.33494166                1.40888983               -0.45254308
              25.34842319                2.58838971               86.10500080                0.71933380                0.52719347                0.04351548               -0.23793228               -0.63313718                0.66902489                0.06480533
              26.35128848                2.04429002               85.72470345                1.00000000                0.33858411                0.29626248               -1.22319433               -0.24067270                0.44227749               -0.02757224
              27.35519488                1.50312307               85.33779024                1.00000000                0.39063978                0.36881172               -1.31452435               -0.12467900                0.05360466               -0.12255429
              17.87736199                7.90332677               89.16489510                0.98106445                0.04031875                0.04935088               -0.21083013                0.00964519               -0.12629799                0.61831646
              18.87776518                7.36911477               88.75884622                0.95237639                0.01374757               -0.01324564                0.01745090                0.01519961               -0.18893622                0.09623977
              19.87763694                6.83457967               88.35190674                0.95937334               -0.03577727               -0.06285574                0.21758806               -0.01507766               -0.19011738               -0.15681945
              20.87704963                6.29860307               87.94602621                0.96848782               -0.03577560               -0.15938640                0.40288477               -0.03966633               -0.06506053               -0.19282544
              21.87692143                5.76049678               87.54169188                0.94273080                0.01921179               -0.23392420                0.54132374               -0.04879495                0.18174984               -0.10248876
              22.87743387                5.22020996               87.14150381                0.92517427                0.13323298               -0.32142719                0.66969993               -0.05306046                0.61626675               -0.12247191
              23.87958609                4.67745660               86.74714108                0.92872522                0.32063716               -0.37779847                0.64561222               -0.04996223                1.05248488               -0.15407454
              24.88384661                4.13299972               86.35900279                0.95573490                0.42799900               -0.30315239                0.32467737               -0.11558782                1.17534483               -0.20847218
              25.88814607                3.58882487               85.97587773                0.98384580                0.38342303                0.02479199               -0.26813766               -0.23345492                0.78731920               -0.01281902
              26.89151507                3.04725264               85.59314376                1.00000000                0.34844831                0.24616312               -0.89613340               -0.09394976                0.46039801               -0.09238900
              27.89511504                2.50681118               85.20678035                1.00000000                0.35999633                0.34645919               -1.19830279               -0.08444985                0.21379185               -0.11083742
              18.41196138                8.90376559               89.02840194                0.98283045                0.05604566                0.04720199               -0.23062743               -0.00726449               -0.01913551                0.76842951
              19.41252184                8.36893240               88.61966809                0.94975188                0.04453971               -0.01513374                0.00365141               -0.01703780                0.04532508                0.10058955
              20.41285217                7.83388875               88.21262832                0.00010000                0.09341686               -0.05966492                0.20479469               -0.14624184                0.41128747               -0.46245794
              21.41439017                7.29677106               87.81156925                0.00010000                0.16922965               -0.58421187                0.31500618               -0.81113192                0.65275599               -1.28746370
              22.41623677                6.75800348               87.41063915                0.00010000                0.22909315               -0.77648183                0.41345712               -1.39342875                0.70273665               -2.18076949
              23.41897204                6.21688639               87.01238779                0.00010000                0.33262008               -0.93252703                0.47998841               -1.93273740                0.90741079               -3.36167840
              24.42288917                5.67373658               86.61864630                0.00010000                0.40462721               -1.03406659                0.42711830               -2.28122844                1.06992182               -4.80411251
              25.42706458                5.13033547               86.22987947                0.00010000                0.33060004               -1.02879115                0.20657096               -2.28438588                1.02877295               -6.39176581
              26.42950117                4.58888555               85.84627720                0.00010000                0.21792922               -0.91402651               -0.26143854               -1.84343395                0.71441238               -8.18840791
              27.43142316                4.04921328               85.46261163                0.00010000                0.24438130               -0.77379266               -0.66410719               -1.06213185                0.43640547               -9.80756799
              28.43438879                3.51005225               85.07623788                0.38318469                0.29656303               -0.36119544               -1.05554797               -0.14943643                0.23698389              -10.87583573
              18.94688309                9.90427081               88.89159959                0.98051489                0.04181795                0.05988816               -0.23162766               -0.02206249                0.06176497                0.70967331
              19.94730127                9.36881209               88.47984012                0.66861255               -0.00048183               -0.00942369                0.00668238               -0.03642322                0.10503148               -0.05455874
              20.94687345                8.83338637               88.06921957                0.00010000               -0.52944987               -0.09269242                0.22591453               -0.61706205               -0.10328419               -0.86013084
              21.93671227                8.28691883               87.65296484                0.00010000               -0.89679662               -0.70487647                0.50147026               -1.87475234               -0.54182953               -2.35354069
              22.92893752                7.74496715               87.23611502                0.00010000               -0.68331279               -0.98674224                0.47313415               -2.66348927               -1.07796903               -4.09892189
              23.92304601                7.20155942               86.81588043                0.00010000               -0.42125348               -1.13011438                0.09697212               -3.63257786               -1.81094911               -6.34972951
              24.92051245                6.65677526               86.39316687                0.00010000               -0.00180428               -1.20796465               -0.61067123               -4.26841914               -2.36334847               -9.12967575
              25.92300993                6.11242389               85.97077081                0.00010000                0.59435653               -1.24912218               -1.60064916               -4.28318774               -2.48431982              -12.33550500
              26.93239958                5.57054434               85.55184666                0.00010000                1.30479050               -1.26528774               -2.77234889               -3.53836543               -2.11975748              -15.84349926
              27.94910574                5.03177679               85.13822972                0.00010000                1.90243941               -1.13384322               -3.84363763               -2.05171245               -1.38419355              -18.96370590
              28.97044837                4.49958728               84.73020854                0.34547795                2.13426297               -0.50838303               -4.41235978               -0.49386347               -0.35085474              -21.38986348
              19.48243757               10.90496335               88.75379865                0.97776055                0.02402405                0.07848489               -0.21966008               -0.01143447                0.00406905                0.62276450
              20.48267781               10.36874393               88.33749648                0.62130761               -0.00166904               -0.02259021                0.04109975               -0.04577673                0.03896240               -0.20524586
              21.48240419                9.83203490               87.92202314                0.00010000               -0.86817296               -0.15568736                0.25812657               -0.69912142               -0.49475460               -1.08061770
              22.46531435                9.28267353               87.49478917                0.00010000               -1.70388986               -0.26639257                0.59822431               -1.70530228               -1.49046045               -2.21372210
              23.44832639                8.73826863               87.06318126                0.00010000               -1.54009947               -0.38185187                0.43539028               -2.24351877               -2.56116438               -3.74297719
              24.43451236                8.19428411               86.62369181                0.00010000               -1.08350389               -0.36673545               -0.30279530               -2.99534814               -3.88039053               -5.72864364
              25.42665631                7.64957729               86.17691296                0.00010000               -0.34403048               -0.28141211               -1.57081414               -3.52209145               -4.89576244               -8.16753673
              26.42763175                7.10535302               85.72685025                0.00010000                0.63623252               -0.17943133               -3.21930807               -3.56907774               -5.16311618              -10.98384341
              27.43938096                6.56357980               85.27966063                0.00010000                1.68571121               -0.06786610               -5.01140973               -3.07953865               -4.44338243              -13.96977798
              28.46134598                6.02653642               84.84188320                0.00010000                2.47547944                0.16275313               -6.56287649               -1.94054632               -2.62937924              -16.70079222
              29.48889055                5.49988459               84.42032085                0.34602774                2.75445769                0.54372628               -7.38176049               -0.85876440               -0.96908441              -18.57019818
              20.01909325               11.90584051               88.61508661                0.97650631                0.02209302                0.08783008               -0.20494371               -0.01185594               -0.00504594                0.56329722
              21.01931418               11.36836029               88.19469366                0.64824073               -0.00659173               -0.04274364                0.05714742               -0.04454399               -0.01642031               -0.22702917
              22.01896142               10.83027262               87.77417301                0.00010000               -1.14708465               -0.17346989                0.30801753               -0.61229610               -0.81148423               -1.05150558
              22.99637249               10.28159098               87.33764818                0.00010000               -2.32524296                0.00337984                0.66855599               -1.43427613               -2.20530623               -2.00940843
              23.97245656                9.73733011               86.89371837                0.00010000               -2.22710516                0.12988168                0.38405904               -1.79805845               -3.68026276               -3.28365179
              24.95183039                9.19422471               86.43810526                0.00010000               -1.67274302                0.30347358               -0.64952929               -2.37611032               -5.42838476               -4.96707123
              25.93900170                8.65114702               85.97154528                0.00010000               -0.71022616                0.54045701               -2.36553181               -2.82141161               -6.77531983               -7.04242670
              26.93762587                8.10883527               85.49924981                0.00010000                0.53118561                0.81443745               -4.55731141               -2.90484679               -7.15257739               -9.40951965
              27.94962541                7.56918701               85.02976868                0.00010000                1.81820755                1.11108753               -6.88523707               -2.51124753               -6.16864643              -11.87162425
              28.97399002                7.03503185               84.57359462                0.00010000                2.84756582                1.43088258               -8.88101340               -1.55131126               -3.67735763              -14.07152219
              30.00657673                6.51046180               84.14161184                0.34655395                3.25867126                1.60581542               -9.95267055               -0.64439519               -1.49529642              -15.51906853
              20.55716090               12.90671996               88.47605551                0.97604045                0.01939191                0.08576692               -0.19897050               -0.00791377               -0.00714028                0.53627373
              21.55735481               12.36788905               88.05176672                0.68666660               -0.01166623               -0.04541953                0.06789767               -0.03462699               -0.02216214               -0.21809834
              22.55692757               11.82856550               87.62724577                0.00010000               -1.38917353               -0.16274425                0.33226712               -0.39221429               -1.01388198               -0.95597241
              23.52957134               11.28274112               87.18293101                0.00010000               -2.85980398                0.21648741                0.73645619               -0.97735130               -2.70394738               -1.72405792
              24.49973149               10.74086626               86.72926749                0.00010000               -2.81990504                0.54326870                0.36176013               -1.28844343               -4.45946974               -2.73669409
              25.47317324               10.20035358               86.26088909                0.00010000               -2.20569814                0.87075530               -0.90022908               -1.77076667               -6.53770569               -4.08460832
              26.45561753                9.66038643               85.77868768                0.00010000               -1.08392102                1.23926389               -2.96753864               -2.14903982               -8.14299586               -5.74647804
              27.45149482                9.12164177               85.28899556                0.00010000                0.36709503                1.65444987               -5.59022213               -2.22413689               -8.60591277               -7.62400050
              28.46295943                8.58580155               84.80242785                0.00010000                1.87750706                2.09048805               -8.36387231               -1.89101598               -7.44894571               -9.53241597
              29.48904496                8.05515407               84.33230416                0.00010000                3.10916611                2.47800903              -10.74080530               -1.11972313               -4.46057867              -11.18709462
              30.52514275                7.53200090               83.89263631                0.34664951                3.60977870                2.66090381              -12.06088307               -0.45375652               -1.90410439              -12.21600402
              21.09659679               13.90755585               88.33686613                0.97580981                0.01793124                0.08055322               -0.19925275               -0.00454463               -0.00664719                0.51480376
              22.09677610               13.36745190               87.90890218                0.72165521               -0.01658612               -0.03996535                0.07505285               -0.02205107               -0.01526589               -0.19483926
              23.09626506               12.82701774               87.48081159                0.00010000               -1.61256975               -0.14666368                0.34621943               -0.08035291               -1.07315186               -0.88811163
              24.06452470               12.28592073               87.03150449                0.00010000               -3.35949136                0.42936822                0.81642930               -0.38830851               -2.92361670               -1.38634625
              25.02907524               11.74819548               86.57107251                0.00010000               -3.38149078                0.91442025                0.39678248               -0.73229985               -4.92058495               -2.11874901
              25.99689489               11.21163982               86.09335222                0.00010000               -2.71712641                1.34254063               -1.02500065               -1.20505607               -7.28236675               -3.10878520
              26.97473271               10.67593230               85.59943154                0.00010000               -1.45834385                1.79072912               -3.35326975               -1.53260592               -9.11637474               -4.32923031
              27.96772801               10.14192427               85.09663884                0.00010000                0.17800448                2.29745290               -6.30547915               -1.58725416               -9.67106644               -5.69251439
              28.97829280                9.61099678               84.59732307                0.00010000                1.88340957                2.82263058               -9.42599072               -1.31749963               -8.39606476               -7.04229715
              30.00539620                9.08459203               84.11706062                0.00010000                3.27575689                3.27984678              -12.10659937               -0.75067030               -5.03632618               -8.14230488
              31.04380794                8.56367988               83.67221568                0.34711294                3.84117336                3.55506187              -13.62736806               -0.29581975               -2.20530064               -8.71853848
              21.63727791               14.90833102               88.19754325                0.97553149                0.01739950                0.07442745               -0.20343620               -0.00118291                0.00095766                0.48323353
              22.63745190               14.36708975               87.76618886                0.76886308               -0.02131138               -0.03320697                0.08062565               -0.01164199               -0.00655278               -0.17184062
              23.63685168               13.82563223               87.33470789                0.00010000               -1.84122351               -0.13082302                0.35861094                0.33010833               -0.95756508               -0.73827447
              24.60062743               13.29132849               86.88411902                0.00010000               -3.87426363                0.71147434                0.92786410                0.31904154               -2.82350166               -0.99843894
              25.55936641               12.75915467               86.42007180                0.00010000               -3.96460620                1.29572777                0.51813653               -0.24518621               -5.09104642               -1.44303171
              26.52133531               12.22720439               85.93636376                0.00010000               -3.23427200                1.70327222               -0.99316831               -0.73756709               -7.73615974               -2.07787343
              27.49468097               11.69620101               85.43427069                0.00010000               -1.83250216                2.17662198               -3.50154680               -1.00605510               -9.81461463               -2.85565448
              28.48468526               11.16759083               84.92200934                0.00010000               -0.03696485                2.73223622               -6.69618761               -1.03223768              -10.49575378               -3.71534815
              29.49394167               10.64225416               84.41342807                0.00010000                1.83315966                3.31155165              -10.07791836               -0.83488981               -9.15588402               -4.54074803
              30.52134846               10.12075100               83.92617116                0.00010000                3.35544993                3.81957702              -12.97875712               -0.45575684               -5.50015816               -5.12852884
              31.56105067                9.60310214               83.47864068                0.34764801                3.97022106                4.17014820              -14.62025336               -0.17256137               -2.45989575               -5.20589581
              22.17905568               15.90904440               88.05789185                0.97472855                0.01863725                0.07059435               -0.21114860                0.00104616                0.03059118                0.37801424
              23.17924205               15.36678776               87.62356502                0.64520877               -0.02135947               -0.03006630                0.08785018               -0.00405092                0.10616218               -0.16259017
              24.17862849               14.82440128               87.19075470                0.00010000               -2.09294784               -0.11900083                0.35640636                0.89537403               -0.62971176               -0.55645191
              25.13738309               14.30015022               86.74148749                0.00010000               -4.51664398                1.27307144                1.09907521                0.76116039               -2.46087763               -0.51835432
              26.08829561               13.77411004               86.27707305                0.00010000               -4.61429460                1.56316136                0.76719622                0.03625361               -4.99999395               -0.73985792
              27.04509720               13.24570526               85.79034030                0.00010000               -3.70352217                1.90997728               -0.77279535               -0.39125314               -7.98770258               -1.04110507
              28.01422517               12.71946474               85.28308141                0.00010000               -2.20335451                2.38796236               -3.39545788               -0.53031779              -10.36575680               -1.40446141
              29.00103011               12.19656899               84.76419578                0.00010000               -0.28951681                2.97361330               -6.76862959               -0.53412597              -11.24539583               -1.80340350
              30.00843483               11.67722781               84.24872884                0.00010000                1.72014884                3.58631386              -10.35617948               -0.42635902               -9.92035186               -2.17744066
              31.03543309               11.16098357               83.75634236                0.00010000                3.36098063                4.12175339              -13.42576513               -0.22818997               -5.99620056               -2.39971731
              32.07565444               10.64708284               83.30845771                0.34774024                4.02213538                4.48892993              -15.09609398               -0.07507807               -2.74867167               -2.11841499
              22.72181211               16.90974291               87.91663069                0.98723410                0.02018908                0.06985112               -0.22076862               -0.04980582                0.19515546                0.28983743
              23.72201400               16.36648842               87.48085056                0.76845417               -0.02077056               -0.02993370                0.08866297               -0.04733997                0.33318004               -0.15769720
              24.72139670               15.82325221               87.04781829                0.33610194               -2.79360602               -0.11490674                0.34880029                1.79189561                0.00153856               -0.48247377
              25.66614188               15.31678992               86.60517349                0.33265952               -5.34301333                1.66396980                1.40100171                1.23416268               -1.69466423               -0.32986034
              26.61453643               14.79041790               86.14244498                0.33221182               -4.89931675                1.63078577                1.18983551                0.05478310               -4.73286722               -0.46342281
              27.56815554               14.26540394               85.65516442                0.33268607               -4.06627729                1.96986715               -0.33118852               -0.01704763               -8.14100852               -0.56673849
              28.53321088               13.74396026               85.14507094                0.33384448               -2.59579350                2.44955222               -3.02969300               -0.01847009              -10.91101286               -0.65320624
              29.51623967               13.22706310               84.62156509                0.33567435               -0.61054905                3.04941078               -6.55007027                0.02196496              -12.08412646               -0.71967042
              30.52099990               12.71398044               84.10048082                0.33901802                1.53449750                3.67526279              -10.32879032                0.06265607              -10.91727854               -0.74564784
              31.54692962               12.20318607               83.60252974                0.34373960                3.31753324                4.22024977              -13.60035215                0.09466841               -6.85517106               -0.68210566
              32.58735057               11.69288074               83.15321109                0.67404166                4.04209449                4.57978933              -15.33185343                0.13907899               -3.44742618               -0.14865326
              17.74309772                7.04734933               90.30322247                0.98993832               -0.00133619                0.03707998               -0.11271538                0.02731025               -0.50863587                0.45245527
              18.74308436                6.50980638               89.89917922                0.98224202               -0.03808332               -0.01274012                0.06099497                0.02946497               -0.70478975                0.06538128
              19.74233606                5.97189114               89.49147897                0.98650877               -0.10353244               -0.05340370                0.23966854                0.02112927               -0.75543904               -0.05430738
              20.74101371                5.43319503               89.08620883                0.67744996               -0.17654773               -0.10868988                0.41401181               -0.03930722               -0.70680108               -0.29090179
              21.73880510                4.89283537               88.67898593                0.63723108               -0.20635803               -0.15051516                0.54868783               -0.04650543               -0.50463587               -0.17147871
              22.73688655                4.35099212               88.27751292                0.60591470               -0.13434685               -0.19651420                0.63374643               -0.06041030                0.05906470               -0.17232015
              23.73611816                3.80748524               87.88173622                0.58946230                0.02258189               -0.20661062                0.57723606               -0.12016515                0.54461595               -0.22247405
              24.73733819                3.26278862               87.49098243                0.62304120                0.15338574               -0.13484247                0.25331708               -0.25501005                0.71165477               -0.22808175
              25.73918588                2.71777262               87.10305342                0.89006219                0.17142637                0.04026180               -0.17982501               -0.24118667                0.44347012               -0.03767301
              26.74076672                2.17436005               86.71459307                1.00000000                0.23489089                0.20348974               -0.83711671               -0.09418329                0.25637058                0.02176378
              27.74388370                1.63165350               86.32484968                1.00000000                0.31169805                0.33866035               -1.17851302               -0.10182000                0.10319709               -0.17649371
              18.28091378                8.04772013               90.16313498                0.97982087                0.01943278                0.03935040               -0.13678923                0.00109702               -0.13709567                0.60254490
              19.28110811                7.50967897               89.75909642                0.95223103               -0.00303797               -0.01388003                0.03557050                0.00371792               -0.21365280                0.09653056
              20.28085302                6.97135710               89.35395362                0.95706582               -0.04797922               -0.05641013                0.19426311               -0.01475903               -0.23823289               -0.14950881
              21.28014852                6.43210814               88.94966526                0.96100432               -0.07057580               -0.11811285                0.33619445               -0.03966352               -0.15309687               -0.20559119
              22.27944150                5.89133022               88.54643849                0.96297652               -0.05955043               -0.15690846                0.43338437               -0.04773563                0.03764474               -0.09482913
              23.27895751                5.34902698               88.14710072                0.96850449               -0.02116209               -0.19145932                0.48541932               -0.05239279                0.35139446               -0.08823742
              24.27901826                4.80541913               87.75201981                0.97053096                0.03434425               -0.18407321                0.41286399               -0.06356009                0.61123505               -0.09565459
              25.27964440                4.26144020               87.36116256                0.96829293                0.09850188               -0.10928321                0.17984190               -0.10096761                0.73590176               -0.07484546
              26.28098830                3.71817524               86.97342451                0.97355107                0.16200223                0.04290583               -0.20709353               -0.07838401                0.67530137               -0.02753300
              27.28288444                3.17639495               86.58555194                1.00000000                0.22918730                0.18517505               -0.66857174               -0.00399126                0.42184797               -0.03262507
              28.28557205                2.63504010               86.19520654                1.00000000                0.26876019                0.31739126               -1.05348315               -0.02550346                0.21549979               -0.19703921
              18.81920197                9.04813634               90.02639986                0.98176182                0.03197758                0.05022243               -0.16519292               -0.00999883               -0.03788199                0.76265226
              19.81952175                8.50952877               89.61974096                0.94875318                0.02048709               -0.01199995                0.01398912               -0.01485263                0.00723098                0.11084132
              20.81961171                7.97076293               89.21449423                0.00010000                0.03627864               -0.05813975                0.17139310               -0.08077080                0.30640091               -0.43142503
              21.82024732                7.43083278               88.81432609                0.00010000                0.06599152               -0.47996414                0.25708871               -0.73033575                0.46836752               -1.09623377
              22.82093155                6.88969720               88.41419848                0.00010000                0.07512297               -0.63119982                0.32855393               -1.39748098                0.46816155               -1.99192824
              23.82174978                6.34716293               88.01638717                0.00010000                0.07510991               -0.77989034                0.35474199               -2.01298438                0.57766865               -3.37239680
              24.82243374                5.80380378               87.62199493                0.00010000                0.04064760               -0.93179111                0.29625395               -2.39407328                0.69071425               -5.19346666
              25.82256273                5.26060296               87.23141974                0.00010000                0.01148538               -1.07964832                0.13125517               -2.36680184                0.77608121               -7.34583081
              26.82266345                4.71863074               86.84394449                0.00010000                0.06296463               -1.21026000               -0.20320029               -1.84817113                0.80211063               -9.63604651
              27.82382203                4.17806355               86.45682278                0.00010000                0.17099307               -1.28310645               -0.53670980               -0.85260396                0.57504577              -11.65519075
              28.82608331                3.63800133               86.06615710                0.37173794                0.22612868               -1.18362139               -0.92634045                0.54601837                0.33658616              -13.05147847
              19.35792893               10.04872458               89.88953386                0.98003146                0.02555303                0.06878638               -0.17738301               -0.01607863                0.03930682                0.72256744
              20.35818446                9.50943898               89.47988573                0.70273988                0.00023371               -0.00944885                0.00514267               -0.02187579                0.06911272               -0.02139011
              21.35793360                8.97019430               89.07118294                0.00010000               -0.57884590               -0.09573256                0.16791241               -0.45358989               -0.04482216               -0.81247200
              22.34660754                8.42250885               88.65890841                0.00010000               -1.13859375               -0.59245676                0.74337550               -1.64803999               -0.51590599               -1.94114753
              23.33516173                7.87870622               88.24215760                0.00010000               -1.10081438               -0.83277268                0.81480822               -2.64613512               -1.48215808               -3.72787259
              24.32459125                7.33342917               87.81789586                0.00010000               -0.87324772               -1.02447118                0.38330575               -3.81149217               -2.64565529               -6.41309675
              25.31769677                6.78678331               87.38730386                0.00010000               -0.35549254               -1.24915153               -0.51771162               -4.57097646               -3.54056522               -9.99351317
              26.31748140                6.23984723               86.95371928                0.00010000                0.44337567               -1.51172884               -1.81304021               -4.61112682               -3.86684425              -14.25433823
              27.32656429                5.69397004               86.52163520                0.00010000                1.44901870               -1.78254482               -3.33768903               -3.77069124               -3.45102403              -18.75696220
              28.34646178                5.15073282               86.09582355                0.00010000                2.50262878               -1.95776901               -4.77529192               -2.09497423               -2.19377987              -22.75644171
              29.37661686                4.61136768               85.68023359                0.34275361                3.01550856               -1.65215764               -5.73616096               -0.14091114               -0.63733337              -25.65023109
              19.89745161               11.04951206               89.75180171                0.97766693                0.01629007                0.08391312               -0.17648043               -0.00819415                0.00077292                0.64553427
              20.89761451               10.50933980               89.33782536                0.66597501                0.00092173               -0.02028318                0.02703825               -0.02885716                0.01553301               -0.16453587
              21.89747004                9.96884828               88.92431337                0.00010000               -0.94199513               -0.14681971                0.20110040               -0.51304918               -0.36465555               -1.01501334
              22.87877460                9.41898364               88.50249319                0.00010000               -2.01907586               -0.22065681                1.02922681               -1.43718900               -1.39517811               -1.87929509
              23.85708852                8.87304175               88.07002431                0.00010000               -2.06658773               -0.32432517                1.05541140               -2.14465726               -3.11204080               -3.46683843
              24.83744285                8.32667351               87.62274150                0.00010000               -1.62461842               -0.35061528                0.22702590               -3.05849168               -5.11608648               -5.85584002
              25.82459615                7.77882075               87.16181372                0.00010000               -0.71446893               -0.35726424               -1.37972120               -3.72223084               -6.69925732               -9.00752242
              26.82315347                7.23036838               86.69286678                0.00010000                0.58839429               -0.36617309               -3.57979348               -3.87039548               -7.28658139              -12.73156385
              27.83636404                6.68297984               86.22478764                0.00010000                2.06857163               -0.35717756               -6.06016230               -3.39756890               -6.46177476              -16.65329967
              28.86452490                6.13890817               85.76843848                0.00010000                3.28156657               -0.24801167               -8.33570550               -2.14906418               -3.93830017              -20.22053183
              29.90199537                5.60495817               85.33616423                0.34295440                3.74704687                0.17606305               -9.76253768               -0.95915321               -1.55928803              -22.61167292
              20.43810958               12.05040284               89.61319784                0.97643894                0.01615182                0.08637558               -0.17034887               -0.00783804               -0.00706467                0.58328014
              21.43827110               11.50903331               89.19517137                0.69246088               -0.00404020               -0.03259131                0.04053773               -0.02861039               -0.02346039               -0.19487523
              22.43802877               10.96725791               88.77694688                0.00010000               -1.23004012               -0.15174403                0.24790859               -0.42790412               -0.62840848               -0.98810471
              23.41367029               10.41809572               88.34662066                0.00010000               -2.67250310                0.00100334                1.23351172               -1.15070884               -2.07432930               -1.73441962
              24.38457871                9.87221972               87.90083856                0.00010000               -2.80139364                0.10735884                1.19145111               -1.65749583               -4.34730362               -3.07733188
              25.35764242                9.32641687               87.43431139                0.00010000               -2.25107140                0.26087345                0.03342139               -2.37516564               -6.94939136               -5.11234453
              26.33955728                8.77963803               86.94857743                0.00010000               -1.08640122                0.47861884               -2.13918660               -2.94830324               -9.00285320               -7.78411409
              27.33591440                8.23252377               86.45116411                0.00010000                0.52579176                0.74865730               -5.06529881               -3.14548716               -9.75548308              -10.91903295
              28.35007312                7.68682649               85.95442201                0.00010000                2.27938812                1.07231051               -8.31907218               -2.81889487               -8.62233300              -14.21331759
              29.38150216                7.14577258               85.47421987                0.00010000                3.76303353                1.47085979              -11.28858018               -1.81248217               -5.26323877              -17.18980495
              30.42533379                6.61488894               85.02821234                0.34316502                4.38316309                1.77508498              -13.18297526               -0.77491809               -2.23204273              -19.21914089
              20.98003390               13.05123958               89.47420640                0.97589976                0.01533266                0.07960788               -0.16887656               -0.00499446               -0.00836646                0.54831594
              21.98018723               12.50868797               89.05235101                0.72599473               -0.00921740               -0.03273482                0.05079799               -0.02162430               -0.02437271               -0.18979081
              22.97984955               11.96581340               88.63026582                0.00010000               -1.46943052               -0.13574016                0.27240245               -0.24361757               -0.78663081               -0.90948289
              23.95079862               11.41900371               88.19300264                0.00010000               -3.21160488                0.17318791                1.39986153               -0.73694748               -2.52597368               -1.51396122
              24.91561746               10.87518893               87.73674400                0.00010000               -3.41386944                0.46051884                1.30427103               -1.15088051               -5.19697574               -2.59876187
              25.88252123               10.33189098               87.25503408                0.00010000               -2.80471348                0.79152891               -0.11057319               -1.73596202               -8.24575333               -4.23733034
              26.85952319                9.78839312               86.74974764                0.00010000               -1.47329807                1.20943110               -2.72235868               -2.21583268              -10.64904932               -6.37572096
              27.85305527                9.24534153               86.23002165                0.00010000                0.36070712                1.72176771               -6.21724698               -2.38999765              -11.52686066               -8.86583864
              28.86673733                8.70442605               85.71100885                0.00010000                2.35787709                2.30733951              -10.09026180               -2.12480598              -10.18947188              -11.45234158
              29.90021281                8.16832537               85.21223325                0.00010000                4.07634874                2.88853359              -13.63764592               -1.32092966               -6.21985644              -13.76323498
              30.94826430                7.64045987               84.75536209                0.34343306                4.80514942                3.26832669              -15.96766679               -0.56693975               -2.72313262              -15.32380296
              21.52311290               14.05199500               89.33500515                0.97559730                0.01518859                0.07178119               -0.17140346               -0.00287521               -0.00800731                0.52049471
              22.52326478               13.50837862               88.90955576                0.75650877               -0.01361064               -0.02818789                0.05746329               -0.01355765               -0.01817917               -0.16993372
              23.52284069               12.96454311               88.48396345                0.00010000               -1.68544815               -0.11970257                0.28675063                0.01020547               -0.79975502               -0.84720997
              24.48955582               12.42155947               88.04272357                0.00010000               -3.70834278                0.35092314                1.55833112               -0.23541642               -2.67654904               -1.24462596
              25.44867383               11.88143010               87.57938877                0.00010000               -3.99184191                0.78407172                1.44966172               -0.63231281               -5.67880498               -2.04945016
              26.40971898               11.34224744               87.08666858                0.00010000               -3.34418740                1.23976945               -0.14065310               -1.15540668               -9.09931370               -3.26259472
              27.38179008               10.80382665               86.56678171                0.00010000               -1.88187341                1.79719026               -3.07389271               -1.54502048              -11.80353538               -4.83238594
              28.37208152               10.26695912               86.03022028                0.00010000                0.14015399                2.48428749               -6.99786149               -1.67170516              -12.81099454               -6.63991805
              29.38459316                9.73297328               85.49442881                0.00010000                2.34841144                3.24897963              -11.34802846               -1.45469969              -11.33939977               -8.48265138
              30.41904974                9.20354326               84.98187269                0.00010000                4.25664092                3.98410377              -15.34758965               -0.87318572               -6.91844369              -10.05624694
              31.46972598                8.68025547               84.51723250                0.34395210                5.06762365                4.53042024              -18.03003337               -0.37367240               -3.08535188              -11.00830109
              22.06720916               15.05267520               89.19563456                0.97525637                0.01588032                0.06514983               -0.17703937               -0.00098029               -0.00083746                0.48364230
              23.06736796               14.50812421               88.76689060                0.79929107               -0.01681790               -0.02332869                0.06126998               -0.00720989               -0.01094311               -0.14872852
              24.06687280               13.96341935               88.33797979                0.00010000               -1.90823326               -0.10584969                0.29679716                0.34652455               -0.62355598               -0.70491183
              25.02920330               13.42602217               87.89678760                0.00010000               -4.22947874                0.59893450                1.74413648                0.35445715               -2.46817709               -0.91846262
              25.98228323               12.89087036               87.43011804                0.00010000               -4.60933788                1.11939579                1.68467373               -0.19652176               -5.81448552               -1.43115754
              26.93701654               12.35668637               86.93052328                0.00010000               -3.91860660                1.58257438                0.00668230               -0.68421422               -9.59937825               -2.21838689
              27.90391110               11.82433693               86.40050293                0.00010000               -2.32710032                2.21230119               -3.14217651               -0.97612618              -12.62698146               -3.21307266
              28.89047454               11.29502728               85.85174975                0.00010000               -0.14259470                3.00648336               -7.37582677               -1.04891242              -13.81117541               -4.34676355
              29.90105920               10.76940564               85.30368475                0.00010000                2.24961824                3.88568594              -12.07886054               -0.89270120              -12.27364667               -5.47399020
              30.93546690               10.24800744               84.78149352                0.00010000                4.31536110                4.72765541              -16.40407647               -0.51469717               -7.49126984               -6.33069278
              31.98736642                9.73106828               84.31254415                0.34424964                5.18995242                5.41268978              -19.31398702               -0.22332785               -3.39974670               -6.55406834
              22.61219527               16.05329799               89.05590152                0.97439987                0.01811706                0.06199329               -0.18599795                0.00023534                0.03102700                0.37435309
              23.61237644               15.50791204               88.62431815                0.66370499               -0.01610229               -0.02098124                0.06416763               -0.00246596                0.09345558               -0.14370435
              24.61187322               14.96242611               88.19399958                0.00010000               -2.15912400               -0.09532385                0.29368333                0.82180562               -0.20205086               -0.53458542
              25.56919396               14.43353816               87.75629180                0.00010000               -4.88970111                1.09397855                2.00972526                0.71461090               -1.91862155               -0.46992116
              26.51407920               13.90381801               87.29031188                0.00010000               -5.33129126                1.34520545                2.09060582                0.04488221               -5.60737374               -0.76914650
              27.46256813               13.37389893               86.78748406                0.00010000               -4.50762739                1.77259367                0.40162970               -0.34748168               -9.85544852               -1.13902498
              28.42392665               12.84807267               86.25108281                0.00010000               -2.82667899                2.43449973               -2.87719894               -0.49162548              -13.29512647               -1.59561616
              29.40603455               12.32708879               85.69372419                0.00010000               -0.50838374                3.28912440               -7.33279907               -0.52205644              -14.76014017               -2.11493612
              30.41375897               11.81068700               85.13643627                0.00010000                2.05293076                4.23341288              -12.30471517               -0.44278063              -13.26070248               -2.62233870
              31.44709317               11.29809636               84.60713048                0.00010000                4.26893875                5.13228231              -16.86868273               -0.25186499               -8.13582276               -2.95010045
              32.49913775               10.78850927               84.13732491                0.34473008                5.20445836                5.86855637              -19.86352386               -0.11312701               -3.77596474               -2.61276531
              23.15798577               17.05391507               88.91453574                0.98705612                0.02047521                0.06170718               -0.19741851               -0.04199680                0.19330409                0.28433670
              24.15819053               16.50770459               88.48158852                0.77591298               -0.01514905               -0.02074522                0.06042633               -0.03870057                0.30963224               -0.14315868
              25.15768279               15.96151287               88.05096462                0.33543222               -2.80434537               -0.09132397                0.28418190                1.59081501                0.60915709               -0.46572396
              26.10210362               15.44790174               87.62377454                0.33246844               -5.74313443                1.43635781                2.49276678                1.10404604               -0.71398238               -0.45664732
              27.04282010               14.91777447               87.16100599                0.33232625               -5.81456856                1.39564562                2.76728426                0.08591572               -5.14282171               -0.62446357
              27.98581225               14.39213824               86.65794358                0.33253384               -5.09656883                1.82393100                1.12468813                0.08703438              -10.01623863               -0.73500912
              28.94088873               13.87302692               86.11790723                0.33318490               -3.41965819                2.49542492               -2.23938637                0.12978401              -14.01954747               -0.82136128
              29.91741908               13.36080977               85.55430257                0.33517812               -0.98463554                3.37209744               -6.87567012                0.19080224              -15.90184215               -0.88777392
              30.92119602               12.85407390               84.98926375                0.33753967                1.75941230                4.33869051              -12.08677777                0.23587031              -14.63477911               -0.90604967
              31.95260733               12.35065309               84.45212205                0.34152344                4.15410311                5.25567230              -16.90747449                0.26969158               -9.33302450               -0.80892908
              33.00427808               11.84843941               83.98014424                0.67239577                5.16707495                5.99301383              -19.99362350                0.29266475               -4.76060599               -0.05577251
              18.14125824                7.19200266               91.30250673                0.98941654               -0.01397944                0.01976158               -0.03330064                0.01068315               -0.48775587                0.43425219
              19.14111844                6.65067053               90.89991399                0.98148900               -0.03772964               -0.01868933                0.08516992                0.01089158               -0.67545012                0.06482009
              20.14050364                6.10911041               90.49378041                0.98479647               -0.08304040               -0.05361791                0.21965405                0.00784692               -0.72139648               -0.05173059
              21.13945763                5.56722788               90.08995891                0.67392098               -0.15404480               -0.08538901                0.33704819               -0.03363851               -0.68702663               -0.28164467
              22.13742275                5.02434726               89.68391369                0.65254154               -0.20167867               -0.09596094                0.44138537               -0.04513499               -0.51124561               -0.14815632
              23.13542406                4.48069293               89.28297444                0.64747720               -0.16608844               -0.11219726                0.47130391               -0.05793154               -0.03830200               -0.13435233
              24.13410098                3.93627588               88.88629652                0.66614202               -0.08817809               -0.09910888                0.37731786               -0.09601840                0.30277097               -0.14198497
              25.13366050                3.39147662               88.49292092                0.73692472               -0.02095115               -0.04111272                0.15163634               -0.11914577                0.44962127               -0.12134242
              26.13368196                2.84689407               88.10140430                0.97794035                0.04795672                0.04890745               -0.16344713               -0.07537855                0.33464078               -0.06592278
              27.13461963                2.30280754               87.70796112                0.99645135                0.15318189                0.15628865               -0.55820921               -0.04569201                0.17744628               -0.00310589
              28.13674559                1.75887948               87.31421998                1.00000000                0.21259603                0.26835012               -0.91928505               -0.05578059                0.08087043               -0.15404056
              18.68269719                8.19220027               91.16215932                0.97882949               -0.00237105                0.03085516               -0.06026932               -0.00849708               -0.13597049                0.58269541
              19.68267348                7.65048364               90.75955763                0.95169465               -0.01968733               -0.01553082                0.05661057               -0.00861944               -0.21449314                0.09607861
              20.68230344                7.10857424               90.35579200                0.95496190               -0.05853259               -0.05397414                0.17443869               -0.01091211               -0.24544958               -0.14045678
              21.68150283                6.56637399               89.95275010                0.95632284               -0.10322869               -0.08123231                0.28071448               -0.02954727               -0.18026024               -0.20144248
              22.68023887                6.02338765               89.55035957                0.95610955               -0.13111960               -0.09507294                0.35784965               -0.03434290               -0.02371347               -0.08246025
              23.67888043                5.47957096               89.15121220                0.95853077               -0.12449575               -0.10248073                0.37101520               -0.03989806                0.24693783               -0.06514626
              24.67774895                4.93528479               88.75539836                0.96088336               -0.08602437               -0.08463375                0.29736210               -0.04677840                0.48643723               -0.05586805
              25.67715995                4.39106549               88.36259963                0.96282844               -0.02431214               -0.03072441                0.11876318               -0.04627497                0.64834051               -0.04097884
              26.67726271                3.84738314               87.97173585                0.96829415                0.05050312                0.05299350               -0.15861396               -0.01183408                0.60036419               -0.04992015
              27.67817001                3.30437042               87.57977232                0.99435812                0.14265688                0.15151631               -0.50600532                0.01358327                0.37182933               -0.02935416
              28.68011585                2.76156298               87.18571069                1.00000000                0.19458388                0.25580749               -0.83605318                0.00456997                0.20299766               -0.20150656
              19.22452156                9.19261976               91.02509809                0.98086294                0.00505344                0.05600217               -0.09605764               -0.01256973               -0.04529395                0.74955960
              20.22457209                8.65035992               90.61994787                0.94817664               -0.00632489               -0.00918757                0.02803389               -0.01139341               -0.00859297                0.11603098
              21.22439506                8.10803093               90.21605618                0.00010000               -0.02594075               -0.06282218                0.14313833               -0.00529051                0.25671232               -0.41209367
              22.22405327                7.56560323               89.81671102                0.00010000               -0.04280719               -0.32226028                0.22152781               -0.58342361                0.38778890               -0.73829004
              23.22353891                7.02244580               89.41721023                0.00010000               -0.06621583               -0.44018945                0.27960297               -1.34459336                0.36858227               -1.58608948
              24.22272896                6.47864332               89.01948263                0.00010000               -0.09340154               -0.63138982                0.28922874               -2.08781908                0.47819751               -3.20203897
              25.22167088                5.93458321               88.62457138                0.00010000               -0.10461548               -0.90992890                0.23585852               -2.58262115                0.64399134               -5.52993080
              26.22063665                5.39086213               88.23250457                0.00010000               -0.07652707               -1.25876998                0.09225830               -2.62237551                0.79915990               -8.37600381
              27.22014034                4.84795394               87.84221320                0.00010000                0.00374083               -1.64105999               -0.15819946               -2.05060734                0.84730428              -11.41384126
              28.22071147                4.30583786               87.45187743                0.00010000                0.11557718               -1.96690801               -0.45498759               -0.77482895                0.61144187              -14.10003417
              29.22245189                3.76399563               87.05771107                0.35990086                0.17404201               -2.24937274               -0.75967840                1.25406433                0.37244063              -15.94276818
              19.76696548               10.19332031               90.88805193                0.97961047                0.00689621                0.07951513               -0.11920150               -0.00783337                0.02449760                0.72566606
              20.76703444                9.65029989               90.47994297                0.74022395               -0.00055772               -0.00961768                0.00809419               -0.00489013                0.04321583                0.00431093
              21.76695432                9.10731779               90.07257782                0.00010000               -0.58074758               -0.10301216                0.11491950               -0.21614640                0.22736963               -0.76909682
              22.75541949                8.55992878               89.66783235                0.00010000               -1.33237049               -0.41139257                1.10773518               -1.25436794               -0.09738590               -1.20144569
              23.74030691                8.01458386               89.25241119                0.00010000               -1.52164189               -0.60974488                1.32727596               -2.53436275               -1.63668447               -2.92277658
              24.72498665                7.46694317               88.82354655                0.00010000               -1.32145948               -0.89457707                0.83383859               -3.99126880               -3.36288400               -6.10707529
              25.71387772                6.91708621               88.38281264                0.00010000               -0.68224721               -1.32149680               -0.31259800               -5.00890383               -4.74621100              -10.68900948
              26.71134170                6.36589009               87.93451001                0.00010000                0.36985545               -1.87926038               -1.99804950               -5.21173567               -5.39858339              -16.29605576
              27.72127483                5.81456194               87.48509288                0.00010000                1.76450198               -2.51134732               -4.01007708               -4.32121964               -4.98242611              -22.26991723
              28.74663174                5.26503226               87.04272389                0.00010000                3.38033894               -3.10542017               -5.98255871               -2.37472549               -3.23337085              -27.68159300
              29.78888161                4.71657552               86.61548532                0.34003063                4.22498656               -3.21616227               -7.42863128                0.14439578               -1.04158621              -31.59651542
              20.31040574               11.19421006               90.75026904                0.97758234                0.00710727                0.08905544               -0.12980342               -0.00227918               -0.00171746                0.65859172
              21.31047681               10.65016756               90.33803724                0.71095456                0.00187510               -0.01813801                0.01810252               -0.00889409                0.00089530               -0.12488715
              22.31044324               10.10597069               89.92604515                0.00010000               -0.93884818               -0.13798531                0.14937158               -0.24012722                0.08870281               -0.94146922
              23.29169985                9.55737538               89.51537371                0.00010000               -2.23029831               -0.17678162                1.65182227               -1.00725208               -0.71694023               -1.29003896
              24.26583727                9.01025090               89.08428949                0.00010000               -2.56493087               -0.27600367                1.94403711               -1.95553739               -3.31534711               -2.85237930
              25.24040123                8.46075178               88.62823233                0.00010000               -2.16456959               -0.36289644                1.01457374               -3.09902961               -6.23555415               -5.70579050
              26.22254588                7.90815327               88.14931853                0.00010000               -1.07375118               -0.47777006               -1.01479364               -3.96303306               -8.60614260               -9.73471765
              27.21892621                7.35327692               87.65525438                0.00010000                0.60139475               -0.62951762               -3.91236851               -4.25481765               -9.69050317              -14.63034513
              28.23457378                6.79772699               87.15845738                0.00010000                2.61385854               -0.79312476               -7.29308463               -3.83496506               -8.85118399              -19.87141091
              29.27120338                6.24372946               86.67516909                0.00010000                4.38397528               -0.87956436              -10.56141474               -2.48757249               -5.53551488              -24.75325576
              30.32225328                5.69967238               86.22507010                0.34012596                5.10499057               -0.48471983              -12.85924300               -1.15224227               -2.28744569              -28.17975240
              20.85500489               12.19510142               90.61167964                0.97639046                0.00910432                0.08344509               -0.13272155               -0.00149889               -0.00832858                0.59725273
              21.85509593               11.64993713               90.19550441                0.73425138               -0.00304612               -0.02293551                0.02869574               -0.01061028               -0.02544216               -0.15859209
              22.85494396               11.10455809               89.77913118                0.00010000               -1.20508494               -0.13057038                0.19262354               -0.17219480               -0.04945746               -0.91994882
              23.83099423               10.55639315               89.36231841                0.00010000               -2.85620999               -0.05081927                2.03690545               -0.73102279               -1.21941153               -1.26527930
              24.79781976               10.00906379               88.91754739                0.00010000               -3.29452703                0.00449548                2.33209111               -1.43923272               -4.57867226               -2.62226562
              25.76510369                9.45968524               88.43877369                0.00010000               -2.78639229                0.12490001                1.03519549               -2.33398365               -8.31065879               -5.06448469
              26.74209192                8.90753081               87.92876155                0.00010000               -1.42160305                0.32572324               -1.69959218               -3.06412038              -11.32583504               -8.47932851
              27.73667163                8.35329974               87.39794383                0.00010000                0.60155371                0.59959539               -5.55374852               -3.40305832              -12.66464080              -12.61095902
              28.75412299                7.79869945               86.86338724                0.00010000                2.91316387                0.95104599              -10.01707470               -3.17370738              -11.48896585              -17.05718420
              29.79493491                7.24744098               86.34782302                0.00010000                4.99139653                1.42535414              -14.32760391               -2.13635514               -7.17241291              -21.22196026
              30.85395092                6.70688113               85.87795234                0.34055604                5.90160164                1.84161510              -17.44375563               -0.94752769               -3.12358121              -24.30428743
              21.40070435               13.19587896               90.47267798                0.97579697                0.01035954                0.07180792               -0.13613345               -0.00048397               -0.00901299                0.55830400
              22.40080794               12.64970885               90.05278268                0.76330948               -0.00805108               -0.02117499                0.03782053               -0.00806979               -0.02377514               -0.15787209
              23.40054333               12.10335928               89.63269382                0.00010000               -1.41171269               -0.10992579                0.21624139               -0.05958359               -0.11084631               -0.85776943
              24.37257369               11.55635899               89.21092824                0.00010000               -3.33913980                0.04250488                2.33176176               -0.42221508               -1.51743419               -1.17226108
              25.33376053               11.01034081               88.75535291                0.00010000               -3.86595789                0.23843260                2.61940608               -0.96874257               -5.42061238               -2.30085721
              26.29525453               10.46324978               88.25867762                0.00010000               -3.30557787                0.56067480                1.03262205               -1.66305444               -9.73620053               -4.28163127
              27.26764897                9.91466773               87.72424050                0.00010000               -1.77790638                1.04992411               -2.24735448               -2.24812814              -13.20875985               -7.01566281
              28.25969640                9.36526883               87.16465062                0.00010000                0.46547095                1.70490363               -6.84293480               -2.53652159              -14.72900724              -10.30428485
              29.27695839                8.81674791               86.60062261                0.00010000                3.02990960                2.49841982              -12.15596840               -2.36514459              -13.33634105              -13.82859945
              30.32029460                8.27223654               86.05955124                0.00010000                5.37320184                3.33829283              -17.31878486               -1.54772476               -8.30644270              -17.13331788
              31.38442243                7.73650468               85.57328298                0.34105791                6.41278324                3.97253344              -21.16780309               -0.70166792               -3.70471976              -19.62611916
              21.94733542               14.19653758               90.33343806                0.97543150                0.01187915                0.06142654               -0.14139215               -0.00015893               -0.00845375                0.52651189
              22.94745422               13.64951363               89.91005144                0.78519419               -0.01166355               -0.01780387                0.04371103               -0.00490729               -0.01780862               -0.14347341
              23.94710215               13.10235957               89.48654660                0.00010000               -1.59429094               -0.09307097                0.23221308                0.08349220               -0.03558719               -0.80506136
              24.91556840               12.55724325               89.06267111                0.00010000               -3.77740136                0.15160062                2.58619876               -0.09875910               -1.51319369               -1.03324075
              25.87155413               12.01383244               88.60006575                0.00010000               -4.40263589                0.46337984                2.89782108               -0.53820104               -5.85129712               -1.90619803
              26.82751568               11.47089873               88.09053916                0.00010000               -3.82219110                0.93856972                1.11585123               -1.07974127              -10.63686459               -3.38500516
              27.79511030               10.92852929               87.53795368                0.00010000               -2.18273300                1.64853648               -2.55895406               -1.51175140              -14.49206400               -5.39036973
              28.78386102               10.38739781               86.95668161                0.00010000                0.23710415                2.59414088               -7.70723611               -1.71389614              -16.19270229               -7.77673101
              29.79985239                9.84866784               86.37036250                0.00010000                3.01813107                3.70094944              -13.66635918               -1.57122019              -14.66653945              -10.30354322
              30.84422364                9.31420683               85.81010883                0.00010000                5.57644483                4.83214080              -19.48873235               -0.99834917               -9.12037624              -12.60210193
              31.91138128                8.78633179               85.31161501                0.34120415                6.71576432                5.77118399              -23.92180399               -0.46090199               -4.12589996              -14.23199284
              22.49474907               15.19710749               90.19400247                0.97502750                0.01387363                0.05463478               -0.14893595               -0.00009535               -0.00157992                0.48562480
              23.49488781               14.64935278               89.76741426                0.82044388               -0.01327593               -0.01489392                0.04547744               -0.00253718               -0.01282509               -0.12702315
              24.49448355               14.10149786               89.34064383                0.00010000               -1.78810861               -0.08174131                0.23986772                0.27749524                0.24292592               -0.67393691
              25.45912564               13.55939101               88.91900175                0.00010000               -4.25712665                0.32608080                2.85826853                0.26202548               -1.11145407               -0.82245665
              26.40934102               13.01960841               88.45376528                0.00010000               -5.00813932                0.70033605                3.26368965               -0.19840424               -5.87877811               -1.41516197
              27.35896285               12.48202117               87.93649740                0.00010000               -4.42130775                1.23028662                1.39559659               -0.61341578              -11.11923105               -2.38470753
              28.32091487               11.94763846               87.37142716                0.00010000               -2.68414599                2.08094120               -2.53738943               -0.89486620              -15.39180266               -3.64531739
              29.30527993               11.41715165               86.77449280                0.00010000               -0.10949502                3.21598180               -8.07757495               -1.01293662              -17.33603660               -5.13340984
              30.31872497               10.89076690               86.17185086                0.00010000                2.86918656                4.52670956              -14.50668663               -0.91550936              -15.75853046               -6.68164719
              31.36266366               10.36887936               85.59808963                0.00010000                5.61147488                5.85730997              -20.79858859               -0.56170933               -9.79626224               -7.96455869
              32.43095446                9.85192836               85.09236094                0.34131709                6.82908013                7.04478266              -25.61874208               -0.27684896               -4.49870336               -8.51797589
              23.04284295               16.19763028               90.05417189                0.97411259                0.01701533                0.05268553               -0.15960574               -0.00027468                0.03150610                0.37266978
              24.04301310               15.64921575               89.62484837                0.67615460               -0.01145608               -0.01341295                0.04380380               -0.00077879                0.08537039               -0.12798413
              25.04261383               15.10072474               89.19662837                0.00010000               -2.01573730               -0.07451006                0.23494781                0.57296878                0.81395658               -0.51421054
              26.00269836               14.56376486               88.78168199                0.00010000               -4.88289783                0.66502417                3.23574151                0.49048197               -0.26910047               -0.42598610
              26.94495587               14.02783916               88.31888517                0.00010000               -5.77405248                0.84660045                3.85681888               -0.00452305               -5.46002830               -0.83155774
              27.88721731               13.49550447               87.79837289                0.00010000               -5.14366835                1.38817717                1.99904069               -0.28621803              -11.31873928               -1.27890383
              28.84208251               12.97014812               87.22553743                0.00010000               -3.33717297                2.31228662               -2.08199426               -0.41204696              -16.14625386               -1.84465082
              29.82047385               12.45171745               86.61753979                0.00010000               -0.61340088                3.54996083               -7.89568632               -0.46898545              -18.47837980               -2.51691201
              30.82981449               11.93920204               86.00263454                0.00010000                2.56770715                4.97187850              -14.67112969               -0.43022704              -16.97815158               -3.21114938
              31.87182799               11.43135303               85.41896871                0.00010000                5.49659042                6.40724986              -21.29359427               -0.26248012              -10.59996434               -3.71619855
              32.93974630               10.92722745               84.91118724                0.34179026                6.79183043                7.70991302              -26.28457968               -0.15557810               -4.96961540               -3.39044796
              23.59157263               17.19816120               89.91268232                0.98689738                0.02051360                0.05309270               -0.17279048               -0.03470061                0.19180708                0.28097991
              24.59177777               16.64908452               89.48205909                0.78063535               -0.00894058               -0.01312335                0.03579728               -0.03121087                0.29467199               -0.13219584
              25.59139382               16.10000766               89.05350193                0.33439547               -2.49784542               -0.07170830                0.22471844                1.05834760                1.91343713               -0.45050957
              26.54182086               15.57269149               88.65502882                0.33241374               -5.69414318                0.89266273                3.95515176                0.73888801                1.60774851               -0.67543905
              27.47751096               15.03654042               88.19779066                0.33232669               -6.54456636                0.87012580                4.86001122                0.11016975               -4.68345664               -0.88360986
              28.41092953               14.50978472               87.67765819                0.33245487               -6.05250055                1.42802513                3.08044546                0.23841123              -11.45128301               -0.99371669
              29.35646094               13.99388420               87.10028322                0.33293750               -4.20416137                2.37360778               -1.09792582                0.35615131              -17.06682377               -1.07181546
              30.32684630               13.48815086               86.48405169                0.33411712               -1.29880526                3.64334168               -7.13103316                0.45325927              -19.97101531               -1.13601787
              31.33048484               12.99020447               85.85874526                0.33616331                2.12711714                5.10024352              -14.20028546                0.51070978              -18.79448331               -1.14997541
              32.36938865               12.49702436               85.26438025                0.33926909                5.28046146                6.56713239              -21.14256455                0.55217311              -12.19634352               -1.02528194
              33.43609407               12.00612662               84.75333862                0.67067752                6.67054217                7.88991748              -26.26532329                0.54500396               -6.29284373               -0.02852990
              18.53852808                7.33672918               92.30255645                0.98904077               -0.02264111                0.00534931                0.03578995               -0.00440274               -0.45643116                0.41332934
              19.53830167                6.79181549               91.90088262                0.98034157               -0.03324389               -0.02488306                0.10498500               -0.00640240               -0.62903515                0.06297609
              20.53786320                6.24683335               91.49587205                0.98257743               -0.05808828               -0.05611536                0.19888885               -0.00295128               -0.66994707               -0.04605704
              21.53713990                5.70197976               91.09294979                0.67377759               -0.11492702               -0.06525870                0.26134498               -0.00905901               -0.64192839               -0.25797710
              22.53556466                5.15698048               90.68781364                0.66743240               -0.17011124               -0.05960070                0.34465948               -0.01346333               -0.48490735               -0.11956921
              23.53373768                4.61182955               90.28693900                0.67946710               -0.16687806               -0.06136846                0.34075665               -0.01495026               -0.07965496               -0.08991867
              24.53222710                4.06644187               89.88928257                0.71868993               -0.12574238               -0.04149549                0.24665335               -0.02801274                0.20124225               -0.08490397
              25.53122283                3.52100435               89.49401515                0.80325784               -0.06943041                0.00326238                0.07867447               -0.02745274                0.34585988               -0.07932585
              26.53083849                2.97579106               89.09978448                0.97676333                0.01385672                0.05768833               -0.16153230               -0.01800118                0.27555758               -0.06765828
              27.53149997                2.43067553               88.70342888                0.98567268                0.10724475                0.12160226               -0.39816793               -0.02536654                0.11644115               -0.02084611
              28.53298339                1.88559127               88.30646398                0.99831757                0.14834222                0.19276091               -0.65172859               -0.03123790                0.03036268               -0.13340198
              19.08339775                8.33678268               92.16192959                0.97819055               -0.02121845                0.02528649                0.00777626               -0.01817995               -0.12530735                0.55974339
              20.08318556                7.79156666               91.76022863                0.95086917               -0.03230953               -0.01757182                0.07541592               -0.02101785               -0.19584865                0.09343537
              21.08275156                7.24627220               91.35744240                0.95277902               -0.06049073               -0.05490556                0.15496516               -0.00599414               -0.22172915               -0.13290374
              22.08197575                6.70132717               90.95527955                0.95277497               -0.11232108               -0.04975139                0.22460288               -0.00892869               -0.15944508               -0.18475551
              23.08050514                6.15638448               90.55359548                0.95229525               -0.15591324               -0.05283448                0.28742003               -0.00721923               -0.01299956               -0.06990702
              24.07885748                5.61121586               90.15452102                0.95436506               -0.15727805               -0.05208691                0.28765902               -0.00713310                0.23150393               -0.04566249
              25.07735957                5.06602691               89.75796706                0.95722514               -0.12918871               -0.03254959                0.21568849               -0.00571824                0.44523607               -0.03631017
              26.07627371                4.52103697               89.36353782                0.96025846               -0.07683408                0.00840809                0.06884049                0.00111553                0.58077304               -0.03700002
              27.07582289                3.97636794               88.97025223                0.96392171                0.00362433                0.06029149               -0.14748927                0.01263768                0.53167713               -0.06056628
              28.07634620                3.43189155               88.57543184                0.97549052                0.09661868                0.12178890               -0.38627058                0.01019765                0.32097267               -0.03776285
              29.07775527                2.88751888               88.17848547                0.99618962                0.14090700                0.18900308               -0.61899052                0.00680593                0.16701286               -0.17866896
              19.62859652                9.33723491               92.02447871                0.98023172               -0.02047232                0.06421319               -0.03284455               -0.01513302               -0.04333127                0.72920018
              20.62839179                8.79146405               91.62030163                0.94793098               -0.03068537               -0.00654179                0.04166172               -0.00811755               -0.00534213                0.11555084
              21.62798281                8.24573524               91.21735700                0.00010000               -0.07713707               -0.07243978                0.11799455                0.06803681                0.25312457               -0.40578709
              22.62684905                7.70098473               90.81875665                0.00010000               -0.12256112               -0.07549592                0.18544359               -0.34803708                0.38433113               -0.14832523
              23.62553159                7.15592379               90.41979054                0.00010000               -0.14482366               -0.16065233                0.23089018               -1.19941098                0.36987177               -0.87162259
              24.62395258                6.61078781               90.02217175                0.00010000               -0.16199793               -0.43389474                0.23808385               -2.10291387                0.49071663               -2.76125429
              25.62229163                6.06579088               89.62671210                0.00010000               -0.15242324               -0.88854736                0.18436464               -2.75828910                0.66248369               -5.71431721
              26.62090411                5.52117251               89.23326491                0.00010000               -0.10274792               -1.49303339                0.05683448               -2.89191019                0.79501482               -9.46220204
              27.62023667                4.97699689               88.84078050                0.00010000               -0.01755650               -2.20202186               -0.13810885               -2.25911079                0.80776176              -13.54827001
              28.62055298                4.43311130               88.44772303                0.00010000                0.08140886               -2.90411210               -0.37660771               -0.62849201                0.57671473              -17.24000874
              29.62186485                3.88937133               88.05096353                0.34978020                0.13118631               -3.77202667               -0.59293981                2.25135273                0.35423851              -19.80026590
              20.17463681               10.33806694               91.88714983                0.97930911               -0.01139202                0.09106418               -0.06473879                0.00110521                0.01653398                0.71798105
              21.17452289                9.79143582               91.48004761                0.78190039               -0.00225951               -0.00917214                0.01348250                0.01104866                0.02626289                0.02242096
              22.17459162                9.24482340               91.07348133                0.00010000               -0.48482165               -0.11348485                0.07099016                0.11531233                0.77385806               -0.73138197
              23.16482645                8.69981725               90.68106312                0.00010000               -1.39388898               -0.11439670                1.61350344               -0.61547848                0.83069670                0.00040505
              24.14671384                8.15317143               90.26870312                0.00010000               -1.89471660               -0.25329174                2.03387217               -2.24439541               -1.47399544               -1.49491174
              25.12693212                7.60253797               89.83457263                0.00010000               -1.74523726               -0.67286262                1.47982010               -4.05826602               -3.92599475               -5.23837042
              26.11180909                7.04825597               89.38105190                0.00010000               -0.98513138               -1.38066966                0.05775512               -5.41010236               -5.95539680              -11.05070292
              27.10722949                6.49117630               88.91375829                0.00010000                0.34463952               -2.34224278               -2.09276493               -5.83140096               -7.09124028              -18.40958771
              28.11870188                5.93232751               88.44143365                0.00010000                2.20862104               -3.48698136               -4.74105702               -4.90890059               -6.82251712              -26.45806594
              29.15140192                5.37380931               87.97617237                0.00010000                4.57801922               -4.71836904               -7.46833665               -2.68001271               -4.61173332              -33.98028041
              30.21026227                4.81207834               87.53166097                0.33761937                5.88603519               -5.52376115               -9.61878719                0.55588329               -1.61270149              -39.76561760
              20.72188086               11.33905620               91.74920564                0.97753025               -0.00245482                0.09360079               -0.08503313                0.00527354               -0.00293104                0.66071658
              21.72185631               10.79128061               91.33818741                0.75661243                0.00133865               -0.01598978                0.01427027                0.00985845               -0.00555765               -0.08843054
              22.72190763               10.24346554               90.92730080                0.00010000               -0.78324258               -0.13065701                0.10646837                0.15250963                0.96384153               -0.86276656
              23.70619146                9.69869680               90.53552964                0.00010000               -2.19923320               -0.12908246                2.49967737               -0.32840957                0.74996184               -0.34153253
              24.67792296                9.15085796               90.10890506                0.00010000               -2.92443674               -0.22302206                3.14340835               -1.57650444               -2.99945359               -1.75047270
              25.64770272                8.59733056               89.64303297                0.00010000               -2.62358592               -0.39280450                2.11221725               -2.96987523               -7.07772990               -5.11933967
              26.62545125                8.03817748               89.14151784                0.00010000               -1.37490820               -0.65632399               -0.40560178               -4.04707766              -10.46745187              -10.22282117
              27.62020456                7.47432765               88.61461941                0.00010000                0.69872049               -1.01339752               -4.14214331               -4.50769138              -12.27423217              -16.63388415
              28.63942566                6.90725726               88.07892594                0.00010000                3.34986672               -1.44049643               -8.67169664               -4.19354990              -11.59114872              -23.69388570
              29.68720189                6.33874392               87.55721018                0.00010000                5.85093904               -1.84290401              -13.29277863               -2.81371347               -7.45354356              -30.54859818
              30.75644444                5.77889611               87.07897937                0.33782334                6.92425452               -1.57440181              -16.86953877               -1.36771864               -3.17670513              -35.82540098
              21.27029345               12.33993896               91.61054340                0.97637190                0.00172608                0.07955186               -0.09558619                0.00587604               -0.00843019                0.60384642
              22.27031071               11.79111603               91.19574529                0.77430783               -0.00339127               -0.01485561                0.02180723                0.00554406               -0.02295608               -0.12146437
              23.27022563               11.24221026               90.78079935                0.00010000               -0.97224321               -0.11114765                0.14488222                0.18495098                1.05072388               -0.84953065
              24.25086585               10.69723560               90.38735877                0.00010000               -2.68378181               -0.17455055                3.11757582               -0.09499431                0.62816198               -0.52662951
              25.21654999               10.14871099               89.94748038                0.00010000               -3.53253780               -0.21022664                3.85194014               -1.05104336               -4.13114297               -1.81399099
              26.18021509                9.59468188               89.45501530                0.00010000               -3.13397733               -0.14188347                2.40894284               -2.11872994               -9.26191254               -4.71774944
              27.15387044                9.03512949               88.91458559                0.00010000               -1.61096010                0.03551229               -0.98003763               -2.99248901              -13.49483828               -9.04400305
              28.14799589                8.47090835               88.34008914                0.00010000                0.82720867                0.30951985               -5.95285560               -3.48617256              -15.67353087              -14.45615776
              29.17041462                7.90351758               87.75408051                0.00010000                3.77464556                0.68107692              -11.94954556               -3.41364483              -14.64797665              -20.47527972
              30.22348880                7.33695123               87.18766779                0.00010000                6.60944545                1.23146391              -18.07438292               -2.43527866               -9.36725238              -26.40444527
              31.30260352                6.78059031               86.67933723                0.33835068                7.91147243                1.76893547              -22.99654148               -1.12299197               -4.16008631              -31.28301397
              21.81964423               13.34064724               91.47148373                0.97573755                0.00516513                0.06308951               -0.10326091                0.00480638               -0.00876293                0.56465775
              22.81969588               12.79098350               91.05310742                0.79571877               -0.00785799               -0.01192282                0.02926748                0.00423551               -0.02080875               -0.12518703
              23.81948707               12.24124259               90.63459064                0.00010000               -1.09525206               -0.08591956                0.16742381                0.17529660                1.15545579               -0.80284596
              24.79779084               11.69520579               90.23963787                0.00010000               -3.00156251               -0.22072307                3.56939358                0.01588942                0.63041340               -0.65488828
              25.75945582               11.14665343               89.78913212                0.00010000               -3.94406102               -0.19086107                4.34801738               -0.67415218               -4.83929867               -1.78424490
              26.71890962               10.59449289               89.27568653                0.00010000               -3.50404161                0.10228420                2.57400069               -1.44435150              -10.69562131               -4.15994370
              27.68937499               10.03888773               88.70480055                0.00010000               -1.84083033                0.68515550               -1.48580331               -2.10194655              -15.49682604               -7.62424086
              28.68209302                9.48051805               88.09316296                0.00010000                0.78674477                1.53369837               -7.40763117               -2.50930832              -17.92531187              -11.93566096
              29.70510989                8.92087880               87.46788948                0.00010000                3.96652853                2.60782911              -14.54163149               -2.48621531              -16.69692964              -16.73337528
              30.76142359                8.36337320               86.86585756                0.00010000                7.07982730                3.80058018              -21.88444107               -1.73515383              -10.63783401              -21.50312877
              31.84670643                7.81427482               86.33200603                0.33851292                8.52828455                4.79736717              -27.97555244               -0.83023416               -4.81532401              -25.53691918
              22.36971705               14.34120075               91.33217730                0.97531279                0.00830177                0.05033141               -0.11102776                0.00316991               -0.00773692                0.53108408
              23.36980007               13.79087757               90.91042998                0.80674234               -0.01038892               -0.00983378                0.03383779                0.00326692               -0.01498098               -0.11743396
              24.36950927               13.24049187               90.48860771                0.00010000               -1.20136336               -0.06918709                0.18334243                0.13001611                1.37009480               -0.76157296
              25.34577280               12.69282114               90.09444754                0.00010000               -3.28647137               -0.23218126                3.93232123                0.02319106                0.89884894               -0.73807807
              26.30377984               12.14489377               89.63734520                0.00010000               -4.33395217               -0.14528636                4.77209846               -0.41686924               -5.11605920               -1.67181926
              27.25909376               11.59672756               89.10898560                0.00010000               -3.89867480                0.33327983                2.77684908               -0.90003769              -11.53787315               -3.46035499
              28.22580635               11.04883260               88.51560263                0.00010000               -2.16375521                1.24795500               -1.76404536               -1.32202956              -16.80309256               -5.99589536
              29.21581865               10.50158232               87.87607555                0.00010000                0.60144057                2.54914240               -8.38540766               -1.59606765              -19.47375538               -9.11945696
              30.23783516                9.95567416               87.22110163                0.00010000                3.97855274                4.13109308              -16.37448165               -1.57188045              -18.13772583              -12.57329865
              31.29538971                9.41296283               86.59209805                0.00010000                7.31802251                5.82415924              -24.64905502               -1.07642578              -11.53251907              -15.94105918
              32.38419561                8.87653765               86.03879642                0.33879146                8.88059021                7.34308588              -31.65384303               -0.53535278               -5.28111150              -18.69460236
              22.92035398               15.34165386               91.19265584                0.97484178                0.01161187                0.04353958               -0.12065054                0.00106480               -0.00081309                0.48744792
              23.92047010               14.79078682               90.76780015                0.83241257               -0.01050778               -0.00850235                0.03353725                0.00161419               -0.01145084               -0.10805499
              24.92014383               14.23985885               90.34277714                0.00010000               -1.33086659               -0.06040354                0.19017870                0.07923972                1.79736533               -0.64521670
              25.89385277               13.69056216               89.95395297                0.00010000               -3.64659036               -0.19148846                4.29468772               -0.01644039                1.59239178               -0.72046376
              26.84721202               13.14374770               89.49539183                0.00010000               -4.84413651               -0.08661470                5.27403816               -0.24978949               -4.93925874               -1.40931964
              27.79697004               12.60115848               88.95843521                0.00010000               -4.45661888                0.52162545                3.19264280               -0.47267715              -11.90723698               -2.59103779
              28.75807964               12.06384683               88.34975514                0.00010000               -2.68199684                1.67455026               -1.65518526               -0.68146314              -17.69383000               -4.16750131
              29.74333010               11.53150090               87.69019825                0.00010000                0.21060634                3.28046733               -8.76374753               -0.83974850              -20.69137230               -6.10166036
              30.76229177               11.00350066               87.01355102                0.00010000                3.78507386                5.19477269              -17.36413912               -0.83563209              -19.34110256               -8.21987856
              31.81903158               10.47985639               86.36552174                0.00010000                7.32789822                7.22594719              -26.29297462               -0.56063276              -12.28954485              -10.14247315
              32.90884973                9.96113653               85.80016931                0.33897363                8.98181537                9.15924883              -33.90621439               -0.31634647               -5.70331490              -11.29769079
              23.47147242               16.34207154               91.05270941                0.97386573                0.01549422                0.04299722               -0.13315409               -0.00068200                0.03221239                0.37161431
              24.47162737               15.79070753               90.62519423                0.67922166               -0.00768476               -0.00737959                0.02738525                0.00032553                0.08153732               -0.11614266
              25.47131873               15.23928380               90.19869853                0.00010000               -1.50361124               -0.05516494                0.18300086                0.05609127                2.58109960               -0.49736302
              26.44155514               14.68899137               89.82100663                0.00010000               -4.15654993               -0.14314298                4.79430810               -0.00026193                2.85176234               -0.40208641
              27.38818773               14.14316147               89.36744826                0.00010000               -5.60070300               -0.07282075                6.07477396               -0.12608567               -4.18940618               -0.95296091
              28.32954108               13.60716007               88.82746487                0.00010000               -5.31765303                0.62674190                4.02745961               -0.17569363              -11.96692869               -1.48243989
              29.28183467               13.08232360               88.20944292                0.00010000               -3.50856158                1.91261088               -0.98806674               -0.24446471              -18.48233437               -2.16985740
              30.25936985               12.56719167               87.53581046                0.00010000               -0.45338199                3.67823621               -8.42761507               -0.32736784              -22.00091691               -3.03051973
              31.27276703               12.05956961               86.84301367                0.00010000                3.35856646                5.76761437              -17.46377820               -0.35119359              -20.78685753               -3.97791497
              32.32654118               11.55748177               86.18125860                0.00010000                7.12706759                7.97339904              -26.83603996               -0.23957325              -13.25377954               -4.75752992
              33.41530838               11.05972263               85.61163331                0.33895888                8.87672025               10.12147532              -34.73946982               -0.19317807               -6.27116299               -4.55233966
              24.02306837               17.34251381               90.91107993                0.98675705                0.01959816                0.04422686               -0.14752769               -0.02786313                0.19014228                0.27868466
              25.02326435               16.79063923               90.48230446                0.78153590               -0.00432826               -0.00682935                0.01550304               -0.02421455                0.28551016               -0.12483562
              26.02298180               16.23875555               90.05545898                0.33441433               -1.66472467               -0.05282504                0.17118574                0.01931087                4.10493390               -0.43847114
              26.98996986               15.68769930               89.70287757                0.33214897               -4.82300980               -0.12920724                5.80938969                0.01825822                5.69784401               -1.02934102
              27.92652161               15.14229128               89.25820621                0.33233455               -6.78379107               -0.08701890                7.47792485                0.13308876               -2.96444377               -1.28330694
              28.85429404               14.61369332               88.71955249                0.33212231               -6.66814285                0.65332510                5.54160637                0.46568357              -12.03029616               -1.37859536
              29.79315875               14.10209905               88.09594871                0.33282057               -4.73786508                1.97754452                0.41258166                0.70102313              -19.61492184               -1.43553081
              30.75953673               13.60506562               87.41168190                0.33328438               -1.40904805                3.78739559               -7.28895125                0.85438346              -23.88987135               -1.49498330
              31.76497779               13.11885295               86.70525804                0.33452539                2.72751822                5.92833364              -16.67732615                0.93401313              -23.10707907               -1.51153393
              32.81408710               12.63932437               86.02927076                0.33697809                6.77633355                8.18425931              -26.43853981                0.99024645              -15.30809138               -1.37198516
              33.90050446               12.16356604               85.45483777                0.66956282                8.64173626               10.38434127              -34.52496554                0.94377535               -7.98363821               -0.11768099
              18.93547728                7.48152297               93.30322252                0.98878782               -0.02551413               -0.00500844                0.08863361               -0.01692617               -0.42106557                0.39152167
              19.93522214                6.93323803               92.90201369                0.97909154               -0.02198763               -0.03046936                0.11663251               -0.02156282               -0.57497680                0.06020452
              20.93503753                6.38504859               92.49775819                0.95707147               -0.02723285               -0.06173706                0.18026588               -0.01341987               -0.61987278               -0.04421217
              21.93467748                5.83740881               92.09518581                0.67879951               -0.06510676               -0.05367892                0.19741191                0.01551496               -0.59025961               -0.22545777
              22.93373539                5.29039218               91.69080688                0.68310393               -0.11577309               -0.03795717                0.26017735                0.01628623               -0.44180499               -0.10032757
              23.93236202                4.74373051               91.28978957                0.70285342               -0.13428621               -0.03055476                0.24085404                0.01852504               -0.09707041               -0.06853302
              24.93104967                4.19720884               90.89122959                0.74482711               -0.11431147               -0.00797767                0.15621766                0.01443355                0.14780927               -0.05890472
              25.93007579                3.65084476               90.49449441                0.82183641               -0.06351452                0.02309688                0.02405960                0.01127139                0.27440427               -0.06169831
              26.92977938                3.10460539               90.09817366                0.97527218                0.00965835                0.05704073               -0.14616312               -0.00071735                0.21132062               -0.05375021
              27.93026896                2.55838470               89.69999776                0.97920655                0.07516392                0.09363137               -0.29351872               -0.01312087                0.07194034               -0.02091574
              28.93128266                2.01216844               89.30118541                0.99189826                0.10136985                0.13215973               -0.43960883               -0.01500780                0.00067999               -0.12489115
              19.48359296                8.48147288               93.16231485                0.97780984               -0.03492563                0.02302812                0.06120590               -0.02736459               -0.10899678                0.53498190
              20.48324370                7.93293333               92.76106595                0.94995948               -0.03875095               -0.01930360                0.08858973               -0.03384219               -0.16669809                0.08893685
              21.48281794                7.38443122               92.35889130                0.95082789               -0.05414322               -0.05861646                0.13515174               -0.00481529               -0.18417189               -0.12993903
              22.48216084                6.83687202               91.95724216                0.95009062               -0.10402663               -0.02778246                0.17239315                0.01051312               -0.11856925               -0.16055937
              23.48073741                6.29001261               91.55610797                0.94959935               -0.15109481               -0.02432328                0.21702737                0.01693967                0.01876317               -0.06377777
              24.47913894                5.74342496               91.15696538                0.95144032               -0.15502642               -0.01819406                0.20511340                0.01880817                0.22640538               -0.03955677
              25.47763688                5.19712906               90.75971213                0.95435824               -0.13243559                0.00015893                0.13903171                0.02142481                0.40604857               -0.03034713
              26.47649023                4.65107573               90.36397644                0.95739366               -0.08173206                0.02764279                0.02161328                0.02197468                0.51296249               -0.03785271
              27.47600224                4.10517580               89.96878607                0.95927317               -0.00670023                0.06008623               -0.13946165                0.01516789                0.46287063               -0.05543039
              28.47635623                3.55932102               89.57204691                0.96280012                0.06733000                0.09562257               -0.29609660                0.00540027                0.27239913               -0.03558658
              29.47734884                3.01349004               89.17333088                0.98455095                0.09926120                0.13231848               -0.43485776                0.00555250                0.13746373               -0.15886636
              20.03200908                9.48198353               93.02444119                0.97980053               -0.04221227                0.07400624                0.01843289               -0.01777610               -0.03562329                0.70294025
              21.03158696                8.93285196               92.62078111                0.94790483               -0.05032741               -0.00353980                0.05229262               -0.00613896                0.00976338                0.10995333
              22.03100254                8.38387626               92.21841607                0.00010000               -0.11403031               -0.08424345                0.09437624                0.12996217                0.27821020               -0.40951629
              23.02930636                7.83685316               91.82041990                0.00010000               -0.17406449                0.31459337                0.14478644                0.03401230                0.41941117                0.74988329
              24.02752125                7.28990571               91.42182803                0.00010000               -0.18423135                0.27792514                0.17393744               -0.84532244                0.40296870                0.26487491
              25.02562173                6.74336663               91.02424430                0.00010000               -0.18469255               -0.10552138                0.17349069               -1.88573306                0.51232868               -1.92199118
              26.02382740                6.19721202               90.62825867                0.00010000               -0.15765899               -0.79313255                0.12328728               -2.70108807                0.65649733               -5.64257994
              27.02246855                5.65139762               90.23364126                0.00010000               -0.09949703               -1.73659497                0.01813315               -2.93799938                0.75387230              -10.54660297
              28.02183745                5.10580712               89.83945102                0.00010000               -0.02029125               -2.89603110               -0.13158858               -2.23461492                0.73524498              -16.04708953
              29.02206272                4.56029715               89.44434528                0.00010000                0.06091000               -4.16907550               -0.30339360               -0.15893814                0.51172634              -21.21101909
              30.02305566                4.01481481               89.04585228                0.34249729                0.09929314               -6.01213554               -0.43896807                3.86684391                0.31236842              -24.95119923
              20.58150058               10.48295301               92.88675716                0.97908363               -0.02723878                0.10236437               -0.01908275                0.00967838                0.01319839                0.70056711
              21.58122819                9.93286254               92.48021262                0.82715153               -0.00423019               -0.00753380                0.01927187                0.02384379                0.01559742                0.03377367
              22.58141598                9.38274635               92.07399762                0.00010000               -0.22082824               -0.12394629                0.03759232                0.58383252                1.65846376               -0.69859869
              23.57681163                8.84316389               91.70010242                0.00010000               -1.20492435                0.36979576                2.27356681                0.43066183                2.40930934                1.82650848
              24.55731749                8.29557111               91.29308863                0.00010000               -2.13468271                0.32792372                2.94505838               -1.55128658               -0.86620493                0.77681741
              25.53411797                7.74131453               90.85314295                0.00010000               -2.08666822               -0.27221544                2.34299351               -3.68462912               -4.18567860               -3.57555750
              26.51558413                7.18126641               90.38396774                0.00010000               -1.24914159               -1.35244309                0.63643964               -5.35938471               -7.00782379              -10.89064495
              27.50913514                6.61634383               89.89265471                0.00010000                0.34131398               -2.85646130               -2.03621303               -6.02231596               -8.82756774              -20.49600711
              28.52241041                6.04725518               89.39027174                0.00010000                2.75173118               -4.73023492               -5.47394890               -5.10408748               -8.93471353              -31.35208310
              29.56416977                5.47593951               88.89335715                0.00010000                6.16199939               -6.95175367               -9.23160551               -2.69957478               -6.35858866              -41.93412460
              30.64565039                4.89324733               88.42310958                0.33540242                8.14806270               -8.96633589              -12.44616831                1.33703977               -2.37995573              -50.83834080
              21.13238359               11.48403082               92.74856838                0.97748659               -0.01130917                0.09736294               -0.04609262                0.01364307               -0.00278809                0.65282394
              22.13227050               10.93270128               92.33832265                0.80113792               -0.00028759               -0.01373539                0.01414213                0.02595898               -0.00595816               -0.05690317
              23.13237784               10.38139733               91.92817451                0.00010000               -0.35878331               -0.12343579                0.07274262                0.72383891                2.37047330               -0.78294886
              24.12509483                9.84424908               91.56536726                0.00010000               -1.70164837               -0.07057817                3.58842646                0.75658343                3.25934074                1.08619440
              25.09834487                9.29646419               91.14715766                0.00010000               -2.94304935               -0.15071026                4.66104336               -0.80519347               -1.90220801               -0.00071635
              26.06623384                8.73792232               90.67047667                0.00010000               -2.83672333               -0.43189199                3.53583611               -2.38293864               -7.32301635               -3.93783785
              27.04161040                8.17016316               90.14120650                0.00010000               -1.51001900               -0.89491855                0.49903516               -3.60583697              -11.92313699              -10.34259378
              28.03603346                7.59426839               89.57241152                0.00010000                0.92748155               -1.53553976               -4.18166429               -4.21948970              -14.71884826              -18.67429196
              29.06016003                7.01120242               88.98502345                0.00010000                4.30228062               -2.35124321              -10.11656387               -4.09159573              -14.49047298              -28.16570312
              30.12207908                6.42126208               88.40931351                0.00010000                7.75103830               -3.26174052              -16.54949622               -2.87754741               -9.63326384              -37.86560915
              31.21518080                5.83548810               87.88767932                0.33577300                9.31017237               -3.25265703              -22.02120901               -1.48940239               -4.21432535              -46.19827262
              21.68443251               12.48490026               92.60976791                0.97636824               -0.00516574                0.07537015               -0.06184738                0.01366263               -0.00730859                0.60317372
              22.68438086               11.93258783               92.19594056                0.81049658               -0.00437777               -0.00904269                0.01883050                0.01958614               -0.01783625               -0.08677302
              23.68434496               11.38027763               91.78202882                0.00010000               -0.37522074               -0.09516623                0.10561795                0.69543232                2.80998324               -0.77906087
              24.67687644               10.84175232               91.42466993                0.00010000               -1.84022907               -0.40383106                4.48389952                0.89124619                3.79297807                0.56106356
              25.64754038               10.29255690               90.99458620                0.00010000               -3.20581049               -0.58365430                5.74103573               -0.32472981               -2.65282273               -0.54690491
              26.61276023                9.73267669               90.48695255                0.00010000               -3.02095325               -0.59208611                4.14883837               -1.48745177               -9.35980400               -3.96631650
              27.58712131                9.16336804               89.90916079                0.00010000               -1.45270731               -0.44986397                0.05369915               -2.42090202              -14.99698708               -9.38893303
              28.58370609                8.58563304               89.27888672                0.00010000                1.32317462               -0.18496013               -6.18144546               -3.05349759              -18.29626630              -16.40714091
              29.61358480                8.00023031               88.62439633                0.00010000                4.93135277                0.19284363              -14.04072956               -3.23815888              -17.75221132              -24.51021340
              30.68233314                7.41070470               87.98633536                0.00010000                8.69127538                0.82408151              -22.57010507               -2.53469151              -11.68693682              -32.96461122
              31.78741031                6.82819419               87.41802151                0.33578243               10.50771713                1.54095063              -30.14117814               -1.21914009               -5.27662388              -40.72274081
              22.23728171               13.48553822               92.47061276                0.97570942                0.00031428                0.05434448               -0.07250544                0.01036209               -0.00733954                0.56673308
              23.23728485               12.93252043               92.05336803                0.82147036               -0.00798612               -0.00578046                0.02441672                0.01495612               -0.01581834               -0.09467854
              24.23712199               12.37949401               91.63604230                0.00010000               -0.33221859               -0.06680091                0.12717716                0.48967768                3.16444680               -0.74728167
              25.23064048               11.83617245               91.28231611                0.00010000               -1.80980424               -0.67928716                5.10947470                0.66142704                4.28050843                0.07951462
              26.20092590               11.28479110               90.84231326                0.00010000               -3.24834054               -0.92102808                6.45789305               -0.14686773               -3.04641486               -0.99467593
              27.16567367               10.72608060               90.31015764                0.00010000               -3.03449423               -0.68668728                4.48103997               -0.89423362              -10.59849412               -3.81614975
              28.14023602               10.16116588               89.69452444                0.00010000               -1.37862161                0.01443798               -0.42721562               -1.53371086              -16.89286966               -8.15110347
              29.13810124                9.59056919               89.01649800                0.00010000                1.50445903                1.11701716               -7.84605544               -2.04628797              -20.50973649              -13.73418729
              30.17032520                9.01505929               88.30978998                0.00010000                5.26600656                2.56550090              -17.18117673               -2.26674538              -19.81343023              -20.20687997
              31.24342137                8.43774371               87.62186242                0.00010000                9.27469037                4.25083832              -27.39044688               -1.76034290              -12.98339875              -27.05310865
              32.35581901                7.86630711               87.01377193                0.33621704               11.23976371                5.80411376              -36.73403275               -0.89606054               -5.95538571              -33.48708987
              22.79067534               14.48598715               92.33121750                0.97522930                0.00488491                0.03930666               -0.08211986                0.00663071               -0.00575614                0.53302637
              23.79072419               13.93247222               91.91072820                0.82035737               -0.00944293               -0.00465009                0.02731070                0.01035477               -0.01017321               -0.09392479
              24.79048648               13.37894161               91.49021345                0.00010000               -0.29581510               -0.04956523                0.14182868                0.14252042                3.57449021               -0.71921868
              25.78480789               12.82816658               91.14131754                0.00010000               -1.78958014               -0.88749049                5.57952492                0.14565154                4.94028876               -0.35262341
              26.75469488               12.27413634               90.69550772                0.00010000               -3.31535528               -1.17360747                7.01752815               -0.20379621               -3.03493650               -1.33792442
              27.71850078               11.71894295               90.14607614                0.00010000               -3.13681894               -0.71797245                4.78435109               -0.48492050              -11.22482991               -3.47531467
              28.69195850               11.16365680               89.50267278                0.00010000               -1.48069358                0.46411339               -0.70109736               -0.79651794              -18.04715937               -6.63254590
              29.68888691               10.60797338               88.78897346                0.00010000                1.45584386                2.24071699               -8.98281446               -1.12805510              -21.97192623              -10.66220258
              30.72107538               10.05154033               88.04287287                0.00010000                5.34957774                4.46989969              -19.41490827               -1.29988507              -21.22753392              -15.32713284
              31.79587847                9.49572146               87.31712773                0.00010000                9.56434626                6.95628174              -30.89123860               -1.02153797              -13.88439930              -20.20088247
              32.91236230                8.94427647               86.67853815                0.33624539               11.64838375                9.34152721              -41.58508433               -0.55579810               -6.43236644              -24.68590504
              23.34444419               15.48632435               92.19158946                0.97468760                0.00932981                0.03256597               -0.09360992                0.00241762                0.00155074                0.48758376
              24.34453749               14.93242742               91.76808500                0.83382626               -0.00830782               -0.00418188                0.02489745                0.00544404               -0.00727892               -0.09290495
              25.34427803               14.37850270               91.34444740                0.00010000               -0.30893536               -0.04229860                0.14777333               -0.30339186                4.19659379               -0.61885572
              26.33835878               13.81842265               91.00489551                0.00010000               -1.91022118               -1.06840234                6.02179651               -0.55038805                6.03070021               -0.63467933
              27.30607361               13.26131895               90.55924604                0.00010000               -3.59519902               -1.40853899                7.63856065               -0.33434368               -2.53765653               -1.44000831
              28.26645480               12.71172115               90.00035026                0.00010000               -3.53991922               -0.71022795                5.31658159               -0.17437576              -11.35150981               -2.85580149
              29.23527523               12.17044814               89.33832346                0.00010000               -1.93990988                0.84503003               -0.52726592               -0.21029457              -18.80029531               -4.78802629
              30.22765660               11.63538353               88.59921785                0.00010000                1.06520954                3.08250074               -9.39812870               -0.39965052              -23.14897809               -7.26004685
              31.25657942               11.10445729               87.82456808                0.00010000                5.12989360                5.81981909              -20.59963943               -0.54801804              -22.45632528              -10.11776123
              32.33025448               10.57686934               87.07223014                0.00010000                9.55068088                8.83659793              -32.94974999               -0.45326696              -14.67813613              -12.94507818
              33.44759304               10.05313765               86.41423665                0.33682278               11.73385590               11.86178627              -44.53428074               -0.31260427               -6.88427191              -15.06719229
              23.89851755               16.48663847               92.05150881                0.97365534                0.01371713                0.03347494               -0.10778613               -0.00087824                0.03320275                0.37017187
              24.89865472               15.93238858               91.62539608                0.67298424               -0.00470626               -0.00300429                0.01473197                0.00142968                0.08168170               -0.10878071
              25.89842342               15.37809564               91.20028838                0.00010000               -0.38354212               -0.03926812                0.13915349               -0.84743470                5.25856119               -0.48367897
              26.89098388               14.80679853               90.87756815                0.00010000               -2.18569604               -1.50299341                6.63928257               -0.87291746                7.84044991               -0.42650360
              27.85470950               14.24596556               90.44038065                0.00010000               -4.25499020               -1.59802859                8.64687789               -0.32932949               -1.31634988               -1.17033026
              28.80588407               13.70473839               89.87892208                0.00010000               -4.53096380               -0.68417836                6.38382475                0.03590737              -11.16610936               -1.77585607
              29.76409023               13.18055740               89.20577610                0.00010000               -2.94996572                1.08569295                0.35387293                0.08214350              -19.54564926               -2.58669610
              30.74688476               12.66962340               88.44898749                0.00010000                0.22694883                3.55623926               -8.90524479               -0.02688738              -24.57300999               -3.66770105
              31.76862920               12.16793671               87.65335897                0.00010000                4.56239998                6.55138826              -20.63602172               -0.14974949              -24.09819738               -4.94189662
              32.83813276               11.67245342               86.88224791                0.00010000                9.24721989                9.83454926              -33.55612786               -0.15159548              -15.79013845               -6.11488638
              33.95357360               11.18151219               86.21639784                0.33637279               11.54408421               13.21132160              -45.57997253               -0.20941091               -7.54363547               -6.18156447
              24.45292641               17.48699385               91.90973176                0.98663565                0.01825082                0.03553767               -0.12251522               -0.02176542                0.18758960                0.27693713
              25.45310892               16.93236734               91.48236915                0.77715622               -0.00035093               -0.00212453               -0.00027222               -0.01840600                0.28206590               -0.12167415
              26.45291939               16.37771734               91.05692565                0.33362524               -0.00392022               -0.03783011                0.12662252               -1.75063156                7.37388969               -0.43072774
              27.45303051               15.78836278               90.77121662                0.33192629               -2.56861112               -1.84357580                8.00540995               -1.21328469               12.01162620               -1.57648324
              28.40154717               15.22935838               90.34734916                0.33194894               -6.02247007               -1.66071828               10.51179233                0.16750654                0.50610115               -1.87643694
              29.33258111               14.69803758               89.78849031                0.33232925               -6.47570380               -0.67008087                8.38702410                0.80988481              -11.12110780               -1.93123008
              30.27203309               14.19216200               89.10853485                0.33235160               -4.64207831                1.16046025                2.22254879                1.21782308              -20.90462186               -1.94665444
              31.23973954               13.70650832               88.33827266                0.33276628               -1.06393432                3.68849200               -7.34002662                1.45163076              -26.89486392               -1.99805394
              32.25075440               13.23548505               87.52519874                0.33360475                3.69537728                6.75483368              -19.47786130                1.56512073              -26.97304848               -2.02795662
              33.31364709               12.77356033               86.73560945                0.33511102                8.72664351               10.11069100              -32.85634032                1.64538472              -18.35422913               -1.89238460
              34.42528727               12.31736409               86.06283931                0.66838373               11.16401848               13.58518938              -45.12292068                1.55174280               -9.69145788               -0.37717903
              19.33252444                7.62637498               94.30432913                0.98858164               -0.02579759               -0.01113313                0.12413657               -0.02687594               -0.38605441                0.36905710
              20.33226647                7.07491506               93.90321527                0.97785801               -0.01154095               -0.03370814                0.12059783               -0.03373740               -0.51709693                0.05735698
              21.33229363                6.52368288               93.49947737                0.93084797                0.00097785               -0.06673450                0.15884284               -0.01802930               -0.57083356               -0.05092081
              22.33228603                5.97335791               93.09689803                0.69219508               -0.00844106               -0.04760073                0.15147204                0.04461048               -0.54231978               -0.19723425
              23.33212480                5.42437175               92.69301718                0.70082887               -0.04562314               -0.02839792                0.19000049                0.04070532               -0.40175912               -0.08750395
              24.33137356                4.87610726               92.29175608                0.71733027               -0.08231775               -0.01372729                0.16306034                0.03713491               -0.11362735               -0.05828856
              25.33047845                4.32829870               91.89240693                0.74769959               -0.08033572                0.00921893                0.09037325                0.03405595                0.09763123               -0.04676941
              26.32976685                3.78080631               91.49449635                0.80329199               -0.04584479                0.03267532               -0.01346023                0.02884329                0.20963328               -0.05154668
              27.32956155                3.23349123               91.09686122                0.94399799                0.00800876                0.04907443               -0.12077309                0.01245826                0.14895538               -0.04776803
              28.32992702                2.68615891               90.69755851                0.97531231                0.05300723                0.06733856               -0.20756010               -0.00220159                0.02791271               -0.02132122
              29.33062170                2.13880250               90.29767180                0.98857985                0.06946744                0.08721776               -0.28909270               -0.00414998               -0.02863319               -0.11560598
              19.88371560                8.62626365               94.16315371                0.97751262               -0.04404614                0.02382141                0.09876442               -0.03457793               -0.09087558                0.50855298
              20.88327514                8.07457798               93.76200043                0.94905603               -0.04118476               -0.01993044                0.09497223               -0.04511970               -0.13326918                0.08351635
              21.88289191                7.52301554               93.36014543                0.94930627               -0.04437226               -0.06221441                0.11475542               -0.00407397               -0.14162268               -0.13260088
              22.88238770                6.97288190               92.95872742                0.94840288               -0.08673657               -0.01178827                0.12940382                0.03057611               -0.07329831               -0.13814494
              23.88115718                6.42408777               92.55793603                0.94789214               -0.13031307               -0.00655588                0.15359292                0.03649215                0.05190315               -0.06015862
              24.87978144                5.87596999               92.15862329                0.94945347               -0.13438465                0.00315764                0.13310910                0.03490344                0.22171074               -0.03843276
              25.87846948                5.32839089               91.76074769                0.95211146               -0.11612103                0.01924828                0.07547992                0.03546234                0.36987219               -0.02989538
              26.87745902                4.78113307               91.36397009                0.95453990               -0.07298239                0.03779358               -0.01498794                0.03067258                0.45254732               -0.03601887
              27.87700984                4.23398197               90.96746300                0.95484284               -0.01048224                0.05391013               -0.12492943                0.01876124                0.39575335               -0.04999779
              28.87724937                3.68683230               90.56950991                0.95440103                0.04633850                0.07108842               -0.21859884                0.00759678                0.22296424               -0.03415702
              29.87793661                3.13967468               90.16978832                0.97796318                0.06872360                0.08830724               -0.29375883                0.00806460                0.10742176               -0.14047967
              20.43520422                9.62685141               94.02484737                0.97942666               -0.05920396                0.08437259                0.05573840               -0.01978324               -0.02549266                0.67176250
              21.43461218                9.07451645               93.62134749                0.94798380               -0.06479995               -0.00041095                0.05889290               -0.00467931                0.02954740                0.10069106
              22.43390823                8.52243859               93.21924452                0.00010000               -0.13934340               -0.09612757                0.07284877                0.17924390                0.31487490               -0.41875536
              23.43182532                7.97312214               92.82165238                0.00010000               -0.20708361                0.92590817                0.10165588                0.66679858                0.46736766                2.03783863
              24.42976655                7.42424063               92.42326929                0.00010000               -0.20284023                0.96451920                0.11491028               -0.08798467                0.44298607                1.93384061
              25.42776851                6.87617042               92.02564156                0.00010000               -0.18709657                0.44122298                0.10688832               -1.14994804                0.53230853               -0.56924030
              26.42602462                6.32868366               91.62917785                0.00010000               -0.14896489               -0.54478230                0.06329919               -2.04684300                0.64178529               -5.19835434
              27.42478921                5.78156218               91.23362757                0.00010000               -0.08935370               -1.93235812               -0.01606141               -2.35995522                0.70007520              -11.53040468
              28.42423755                5.23456943               90.83814872                0.00010000               -0.02014808               -3.71342811               -0.12250308               -1.58430878                0.65587356              -18.89495041
              29.42438625                4.68758068               90.44165516                0.00010000                0.04303377               -5.83368580               -0.23569181                1.00710737                0.44506372              -26.15853469
              30.42509822                4.14056865               90.04218417                0.33711770                0.07119708               -9.30950979               -0.30681971                6.55988166                0.26850952              -31.75624522
              20.98798985               10.62795110               93.88676817                0.97884304               -0.03954823                0.11252590                0.01556614                0.01748263                0.01206709                0.67521311
              21.98759437               10.07456976               93.48043305                0.87392555               -0.00593773               -0.00509194                0.02420224                0.03303557                0.00847959                0.03935528
              22.98787110                9.52109298               93.07423318                0.00010000                0.31636319               -0.13316122                0.01454482                1.25972813                2.94793292               -0.66997765
              23.99392163                8.99140006               92.72653445                0.00010000               -0.57609453                1.13655155                3.08038077                2.14274890                4.80976414                4.44802474
              24.97634921                8.44337815               92.32760429                0.00010000               -2.07910960                1.25527193                4.02534735               -0.08013862                0.39208516                4.10138428
              25.95233944                7.88479445               91.88143250                0.00010000               -2.21041743                0.42968914                3.38564208               -2.32289352               -3.83619560               -0.90576665
              26.93214086                7.31749524               91.39378069                0.00010000               -1.39826489               -1.12755538                1.42946217               -4.16397541               -7.51480258               -9.99656119
              27.92437414                6.74248590               90.87303403                0.00010000                0.35821543               -3.34761913               -1.75349042               -5.02802023              -10.23320169              -22.37249707
              28.93930517                6.15971341               90.33195468                0.00010000                3.35090795               -6.23754107               -6.10059167               -4.19253364              -11.08811606              -36.89512826
              29.99139230                5.57015858               89.79154026                0.00010000                8.19265692               -9.95635731              -11.23605209               -1.93672177               -8.43950698              -51.79252314
              31.10315831                4.95348448               89.28273760                0.33359262               11.17660023              -14.02749619              -16.06129628                2.84899490               -3.36651057              -65.65433267
              21.54231656               11.62910192               93.74828379                0.97740142               -0.01855477                0.10034763               -0.01505070                0.02187544               -0.00177316                0.63682243
              22.54213101               11.07441461               93.33847025                0.84250282               -0.00220362               -0.01172870                0.01567303                0.03860760               -0.00302652               -0.03180027
              23.54227249               10.51977537               92.92875565                0.00010000                0.51320594               -0.11658610                0.04689774                1.56316906                4.41778561               -0.70797324
              24.55239513                9.99585317               92.60729817                0.00010000               -0.37515471                0.00539815                4.88621973                2.49085500                7.10271344                3.10754945
              25.53476939                9.44934607               92.20212592                0.00010000               -2.26007881               -0.03804311                6.41161287                0.68863696                0.35495018                2.53597345
              26.50719355                8.88476420               91.71374969                0.00010000               -2.48578646               -0.45599338                5.19523364               -0.85542702               -6.40727250               -2.02337291
              27.48505366                8.30613256               91.15149855                0.00010000               -1.25914561               -1.17311767                1.68052686               -2.01493640              -12.25518662               -9.95705763
              28.48201064                7.71460980               90.53098613                0.00010000                1.38302684               -2.19034244               -3.93985022               -2.69265294              -16.31069081              -20.63152291
              29.51271420                7.10981861               89.87659467                0.00010000                5.49350521               -3.55833156              -11.48174038               -2.87698429              -17.03558191              -33.25255152
              30.59188074                6.48845353               89.22622026                0.00010000               10.13560581               -5.25242418              -20.28819017               -2.25336536              -11.84466219              -46.91751110
              31.71542631                5.86001872               88.63855519                0.33374867               12.35455706               -5.67207996              -28.56584251               -1.31645883               -5.31744067              -60.04717484
              22.09780199               12.62995805               93.60930646                0.97634651               -0.01089100                0.07151918               -0.03354518                0.02123040               -0.00514789                0.59623397
              23.09769308               12.07433518               93.19612190                0.84005030               -0.00530340               -0.00561618                0.01810200                0.03110926               -0.01135742               -0.05753836
              24.09769592               11.51876126               92.78291171                0.00010000                0.82374789               -0.08315202                0.07494743                1.43641448                5.35792455               -0.71400325
              25.11416803               10.99150802               92.47703676                0.00010000                0.17574989               -0.78523511                6.07575361                2.42954744                8.63091230                2.06430091
              26.10121092               10.44261729               92.06230110                0.00010000               -1.78618107               -1.17538413                7.86079016                1.00415839                0.33973298                1.25851874
              27.07844441                9.87567458               91.53799206                0.00010000               -1.96071938               -1.28589502                6.10412781               -0.05246971               -7.86868766               -2.72770801
              28.06199653                9.29403289               90.91565957                0.00010000               -0.58046912               -1.18894383                1.33780886               -0.84359768              -14.88188120               -9.42357886
              29.06683503                8.69867905               90.21646023                0.00010000                2.29626104               -0.94311182               -6.16511473               -1.54320017              -19.55662169              -18.37500932
              30.10792175                8.08854678               89.47326592                0.00010000                6.46449258               -0.57769743              -16.13928874               -2.14031487              -20.04178635              -29.12922946
              31.19612488                7.46511010               88.73626569                0.00010000               11.28884995                0.15325646              -27.77097253               -2.13054879              -13.73954489              -41.05575916
              32.33369875                6.84004288               88.07651367                0.33376518               13.75738663                1.19988273              -39.19364121               -1.08905208               -6.30492038              -53.19708153
              22.65398690               13.63053231               93.47003362                0.97568505               -0.00369159                0.04632647               -0.04575820                0.01592521               -0.00470375                0.56441278
              23.65394998               13.07430229               93.05359575                0.83836858               -0.00794823               -0.00265385                0.02199936                0.02437995               -0.00929659               -0.06901987
              24.65382793               12.51811233               92.63713419                0.00010000                1.15900339               -0.05294368                0.09521409                0.92799994                6.05127485               -0.69567721
              25.67713005               11.98014847               92.34182737                0.00010000                0.84290324               -1.41593750                6.86402425                1.64211648                9.81463180                1.05552769
              26.67068600               11.42583838               91.91828998                0.00010000               -1.12007456               -2.07073982                8.76273355                0.80047140                0.49604159                0.09895383
              27.65472856               10.85904630               91.36530732                0.00010000               -1.27543810               -1.93229687                6.55054947                0.27514905               -8.60984735               -3.20833321
              28.64517724               10.28235368               90.69625624                0.00010000                0.09520925               -1.08251133                0.82179219               -0.16647109              -16.30626982               -8.53590441
              29.65663274                9.69574757               89.93624185                0.00010000                2.91498110                0.34696785               -8.10773471               -0.73720056              -21.34295869              -15.62953022
              30.70347686                9.09826466               89.12426595                0.00010000                7.05704593                2.29033108              -19.92706263               -1.35102191              -21.77242024              -24.20986798
              31.79777366                8.49151866               88.31804862                0.00010000               12.01514193                4.67336831              -33.78660911               -1.41683641              -14.85368216              -33.86703187
              32.94377970                7.88401638               87.59732537                0.33428774               14.60060344                7.11559712              -47.76773782               -0.79879441               -6.90817246              -43.83091604
              23.21058053               14.63088458               93.33053491                0.97515738                0.00201240                0.02909627               -0.05650035                0.01010292               -0.00240869                0.53150847
              24.21060065               14.07428211               92.91097619                0.82486777               -0.00853974               -0.00207191                0.02337391                0.01672002               -0.00347625               -0.07491187
              25.21040974               13.51770239               92.49144428                0.00010000                1.43418263               -0.03527640                0.10904244                0.11722149                6.70841163               -0.68016095
              26.23928431               12.96318927               92.20603804                0.00010000                1.39563885               -1.92652551                7.41470518                0.30190935               10.99487421                0.11251594
              27.23832251               12.40120249               91.77769576                0.00010000               -0.59261036               -2.78818925                9.40940177                0.20787561                0.95430287               -0.91357453
              28.22743210               11.83702865               91.20467263                0.00010000               -0.81783359               -2.39248956                6.89561694                0.36570182               -8.81007247               -3.42048081
              29.22196584               11.27238266               90.50158068                0.00010000                0.43739685               -0.86853486                0.49202221                0.33093339              -17.05782631               -7.26463561
              30.23618004               10.70561841               89.69641927                0.00010000                3.15821866                1.52691808               -9.46603693               -0.02780447              -22.46116985              -12.35097785
              31.28513021               10.13435340               88.83280346                0.00010000                7.29282002                4.61973349              -22.63998521               -0.51824143              -22.94345991              -18.52215958
              32.38203644                9.55857746               87.97427327                0.00010000               12.37986075                8.21579885              -38.14767276               -0.69859763              -15.63983357              -25.40630350
              33.53272743                8.98235483               87.20709473                0.33451437               15.06909920               11.89583107              -54.00923251               -0.45368548               -7.34123090              -32.38166086
              23.76739390               15.63111423               93.19078364                0.97454668                0.00726710                0.02240445               -0.06930531                0.00373228                0.00538491                0.48487806
              24.76746657               15.07426085               92.76829810                0.82546761               -0.00643534               -0.00171722                0.01881157                0.00866689               -0.00041099               -0.08273233
              25.76726520               14.51740680               92.34573261                0.00010000                1.61007797               -0.02852063                0.11329010               -0.93673763                7.56194434               -0.59533792
              26.79966813               13.94161796               92.07438890                0.00010000                1.68694713               -2.45245408                7.90405640               -1.41723170               12.57805036               -0.60449387
              27.80100414               13.37007460               91.64816304                0.00010000               -0.44028530               -3.47753724               10.10043500               -0.41185801                1.89973849               -1.54718160
              28.79086243               12.81119651               91.06476684                0.00010000               -0.88989998               -2.67628770                7.49350492                0.41498637               -8.53420197               -3.19593365
              29.78320614               12.26498298               90.33920982                0.00010000                0.16217434               -0.60021865                0.68499533                0.69899266              -17.50322358               -5.49409578
              30.79410591               11.72628593               89.50223567                0.00010000                2.84734199                2.45822121               -9.95869532                0.49115439              -23.43656820               -8.57484463
              31.84015298               11.19065933               88.60155823                0.00010000                7.08471849                6.28738123              -24.06113897                0.09805828              -24.07029159              -12.33961184
              32.93580028               10.65583464               87.70652674                0.00010000               12.34991403               10.66136332              -40.67853173               -0.15316130              -16.40220355              -16.36584409
              34.08715126               10.12193300               86.90948369                0.33445302               15.13509753               15.25669277              -57.75439319               -0.21974510               -7.79184974              -19.89553997
              24.32436194               16.63133267               93.05055368                0.97347227                0.01194816                0.02462028               -0.08453560               -0.00091653                0.03432581                0.36735226
              25.32448143               16.07424776               92.62548887                0.65824776               -0.00220346               -0.00006259                0.00515833                0.00222589                0.08544195               -0.10624585
              26.32431787               15.51713198               92.20148160                0.00010000                1.68952241               -0.02701672                0.10362143               -2.28803170                8.96033557               -0.47280425
              27.35827187               14.91414019               91.95379228                0.00010000                1.80944641               -3.63726232                8.61225077               -2.26847477               15.06432108               -0.54215871
              28.36050680               14.33165175               91.54038582                0.00010000               -0.87242139               -3.96245396               11.28442069               -0.61357530                3.74449917               -1.53116973
              29.34082345               13.78350289               90.95514137                0.00010000               -1.98252631               -2.76321231                8.76173355                0.42751518               -7.98122997               -2.18337654
              30.32085628               13.26037829               90.21652038                0.00010000               -1.02483351               -0.36672622                1.75602209                0.66788843              -18.10345303               -3.09659583
              31.32032678               12.75478284               89.35770557                0.00010000                1.83431958                3.01241394               -9.32109450                0.52961959              -24.89179028               -4.41537896
              32.35754267               12.26010103               88.43029324                0.00010000                6.36863839                7.19774801              -24.03441139                0.25244722              -25.84821552               -6.08548168
              33.44769954               11.77180473               87.51013604                0.00010000               11.92965699               11.94594736              -41.34430298                0.04746574              -17.62969506               -7.77832356
              34.59613581               11.28748868               86.70003386                0.33487969               14.84362642               17.06032619              -59.02323007               -0.17838825               -8.52662062               -8.29891133
              24.88154539               17.63160664               92.90862962                0.98653116                0.01663993                0.02739692               -0.09861393               -0.01635989                0.18380766                0.27498981
              25.88171179               17.07425960               92.48229902                0.77024880                0.00333735                0.00118347               -0.01173174               -0.01397266                0.28320743               -0.12253861
              26.88161213               16.51686647               92.05799143                0.33315339                2.90335410               -0.02655106                0.09146808               -4.53991846               11.85838712               -0.42609603
              27.93977887               15.86887271               91.86298577                0.33210948                1.88789004               -4.52674808               10.36905294               -3.15134791               20.95968693               -2.39068575
              28.91936993               15.29082552               91.46844206                0.33209916               -3.45463376               -4.08262270               13.64105733                0.23929062                6.30550575               -2.72329411
              29.87068619               14.75593226               90.88729297                0.33219400               -4.70429844               -2.75706299               11.26830781                1.32742142               -7.80207785               -2.69234510
              30.82528396               14.25764846               90.14039969                0.33222799               -3.28553116               -0.27298303                4.10369270                1.97286599              -19.69825545               -2.63471043
              31.80497557               13.78653421               89.26488137                0.33166575                0.14480329                3.17513698               -7.30468890                2.31317098              -27.66060735               -2.67471946
              32.82818003               13.33461429               88.31570082                0.33254785                5.21931871                7.45132655              -22.45932043                2.47470528              -29.30340895               -2.73296919
              33.90936194               12.89475359               87.37214395                0.33349546               11.20177792               12.29488569              -40.28407423                2.59250151              -20.74146291               -2.62345816
              35.05221559               12.46313952               86.55237936                0.66732614               14.28536462               17.56508404              -58.26748824                2.44657178              -11.15047356               -0.84818394
              19.72998391                7.77125494               95.30570526                0.98831789               -0.02519481               -0.01292420                0.14270738               -0.03419863               -0.34906133                0.34496212
              20.72973196                7.21681485               94.90442564                0.97662934               -0.00229044               -0.03434053                0.11781032               -0.04258055               -0.45727638                0.05295956
              21.72993810                6.66269405               94.50093505                0.92483907                0.02796589               -0.06820022                0.12896322               -0.01843486               -0.51152409               -0.05552131
              22.73029128                6.10980535               94.09821525                0.71699906                0.04520326               -0.04505750                0.11560530                0.06681712               -0.48532827               -0.16882808
              23.73084216                5.55880440               93.69460689                0.72058020                0.02042266               -0.02470718                0.13684762                0.05499119               -0.36642673               -0.07748969
              24.73069973                5.00883031               93.29305078                0.72345806               -0.02900668               -0.00594889                0.10719063                0.04555321               -0.13417521               -0.05402370
              25.73026203                4.45959193               92.89303705                0.73245815               -0.04427797                0.01683098                0.04743154                0.04435156                0.04308246               -0.04311245
              26.72981417                3.91086635               92.49422520                0.75791431               -0.02828517                0.03577807               -0.03163299                0.04389636                0.14237414               -0.04459134
              27.72969633                3.36244646               92.09575819                0.84864639                0.01012307                0.04418728               -0.11122459                0.02757265                0.09393123               -0.05176612
              28.73001663                2.81405548               91.69584656                0.97326818                0.03935418                0.04857422               -0.15303271                0.00619764               -0.00741088               -0.02565878
              29.73048341                2.26562329               91.29540355                0.98699104                0.04667782                0.05447870               -0.18404935                0.00248517               -0.04571805               -0.10128620
              20.28408201                8.77112570               95.16429013                0.97712477               -0.04954119                0.02746888                0.12094500               -0.03967077               -0.07214866                0.47943243
              21.28358660                8.21647144               94.76296539                0.94813400               -0.04117562               -0.01908472                0.09468555               -0.05324254               -0.09855413                0.07611704
              22.28325850                7.66201205               94.36118641                0.94818471               -0.03411634               -0.06403214                0.09318823               -0.00298092               -0.09485664               -0.13352892
              23.28290427                7.10935478               93.95983024                0.94756139               -0.06894515               -0.00012280                0.09476270                0.04414751               -0.02559524               -0.11533252
              24.28187959                6.55855733               93.55917983                0.94708810               -0.10713867                0.00549337                0.10148213                0.04828324                0.08106995               -0.05520522
              25.28076150                6.00877082               93.15962756                0.94831842               -0.10960332                0.01711509                0.07521446                0.04312603                0.21436660               -0.03870074
              26.27968753                5.45976024               92.76122172                0.95051520               -0.09678162                0.03100010                0.02741345                0.04341826                0.33336770               -0.03155695
              27.27882587                4.91122413               92.36367668                0.95209827               -0.06550210                0.04296187               -0.03479854                0.04065515                0.39417112               -0.03356271
              28.27837749                4.36288834               91.96628748                0.95127236               -0.01678354                0.04849850               -0.10806250                0.02740540                0.33686123               -0.04635925
              29.27849019                3.81454122               91.56767493                0.94922993                0.02814823                0.05203116               -0.15826302                0.00958307                0.17909645               -0.03293854
              30.27894045                3.26616808               91.16745570                0.97446012                0.04502560                0.05586684               -0.19010361                0.00690629                0.07842968               -0.11699359
              20.83849900                9.77180432               95.02555596                0.97897996               -0.07182392                0.09475756                0.07929281               -0.02060847               -0.01475393                0.63568976
              21.83778076                9.21643315               94.62195897                0.94807357               -0.07519257                0.00277189                0.06149114               -0.00223635                0.05008069                0.08893038
              22.83699515                8.66141341               94.21987305                0.00010000               -0.15759072               -0.10881928                0.05481660                0.21922381                0.35163948               -0.42733628
              23.83462894                8.10980290               93.82245301                0.00010000               -0.23016824                1.85619066                0.06179850                1.71161952                0.51375429                3.78557909
              24.83239178                7.55891427               93.42412624                0.00010000               -0.21348014                2.00924150                0.06035690                1.38756358                0.48065685                4.20878875
              25.83035934                7.00917261               93.02638207                0.00010000               -0.18573449                1.31601234                0.04491844                0.58769112                0.54816353                1.37561236
              26.82867709                6.46021193               92.62952466                0.00010000               -0.14300835               -0.03728752                0.01026152               -0.17240066                0.62548792               -4.27352193
              27.82749917                5.91172558               92.23332003                0.00010000               -0.08748758               -1.98443947               -0.03829904               -0.46621188                0.65096313              -12.28718302
              28.82692734                5.36341643               91.83700096                0.00010000               -0.02853108               -4.59908318               -0.09764920                0.35674421                0.58064575              -22.01625956
              29.82692855                4.81509610               91.43963144                0.00010000                0.02202424               -7.95086381               -0.16534511                3.47153512                0.37952022              -32.19283240
              30.82736782                4.26674063               91.03971588                0.33396495                0.04392722              -14.11892102               -0.19626818               11.01370529                0.22459003              -40.64224065
              21.39441216               10.77302085               94.88706848                0.97850916               -0.04793826                0.12123311                0.03899718                0.02441384                0.01165543                0.64360277
              22.39393278               10.21652688               94.48069667                0.92103054               -0.00694662               -0.00283638                0.02797240                0.03860778                0.00327808                0.03991823
              23.39427323                9.65983566               94.07428852                0.00010000                1.28515086               -0.14270388                0.00278492                2.24310957                4.69823777               -0.64310090
              24.41963580                9.14647859               93.76171003                0.00010000                0.79939577                2.30474318                3.97986859                4.90281928                8.20985640                8.00770896
              25.41026115                8.59874216               93.37359558                0.00010000               -1.42090702                2.67862892                5.13555906                2.76065235                2.59363614                8.61121726
              26.39121766                8.03509107               92.92085579                0.00010000               -1.82873010                1.58613421                4.44518622                0.93143785               -2.33730353                2.90420793
              27.37368655                7.45901449               92.41255698                0.00010000               -1.24602674               -0.55344031                2.36178473               -0.64812936               -6.70084174               -8.17275599
              28.36629712                6.87153534               91.85758490                0.00010000                0.42276529               -3.67569224               -1.15544772               -1.54417297              -10.49788575              -23.77385944
              29.38214185                6.27090667               91.26825990                0.00010000                3.91497901               -7.92881452               -6.41489141               -0.93622333              -12.71867350              -42.88039406
              30.44459670                5.65552395               90.66863611                0.00010000               10.68918282              -13.84548348              -13.35301307                0.45898684              -10.69490403              -63.69144288
              31.59592551                4.98378966               90.10188365                0.33152164               15.13288038              -21.29860478              -20.64337884                5.66628579               -4.57789479              -85.22690828
              21.95197521               11.77422898               94.74826737                0.97722769               -0.02371061                0.10271325                0.00775622                0.02907028               -0.00061546                0.61466724
              22.95173810               11.21637643               94.33863611                0.87959017               -0.00347892               -0.01076616                0.01699592                0.04730097                0.00066027               -0.01400446
              23.95190563               10.65855933               93.92911247                0.00010000                2.10203651               -0.11083135                0.02577793                2.79183442                7.18429582               -0.64140516
              24.99377883               10.15589776               93.66309165                0.00010000                2.35433594                0.10152777                6.27104710                5.21985120               12.56501864                5.79785613
              25.99899235                9.61248685               93.27538991                0.00010000               -0.25315309                0.14105309                8.11992947                3.40580626                4.28268066                5.91804753
              26.98871577                9.04089530               92.77438134                0.00010000               -0.98610555               -0.42630833                6.77134290                2.37333113               -3.39519202                0.68050993
              27.97927024                8.44914312               92.17481704                0.00010000               -0.19961202               -1.44378591                2.95631845                1.73227103              -10.13498951               -8.95706961
              28.98472353                7.83821174               91.49361451                0.00010000                2.24720144               -2.93291038               -3.34123748                1.21835986              -15.62471725              -22.32360110
              30.02421427                7.20484014               90.75538864                0.00010000                6.92508882               -5.04661150              -12.49689321                0.53882297              -18.11896607              -38.77550048
              31.12322531                6.53818643               90.00354971                0.00010000               12.99739261               -7.88813979              -24.32797355               -0.21869090              -13.54306612              -57.76513623
              32.28416212                5.84076853               89.31636247                0.33238248               16.09368123               -8.91536390              -36.78566456               -0.49726835               -6.27545288              -78.15883166
              22.51069867               12.77507511               94.60909701                0.97626779               -0.01502220                0.06845225               -0.01176107                0.02805269               -0.00232258                0.58399684
              23.51054845               12.21631156               94.19630260                0.86259182               -0.00550430               -0.00453454                0.01797217                0.04020872               -0.00457455               -0.03543145
              24.51058859               11.65761903               93.78352777                0.00010000                2.97784265               -0.07557175                0.05167041                2.51039152                8.77209320               -0.65758077
              25.57010530               11.14850915               93.54618500                0.00010000                4.13955730               -1.38080156                7.70632163                4.79713398               15.46380436                4.00502536
              26.59337973               10.60156322               93.15180200                0.00010000                1.59613497               -2.05556658                9.82182425                3.32150939                5.47162219                3.61014040
              27.60202800               10.02656490               92.60903510                0.00010000                0.88178960               -2.28309636                7.82932791                2.76851209               -3.62504088               -0.98273842
              28.61101553                9.43013877               91.93591697                0.00010000                1.64696486               -2.23082223                2.59027847                2.51090435              -11.49007317               -9.07171644
              29.63496730                8.81287713               91.15558442                0.00010000                4.09640454               -2.00960955               -5.87491140                1.91722519              -17.64360832              -20.20692039
              30.69294362                8.16997444               90.30161055                0.00010000                8.46635985               -1.67578757              -17.96657601                0.68698891              -20.03245473              -34.15076805
              31.80429450                7.49776115               89.43091591                0.00010000               14.39361637               -0.78954734              -33.45760933               -0.72145344              -14.72277368              -50.63163100
              32.98081594                6.80548238               88.63414868                0.33226254               17.65214460                0.91695953              -50.45120872               -0.48088042               -6.89400893              -69.13129305
              23.07006337               13.77559802               94.46969760                0.97562820               -0.00650154                0.03960953               -0.02448671                0.02106761               -0.00105877                0.55758831
              24.06999835               13.21628574               94.05380802                0.84734683               -0.00737493               -0.00199598                0.02070774                0.03233537               -0.00172307               -0.04978668
              25.06991587               12.65704789               93.63794658                0.00010000                3.78894845               -0.04395304                0.07073379                1.55001352                9.87941466               -0.65095258
              26.14577732               12.12828173               93.41959659                0.00010000                5.87254526               -2.53268917                8.59249724                3.13381070               17.54866590                2.25880319
              27.18736678               11.57137551               93.01756793                0.00010000                3.48665695               -3.77857165               10.78926216                2.43591310                6.45336362                1.47698152
              28.21551046               10.99523337               92.44116862                0.00010000                2.79046603               -3.77455438                8.25107604                2.47687857               -3.46342799               -2.32547216
              29.24317610               10.40452668               91.71096028                0.00010000                3.38609481               -2.73641306                1.91361689                2.54129930              -11.92245537               -8.70299642
              30.28323236                9.79801955               90.85434330                0.00010000                5.49469634               -0.89585652               -8.19711249                2.01355724              -18.42924813              -17.47013903
              31.35307002                9.17132439               89.91124873                0.00010000                9.50279709                1.69152062              -22.49480318                0.78922466              -20.91094237              -28.54595624
              32.47328830                8.52239549               88.94613024                0.00010000               15.30160134                5.06780583              -40.80473279               -0.38603223              -15.33094679              -41.80039298
              33.65910205                7.85910772               88.05841717                0.33267427               18.58137502                8.95012741              -61.28918192               -0.37483537               -7.26614939              -56.64816799
              23.62974460               14.77586730               94.33008749                0.97506684                0.00006885                0.02025567               -0.03578675                0.01341381                0.00226196                0.52603327
              24.62974529               14.21627164               93.91119568                0.81672781               -0.00758679               -0.00128189                0.02109039                0.02273084                0.00535387               -0.06206837
              25.62959287               13.65673997               93.49239430                0.00010000                4.43543036               -0.02446355                0.08535080                0.05469834               10.81463623               -0.64832591
              26.71845390               13.09785536               93.28961164                0.00010000                7.27767436               -3.48515992                9.15793583                0.54819222               19.35064608                0.61861887
              27.77514635               12.52599179               92.88369575                0.00010000                4.99802572               -5.18451278               11.41992045                0.97710613                7.52080119               -0.43353476
              28.81841441               11.95107382               92.28398848                0.00010000                4.19544913               -4.89498191                8.52993883                1.93161214               -2.99249463               -3.28645268
              29.85905534               11.37541051               91.51251322                0.00010000                4.50131609               -2.94500743                1.43528313                2.42260041              -11.96472172               -7.81595665
              30.90844073               10.79496000               90.59965272                0.00010000                6.26484181                0.22903940               -9.84858342                2.08694095              -18.88122361              -14.04037571
              31.98435217               10.20380486               89.59007316                0.00010000               10.01748954                4.44254409              -25.74447211                1.09848790              -21.56417586              -21.96412378
              33.10879052                9.59911727               88.55417427                0.00010000               15.77712968                9.56471056              -46.08850889                0.08383572              -15.85032874              -31.36443854
              34.29989477                8.98448493               87.59835350                0.33258691               19.11042415               15.15900012              -69.01553408               -0.12622942               -7.58810000              -41.66812156
              24.18952298               15.77600314               94.19020335                0.97439986                0.00573264                0.01361155               -0.04923243                0.00515067                0.01034213                0.47896994
              25.18958030               15.21626010               93.76846123                0.80209175               -0.00484305               -0.00044472                0.01457125                0.01229165                0.00888713               -0.07910509
              26.18942611               14.65655862               93.34671321                0.00010000                4.89545255               -0.01796215                0.08803612               -1.89738535               11.91355901               -0.57898009
              27.28748935               14.05857853               93.16297664                0.00010000                8.21321650               -4.52484341                9.63237722               -2.69805870               21.48989788               -0.68835375
              28.35369044               13.46768526               92.76125474                0.00010000                5.86173159               -6.54643166               12.09485950               -0.40703758                9.03612612               -1.77908049
              29.40472398               12.89733373               92.15022036                0.00010000                4.70257386               -5.62645424                9.11193271                1.48258870               -2.14185527               -3.60968036
              30.44774192               12.34562653               91.35202336                0.00010000                4.59264225               -2.89874433                1.58370018                2.28341170              -11.91234952               -6.22415250
              31.49657683               11.80260034               90.40004395                0.00010000                6.15702966                1.18550599              -10.45868655                2.06920535              -19.47061921               -9.93078524
              32.57088252               11.26017527               89.34334530                0.00010000                9.88540567                6.41398202              -27.41889251                1.29858057              -22.43974442              -14.72941114
              33.69428494               10.71368970               88.25865950                0.00010000               15.74798128               12.60762379              -49.09085350                0.45600799              -16.50147594              -20.22966362
              34.88584214               10.16228772               87.25914879                0.33280368               19.15571976               19.40766864              -73.55098474                0.02734149               -8.00048955              -25.63137008
              24.74933369               16.77613953               94.04981810                0.97330776                0.01019453                0.01693127               -0.06436371               -0.00063923                0.03508940                0.36297163
              25.74943564               16.21626274               93.62549924                0.63260379               -0.00034829                0.00180838               -0.00207281                0.00360740                0.09259944               -0.10929880
              26.74932673               15.65638073               93.20236081                0.00010000                5.19652240               -0.01914310                0.07728513               -4.44649930               13.68647027               -0.46692958
              27.85336609               15.00735849               93.04981317                0.00010000                8.94618356               -6.82082272               10.37401229               -4.35166511               24.74743521               -0.80840548
              28.92825040               14.39506315               92.66606906                0.00010000                5.83794142               -7.44526197               13.38294265               -0.95770613               11.65227939               -2.08461139
              29.97012491               13.83854473               92.05415676                0.00010000                3.56032845               -5.87231282               10.51178310                1.11152037               -1.09349922               -2.71065279
              30.99945697               13.31743562               91.24089654                0.00010000                3.25755914               -2.69586729                2.79237609                1.64315222              -12.24826346               -3.66547349
              32.03527610               12.81867012               90.26256560                0.00010000                4.98887274                1.80309913               -9.69967645                1.46491550              -20.84418764               -5.21083767
              33.09923442               12.33208450               89.17267075                0.00010000                9.02610682                7.49176177              -27.31482710                0.95703761              -24.25825518               -7.32356775
              34.21579823               11.85126974               88.05536185                0.00010000               15.20055598               14.16928225              -49.76738630                0.42040749              -17.78523642               -9.64525224
              35.40324554               11.37263830               87.03593324                0.33282977               18.74473081               21.67108450              -74.98130304               -0.06490190               -8.77739662              -10.80487148
              25.30926377               17.77634176               93.90775949                0.98644167                0.01474832                0.02022278               -0.07634377               -0.01154173                0.17864591                0.27266868
              26.30941125               17.21629627               93.48213452                0.75744532                0.00683037                0.00335213               -0.01944298               -0.01073837                0.28897917               -0.12766726
              27.30940038               16.65617576               93.05875501                0.33256756                7.61811856               -0.02049695                0.06667835               -8.69934423               17.57243468               -0.42595789
              28.46177363               15.92216208               92.97859768                0.33196589                9.69748526               -8.51964182               12.52767878               -6.02903295               32.77200085               -3.55987109
              29.50335008               15.31878002               92.62017031                0.33239299                2.14041497               -7.62831346               16.20089440                0.39623875               15.04727907               -3.88108752
              30.50458193               14.77988748               92.01385647                0.33199485               -0.14352530               -5.86572546               13.46100465                2.09215942               -0.78331757               -3.68467625
              31.50047958               14.29170918               91.19060870                0.33189134                0.33221699               -2.57264365                5.56173051                3.04100327              -14.07163350               -3.50897795
              32.51122627               13.83866232               90.19217888                0.33148574                2.84720334                1.99921991               -7.25002200                3.51008309              -24.01948152               -3.53782373
              33.55742365               13.41001051               89.07601233                0.33114914                7.54565119                7.79260133              -25.28448630                3.73957356              -28.26178510               -3.64924806
              34.66213929               12.99707534               87.92992797                0.33207999               14.21916711               14.58056004              -48.26527451                3.91905087              -21.45135043               -3.58581095
              35.84180699               12.59570941               86.89748954                0.66650738               17.96676982               22.30711145              -73.83486561                3.71955181              -11.91205353               -1.54255521
              20.12810244                7.91610447               96.30718327                0.98793947               -0.02112923               -0.01028763                0.14371243               -0.03900463               -0.30863423                0.31859948
              21.12789115                7.35889475               95.90557148                0.97543539                0.00855474               -0.03277542                0.10652126               -0.05007381               -0.39673584                0.04647995
              22.12827354                6.80206973               95.50205663                0.95381847                0.05082352               -0.06627667                0.09741090               -0.02152905               -0.43802521               -0.04891211
              23.12890762                6.24675137               95.09921014                0.75565530                0.08436037               -0.04138899                0.08380753                0.07779294               -0.41080822               -0.13586778
              24.12996074                5.69367607               94.69575413                0.73997205                0.06761372               -0.02117568                0.10086422                0.05814276               -0.32784361               -0.06724830
              25.13025989                5.14187322               94.29389989                0.72065003                0.01024637               -0.00085359                0.07404315                0.04624953               -0.14916999               -0.05406060
              26.13016567                4.59106710               93.89335556                0.70267170               -0.01833529                0.02050398                0.02926843                0.04912005               -0.00566300               -0.04716687
              27.12989319                4.04101153               93.49386369                0.69720184               -0.01734246                0.03554587               -0.03227599                0.05486070                0.07187590               -0.04232748
              28.12981882                3.49139733               93.09463672                0.74441414                0.01201300                0.04146924               -0.10802149                0.04187177                0.03533982               -0.04469863
              29.13013345                2.94198898               92.69449785                0.82549201                0.03872640                0.03996551               -0.15435134                0.01672045               -0.03334285               -0.04373104
              30.13059335                2.39267248               92.29399081                0.97470940                0.04599019                0.03499972               -0.17774842                0.00338107               -0.04035761               -0.12896494
              20.68492211                8.91600159               96.16557261                0.97655784               -0.05143290                0.03411938                0.12761777               -0.04342445               -0.05347007                0.44709576
              21.68440778                8.35856700               95.76389414                0.94720680               -0.03960881               -0.01654823                0.08799496               -0.05945331               -0.06385481                0.06685211
              22.68412993                7.80140696               95.36200920                0.94748526               -0.02627025               -0.06399834                0.07254976               -0.00280411               -0.04433041               -0.12842165
              23.68388238                7.24633748               94.96062267                0.94736023               -0.05743423                0.01012760                0.06630186                0.04984741                0.02511068               -0.09019948
              24.68298125                6.69346431               94.55996567                0.94702810               -0.09277518                0.01622911                0.06220930                0.05085434                0.10965694               -0.04699539
              25.68202687                6.14186468               94.16012758                0.94803550               -0.09467658                0.02906096                0.03207385                0.04406496                0.20913314               -0.03930976
              26.68108772                5.59127214               93.76129596                0.94965362               -0.08750959                0.04054298               -0.00190842                0.04665260                0.29859602               -0.03575090
              27.68027668                5.04136698               93.36327412                0.94996125               -0.06694537                0.04493912               -0.03492190                0.04894341                0.32585687               -0.03319827
              28.67974881                4.49181203               92.96530175                0.94822610               -0.03068008                0.04372419               -0.08000981                0.03709406                0.26415742               -0.03556941
              29.67966308                3.94238864               92.56634465                0.94620943                0.00974275                0.03869347               -0.11669691                0.01693667                0.13522045               -0.03664385
              30.67994367                3.39302248               92.16598624                0.94404025                0.02805862                0.03117019               -0.13663795                0.00477355                0.05928252               -0.11408597
              21.24210314                9.91678685               96.02643323                0.97840524               -0.08064245                0.10550804                0.08981381               -0.02008255               -0.00421384                0.59510171
              22.24129671                9.35856379               95.62257731                0.94812959               -0.08280859                0.00619918                0.06037563                0.00175078                0.06968135                0.07563234
              23.24044697                8.80078976               95.22034085                0.00010000               -0.17247506               -0.12077072                0.04081424                0.25413461                0.38345216               -0.43078143
              24.23784721                8.24695393               94.82288835                0.00010000               -0.24981668                3.22890590                0.03133131                3.40701106                0.55268858                6.01550401
              25.23545063                7.69400065               94.42447643                0.00010000               -0.22569246                3.54372521                0.01643178                4.07977162                0.51278796                7.05143368
              26.23333336                7.14245444               94.02653993                0.00010000               -0.19271060                2.65073275               -0.00845989                4.12412017                0.56199752                3.86020757
              27.23159642                6.59187796               93.62938308                0.00010000               -0.15005940                0.87377981               -0.03012224                3.98815336                0.61191395               -2.83193263
              28.23033218                6.04191031               93.23286159                0.00010000               -0.10286862               -1.73263757               -0.04126168                3.94153405                0.59818456              -12.64073039
              29.22953905                5.49227182               92.83619574                0.00010000               -0.05352225               -5.40470913               -0.05936187                4.74921093                0.49986993              -25.20097647
              30.22926173                4.94276285               92.43834826                0.00010000               -0.00589509              -10.49885915               -0.09219104                8.26157308                0.30697050              -39.33664366
              31.22942115                4.39329588               92.03825881                0.33127912                0.01594164              -21.03613736               -0.10738614               18.31138610                0.17676988              -52.15029899
              21.80096659               10.91811175               95.88754812                0.97805819               -0.05267020                0.12899445                0.05183396                0.03110420                0.01187171                0.60794968
              22.80043989               10.35869098               95.48099250                0.94758180               -0.00720535               -0.00175986                0.03093438                0.04410960                0.00071198                0.03507082
              23.80082249                9.79899154               95.07428887                0.00010000                2.91859058               -0.15408711                0.00281412                3.66402566                6.92498030               -0.61934904
              24.85881170                9.31091560               94.80613183                0.00010000                3.41268421                4.01906984                4.84174512                9.24590586               12.76020562               12.56207083
              25.86907617                8.76433882               94.43031547                0.00010000                0.39101312                4.77499726                5.92962205                7.88232070                6.11804837               14.22157271
              26.86663197                8.19487934               93.97033623                0.00010000               -0.38406282                3.38703239                5.09116417                7.54690741                1.23435144                7.73836424
              27.86139491                7.60874774               93.44101639                0.00010000               -0.39592282                0.58766062                3.16141376                7.16795892               -3.12101469               -5.36109318
              28.85871351                7.00671423               92.84992508                0.00010000                0.62427847               -3.58860275               -0.17601727                6.67913072               -7.96897386              -24.34578144
              29.87388048                6.38371784               92.20365685                0.00010000                4.25784826               -9.56569325               -6.02769969                6.82789262              -12.55206112              -48.81032670
              30.94387047                5.73241146               91.52448000                0.00010000               13.56124224              -18.59459217              -15.25264937                5.96828749              -12.66203124              -77.46787723
              32.14510533                4.97229973               90.86987002                0.33030326               20.12348542              -31.43594136              -26.48260648               10.73235674               -5.95290432             -110.75672224
              22.36156676               11.91936674               95.74843891                0.97694530               -0.02676508                0.10480033                0.02250649                0.03507277               -0.00005519                0.58857747
              23.36129911               11.35852859               95.33881017                0.91470849               -0.00319524               -0.01181681                0.01747291                0.05361032                0.00279551               -0.00443449
              24.36150286               10.79770802               94.92927121                0.00010000                4.80594721               -0.11080027                0.00883158                4.56198133               10.66051442               -0.59077595
              25.45741806               10.32733532               94.73271911                0.00010000                7.38152273                0.20939943                7.46872525                9.40753859               19.85110463                9.13068267
              26.50913331                9.78950060               94.36452451                0.00010000                4.12222670                0.41516323                9.15168697                8.07884248               10.53577082               10.01200469
              27.53986259                9.21019509               93.84917655                0.00010000                2.69936956               -0.28234012                7.49584418                8.46636176                3.23516940                4.02448841
              28.56312070                8.60363118               93.21062492                0.00010000                2.45410489               -1.61462139                3.79254327                9.20969988               -3.21173484               -7.34761497
              29.58894469                7.97013825               92.46416138                0.00010000                3.86394872               -3.64511882               -2.40685512                9.34412747               -9.96319674              -23.51388974
              30.64039968                7.30095795               91.62665680                0.00010000                8.55504529               -6.70232544              -12.68401260                7.93967219              -15.49794254              -44.30565912
              31.76004559                6.57087101               90.73966079                0.00010000               16.19460287              -11.12572529              -28.20083223                4.44399530              -13.55831420              -70.10797863
              32.96429174                5.76457706               89.90284190                0.33087768               20.42461419              -12.84687037              -47.04141193                1.58298907               -6.60822282             -101.14087303
              22.92334436               12.92020776               95.60907124                0.97610338               -0.01735319                0.06634227                0.00315474                0.03359447                0.00105946                0.56720180
              23.92317082               12.35845464               95.19648134                0.88187156               -0.00444883               -0.00575573                0.01708484                0.04676059                0.00232931               -0.02066228
              24.92325538               11.79677554               94.78394512                0.00010000                6.59995346               -0.07406340                0.03318807                4.03868718               12.99765041               -0.61039277
              26.05516989               11.31510359               94.63116319                0.00010000               11.22689395               -2.27187157                8.97583373                8.34652531               24.47262107                6.30705594
              27.14779326               10.77264208               94.25873758                0.00010000                8.33293651               -3.30081685               10.78216389                7.15884359               13.50179437                6.36486894
              28.22182862               10.18923253               93.69457862                0.00010000                6.89262429               -3.63058017                8.33543823                7.80091428                5.16904999                1.15911381
              29.28564574                9.57645531               92.96746514                0.00010000                6.32203301               -3.59668374                3.10682997                8.75060355               -2.06163930               -8.30103277
              30.34826928                8.93381186               92.09896200                0.00010000                7.31477134               -3.39308821               -5.42798139                8.60153349               -9.37789100              -21.65691108
              31.43194117                8.24967133               91.11393440                0.00010000               11.04309964               -3.10375130              -19.05401868                6.45782463              -14.99007491              -39.12825563
              32.56913128                7.50989695               90.06711350                0.00010000               17.87059239               -1.93092845              -39.06925911                2.48158385              -13.10538875              -61.20683233
              33.78935302                6.71536232               89.06748949                0.33107596               22.02217424                1.11355727              -64.12359443                1.02609223               -6.36041031              -88.41803037
              23.48574488               13.92069359               95.46954389                0.97550928               -0.00783364                0.03458681               -0.00963636                0.02524108                0.00332211                0.54623962
              24.48566654               13.35841347               95.05400991                0.85222639               -0.00586117               -0.00335591                0.01936690                0.03816327                0.00649062               -0.03690820
              25.48562765               12.79622675               94.63854886                0.00010000                8.14077384               -0.04031480                0.05242405                2.42577672               14.54434305               -0.61290196
              26.64848202               12.28189789               94.51367731                0.00010000               14.62767929               -4.14609908                9.80091791                5.35416973               27.59417785                3.59442273
              27.77818124               11.72348426               94.13407522                0.00010000               12.17928140               -6.18985498               11.56661430                5.11270165               15.58215171                3.02694358
              28.89206765               11.13758348               93.53032885                0.00010000               10.76861062               -6.34923364                8.48259998                6.25746786                6.70107719               -1.20997397
              29.99355345               10.53169750               92.73452858                0.00010000                9.78458451               -5.07274330                2.07226874                7.30272142               -0.88133989               -8.54966611
              31.08775934                9.90227649               91.77229960                0.00010000                9.99588121               -2.73508019               -8.25572090                6.99558816               -8.47441555              -18.96180743
              32.19347108                9.23888293               90.67436988                0.00010000               12.81134730                0.66515085              -24.38344508                4.86799645              -14.38542947              -32.72694968
              33.34398628                8.53225244               89.50195396                0.00010000               19.02058803                5.44312383              -47.76014550                1.77917624              -12.81907472              -50.24091295
              34.57388284                7.78684820               88.37154173                0.33118407               22.98965550               11.64492284              -77.21466572                0.62227353               -6.31850464              -71.34017170
              24.04840940               14.92089949               95.32981917                0.97493163               -0.00084754                0.01347216               -0.02103100                0.01580830                0.00795500                0.51627339
              25.04840093               14.35838753               94.91139800                0.80153597               -0.00614538               -0.00191456                0.01941092                0.02688351                0.01638999               -0.05552979
              26.04828650               13.79596924               94.49315130                0.00010000                9.32974231               -0.01830315                0.06890759               -0.04062978               15.74382204               -0.62241805
              27.23499577               13.23218161               94.38919676                0.00010000               17.30376024               -5.71242677               10.25790528                0.96591387               30.04475547                1.08485844
              28.39436170               12.64884498               94.00609417                0.00010000               15.18844830               -8.56822909               12.01380202                2.31839774               17.38221363                0.03441896
              29.53876474               12.06224786               93.37527140                0.00010000               13.63227321               -8.43744288                8.54393826                4.56722595                8.06704874               -3.05217409
              30.66700717               11.47500045               92.53028634                0.00010000               12.11154410               -5.97904450                1.33980818                5.92222485                0.06911989               -8.13637465
              31.78099562               10.87911025               91.49944760                0.00010000               11.61589913               -1.87595751              -10.24832282                5.67930800               -7.96862082              -15.42745514
              32.89932515               10.26297435               90.31791402                0.00010000               13.78769512                3.72952998              -28.15506511                3.94603168              -14.28324934              -25.19239026
              34.05674952                9.61875943               89.05250310                0.00010000               19.66409104               10.89006733              -53.88300159                1.56337123              -12.95973608              -37.47997293
              35.29260697                8.94826078               87.82678405                0.33121290               23.58574435               19.24388285              -86.24131226                0.56413796               -6.48990965              -51.85654623
              24.61108498               15.92096303               95.18979899                0.97423191                0.00494833                0.00682370               -0.03448022                0.00581702                0.01586147                0.46988682
              25.61113446               15.35837518               94.76858952                0.76696997               -0.00320015                0.00004893                0.01143916                0.01437122                0.02116263               -0.08257424
              26.61102098               14.79586069               94.34749333                0.00010000               10.18950467               -0.01088306                0.07221371               -3.26394854               17.06305132               -0.56990969
              27.81492455               14.16764936               94.26703645                0.00010000               19.17309835               -7.49152826               10.62606970               -4.46122271               32.73917880               -0.96216678
              28.99448294               13.55211968               93.89006023                0.00010000               17.11660735              -10.89005146               12.55899218               -0.19838143               19.55615676               -2.17247257
              30.15725670               12.96883462               93.24700550                0.00010000               15.03263081               -9.82970699                9.01527110                3.26790880                9.63674433               -4.04525779
              31.29513556               12.41211661               92.37088383                0.00010000               12.80574450               -6.32584845                1.38412729                4.81988546                0.77301159               -6.82699505
              32.41337159               11.86475734               91.29306194                0.00010000               11.88034888               -1.03395543              -10.99111061                4.60150545               -8.02579794              -11.07958578
              33.53274254               11.31347353               90.05318038                0.00010000               13.82978434                5.89941470              -30.04286150                3.27763102              -14.78890844              -16.93892939
              34.68996728               10.75005379               88.72470968                0.00010000               19.67101785               14.44358954              -57.25145396                1.51175651              -13.44039427              -24.09267225
              35.92616289               10.17172586               87.43846400                0.33121127               23.61956143               24.23948591              -91.37949525                0.50911336               -6.83418225              -31.76101211
              25.17370144               16.92103597               95.04926641                0.97315551                0.00892589                0.01071014               -0.04800463               -0.00058312                0.03461336                0.35753357
              26.17379070               16.35838850               94.62544741                0.59427002                0.00159566                0.00302600               -0.00742505                0.00384988                0.10336931               -0.11834241
              27.17373335               15.79575158               94.20302731                0.00010000               10.78608140               -0.01508858                0.06051401               -7.52303839               19.21203783               -0.46714473
              28.38951233               15.08235104               94.16127252                0.00010000               20.77377261              -11.37715384               11.31353602               -7.29142986               36.80524197               -1.29258169
              29.58920880               14.43104395               93.80804467                0.00010000               17.73068294              -12.35591991               13.84675831               -1.30617719               23.06846924               -2.85850037
              30.74412598               13.86565372               93.16537703                0.00010000               13.91366776              -10.29976575               10.45024398                2.23821334               11.29047118               -3.31139378
              31.86748216               13.34848348               92.27236790                0.00010000               11.37714165               -6.20360195                2.65768538                3.15853721                0.81764424               -4.19079627
              32.97166882               12.85843114               91.16371204                0.00010000               10.60495798               -0.41030850              -10.13665911                2.91449445               -9.18729290               -5.91190894
              34.07958132               12.38096264               89.88399670                0.00010000               12.85317520                7.07363202              -29.82436333                2.08263916              -16.51408939               -8.47412208
              35.22873232               11.90763122               88.51478831                0.00010000               18.99318875               16.19256707              -57.82605910                1.04891456              -14.67758193              -11.48294614
              36.45944509               11.43305050               87.20040780                0.33128224               23.07127724               26.87249744              -92.81815150                0.17635147               -7.58430600              -13.44626867
              25.73636824               17.92117723               94.90710275                0.98636570                0.01276035                0.01412664               -0.05595855               -0.00747285                0.17187108                0.27061549
              26.73649584               17.35843570               94.48191016                0.73864381                0.01147135                0.00471988               -0.02332156               -0.01040134                0.30004228               -0.13746629
              27.73659767               16.79555891               94.05932500                0.33234962               14.86538703               -0.01926679                0.05369057              -14.63003963               24.28525408               -0.43308779
              29.03380359               15.94010628               94.11353935                0.33230597               22.42295261              -14.22447645               13.81671747              -10.09875572               47.29851485               -5.18208923
              30.18505672               15.30500128               93.79245995                0.33188371               12.53889302              -12.60426728               16.99934716                0.72144306               27.29474112               -5.37445614
              31.28458145               14.76283931               93.15651306                0.33175764                9.02360801              -10.28144129               13.67057605                3.19771061               11.67898035               -4.88379737
              32.36552888               14.28804457               92.25163430                0.33138013                7.73004342               -6.04389052                5.69370454                4.49026506               -1.18086398               -4.52746770
              33.43918231               13.85655117               91.11988093                0.33089029                7.98331826               -0.18799754               -7.33227282                5.09642926              -12.60976285               -4.56903685
              34.52519525               13.45494617               89.81001109                0.33069010               10.98377018                7.39835207              -27.29613555                5.42909065              -20.89785762               -4.78343331
              35.65885772               13.07390513               88.40683846                0.33022609               17.68280593               16.62739113              -55.72958297                5.72402167              -18.82165695               -4.79546787
              36.87885136               12.70917581               87.07568205                0.66556128               21.99936466               27.61253102              -91.09944990                5.46769481              -11.23797570               -2.43996249
              20.52703482                8.06084825               97.30857950                0.98747236               -0.01109360               -0.00305955                0.12614471               -0.04144019               -0.26651107                0.29064090
              21.52692388                7.50109912               96.90655607                0.97436578                0.02520580               -0.02964684                0.08523420               -0.05697495               -0.33709863                0.04000595
              22.52753893                6.94181068               96.50288327                0.97420467                0.07268655               -0.06512904                0.07364130               -0.03136715               -0.36406344               -0.03485786
              23.52837761                6.38426293               96.09989140                0.80400254                0.10283011               -0.03903491                0.05877162                0.06852308               -0.32489951               -0.09600599
              24.52959553                5.82903636               95.69662417                0.75157217                0.08686466               -0.01412258                0.07693397                0.04876848               -0.27293809               -0.05465349
              25.53011490                5.27529372               95.29453164                0.70225181                0.02947207                0.00508676                0.06143006                0.03646874               -0.13811859               -0.05502897
              26.53018498                4.72276779               94.89362242                0.65952245               -0.00721915                0.02499123                0.03554739                0.02805446               -0.02186135               -0.04821325
              27.52997052                4.17119894               94.49357968                0.62940635               -0.02080105                0.03633196               -0.00878090                0.00940133                0.02405816               -0.02616834
              28.52976896                3.62022244               94.09359776                0.64606596                0.00125825                0.03954938               -0.08930777               -0.00346809               -0.03311484               -0.01947432
              29.52999569                3.06948727               93.69275953                0.69352740                0.04606913                0.04706660               -0.20086799               -0.00702328               -0.09418479               -0.04675690
              30.53069034                2.51905313               93.29184858                0.88974830                0.06946510                0.05652363               -0.30483030               -0.02815821               -0.07286254               -0.18704581
              21.08636955                9.06081766               97.16684249                0.97583881               -0.04966327                0.04412952                0.11883198               -0.04691391               -0.03565840                0.41258639
              22.08587292                8.50080265               96.76472529                0.94635709               -0.03630957               -0.01258392                0.07566337               -0.06576945               -0.03103861                0.05787286
              23.08564336                7.94115939               96.36263741                0.94723072               -0.02114550               -0.06462926                0.05565322               -0.00579268                0.00548477               -0.11948716
              24.08545001                7.38387258               95.96115627                0.94759010               -0.05377676                0.01704468                0.04445552                0.04526344                0.07689022               -0.06155909
              25.08456782                6.82889513               95.56042401                0.94752943               -0.09180656                0.02783953                0.03330323                0.04362149                0.14580748               -0.03462781
              26.08361388                6.27534459               95.16026904                0.91863457               -0.10274543                0.04372006                0.00057245                0.03501537                0.22630842               -0.03975020
              27.08251291                5.72301770               94.76118356                0.84769003               -0.11383323                0.05425299               -0.01037521                0.03131995                0.29906099               -0.03682687
              28.08133721                5.17156225               94.36297825                0.79652610               -0.09614044                0.05305411               -0.02502385                0.01399544                0.30476504               -0.02143277
              29.08059011                4.62061793               93.96468728                0.77821700               -0.04135503                0.04096840               -0.05577563                0.00324010                0.23122825               -0.01918839
              30.08051011                4.06995794               93.56534100                0.71961946                0.01263985                0.03703001               -0.10149308                0.00048197                0.12236753               -0.03988815
              31.08084290                3.51961836               93.16472294                0.79957824                0.03327921                0.03988711               -0.16483427               -0.01436835                0.07627576               -0.15015465
              21.64612655               10.06173085               97.02735224                0.97773022               -0.08597957                0.11782471                0.08770582               -0.01877623                0.00553995                0.55183343
              22.64526676                9.50084744               96.62316648                0.94817143               -0.08867001                0.00963943                0.05606272                0.00603001                0.08701802                0.06155159
              23.64435315                8.94051810               96.22068933                0.00010000               -0.18598067               -0.13205369                0.03211673                0.28732657                0.40974177               -0.42799944
              24.64154714                8.38460382               95.82307964                0.00010000               -0.26785995                5.20083318                0.01224964                6.12191786                0.58297720                8.65773540
              25.63899595                7.82959315               95.42445487                0.00010000               -0.24272520                5.71151978               -0.01460438                8.77070978                0.54050756               10.17551569
              26.63669264                7.27616812               95.02621287                0.00010000               -0.22011222                4.59385730               -0.05542359               10.79247990                0.59730003                6.51900581
              27.63459371                6.72385285               94.62892221                0.00010000               -0.20212198                2.37665408               -0.04830359               12.26281912                0.63603170               -1.04805143
              28.63265020                6.17226002               94.23249480                0.00010000               -0.15778184               -0.91211655               -0.03964078               13.00644652                0.60900431              -12.39698580
              29.63143807                5.62104181               93.83581372                0.00010000               -0.08226523               -5.81894269               -0.03476263               13.69617268                0.49833524              -27.97951899
              30.63100490                5.07022787               93.43778762                0.00010000               -0.01779747              -13.25520335               -0.05198656               17.17209284                0.31844892              -47.38394666
              31.63108212                4.51985087               93.03756816                0.33014292                0.00772276              -30.77731222               -0.10337896               30.22452333                0.22937220              -67.05741350
              22.20776083               11.06317415               96.88810516                0.97752316               -0.05545680                0.13732811                0.05431337                0.03738091                0.01398396                0.57065727
              23.20720626               10.50099544               96.48131535                0.94756826               -0.00636604               -0.00242739                0.03293650                0.05195602                0.00312345                0.02488126
              24.20763351                9.93851832               96.07434480                0.00010000                5.58035264               -0.17152691                0.00928366                5.68738107                9.55731163               -0.60588036
              25.31881332                9.48788924               95.85854493                0.00010000                8.03921029                6.44381129                5.38832365               15.93038434               18.47817324               17.97810724
              26.36841772                8.94312553               95.49218802                0.00010000                4.31952270                7.73558402                5.64306473               16.67934309               11.59234501               20.37217387
              27.40520377                8.36722173               95.02267907                0.00010000                3.16298428                6.04872737                4.39004871               19.90256859                8.44651751               12.89255303
              28.43167740                7.77055078               94.47578526                0.00010000                1.95367070                2.59446096                3.10175094               22.57775965                5.90026715               -1.89343011
              29.44427718                7.15331992               93.85406455                0.00010000                1.24341506               -2.66814982                1.09392712               23.52329017                0.62594357              -23.71894309
              30.45654570                6.50423908               93.14770591                0.00010000                4.04328604              -10.62961997               -4.26360798               22.94259410               -7.69752935              -53.65156712
              31.52514290                5.80485387               92.36358312                0.00010000               16.47708376              -23.84172564              -16.10203482               17.23510326              -13.02701973              -92.23926870
              32.78608738                4.90407212               91.57223152                0.32961392               26.09444732              -44.97596344              -34.25806922               19.64949010               -7.20251367             -143.53617416
              22.77123160               12.06447741               96.74871750                0.97657288               -0.02698857                0.10700114                0.02847130                0.03908964                0.00036603                0.56121739
              23.77096171               11.50079889               96.33898557                0.94638826               -0.00123120               -0.01484344                0.01779664                0.05625208                0.00306194               -0.00331431
              24.77120697               10.93708756               95.92928910                0.00010000                9.22929568               -0.11923956                0.00350934                7.04536933               14.65197681               -0.55870431
              25.95554762               10.51348005               95.81246616                0.00010000               16.10216747                0.29014111                7.91842259               15.65846081               28.97915366               12.88043310
              27.09325032                9.98430483               95.45842365                0.00010000               12.58855644                0.80921810                8.20118849               15.76225498               20.11064676               14.29910782
              28.20731875                9.39714267               94.92429823                0.00010000               10.34001957                0.06865760                5.81254810               19.14574583               15.97567385                7.47730901
              29.30005071                8.77574207               94.25066790                0.00010000                8.10544776               -1.51681670                2.97822536               22.77381562               12.53910721               -5.37362824
              30.36942771                8.11889702               93.44547741                0.00010000                6.93526461               -4.08596184               -1.50314115               24.46851871                5.53200957              -23.93447695
              31.43875601                7.40844941               92.50170839                0.00010000               10.32231063               -8.22714157              -11.38646037               22.14706263               -4.72427462              -49.01363198
              32.57587392                6.59339336               91.43953307                0.00010000               19.34397135              -14.67612733              -30.86159359               13.76854599               -9.26135519              -82.86844178
              33.82563543                5.62033160               90.37553423                0.32971244               24.97615115              -16.78250905              -59.81513925                6.03224266               -5.18943327             -128.77113456
              23.33589965               13.06531418               96.60916010                0.97585872               -0.01784991                0.06487359                0.01107732                0.03674815                0.00445212                0.54754829
              24.33572115               12.50069857               96.19664429                0.90665874               -0.00199531               -0.00839896                0.01456979                0.04904157                0.00841841               -0.01217469
              25.33585974               11.93613353               95.78419153                0.00010000               12.45220571               -0.07519422                0.01623359                6.14609240               17.71533087               -0.57194542
              26.58476527               11.49369206               95.72570168                0.00010000               23.20702239               -3.56717140                9.08927070               13.48816269               35.52046169                8.67878229
              27.80000019               10.95930989               95.36744528                0.00010000               20.59580894               -4.98735135                9.09949620               13.20053887               25.49658341                9.11463764
              28.99668144               10.36859489               94.77574387                0.00010000               18.26995855               -5.34007791                5.79430971               16.13322297               21.24586299                3.37672720
              30.16539936                9.74021445               93.99805357                0.00010000               15.21293877               -5.25149576                1.48502369               19.32668157               17.74278317               -7.14660049
              31.30094022                9.07160069               93.04702480                0.00010000               12.97956262               -5.02996101               -5.30371965               20.19784159               10.41059916              -22.31599749
              32.42499062                8.33969625               91.92053018                0.00010000               14.38457060               -4.78218137              -18.79546009               16.83408514               -0.14157484              -43.12729856
              33.58863163                7.51133133               90.64953073                0.00010000               21.39325684               -3.06028645              -43.43726093                8.62933619               -5.99807025              -71.39340593
              34.85285575                6.56842194               89.35167680                0.33006748               26.42241207                2.63390643              -80.08183405                4.10511037               -3.41094982             -109.50448262
              23.90119777               14.06577488               96.46950487                0.97532680               -0.00745789                0.03117446               -0.00123118                0.02792349                0.00789323                0.53126346
              24.90112319               13.50063092               96.05419536                0.85666044               -0.00312201               -0.00585718                0.01696999                0.04143040                0.01443502               -0.02892876
              25.90113533               12.93558368               95.63899506                0.00010000               15.05056647               -0.03931924                0.03733006                3.61582532               19.61721165               -0.58089931
              27.20213452               12.44213662               95.61561495                0.00010000               29.06114738               -6.37493354                9.53244114                8.53074975               39.63566405                4.83058761
              28.48235828               11.88455780               95.24890021                0.00010000               27.34720656               -9.43073659                9.30092916                9.24601407               28.84305247                4.48861860
              29.74907865               11.29034111               94.61082062                0.00010000               25.06101342               -9.76206011                5.32958203               12.25180598               24.52475378                0.02666854
              30.98357855               10.67071215               93.75240566                0.00010000               21.24120462               -8.19433410               -0.11560198               14.94094320               21.01484183               -7.91857324
              32.17390274               10.01829780               92.68922888                0.00010000               17.60642624               -5.29760669               -8.69933945               15.12970230               13.48746737              -19.56316862
              33.33570707                9.31280578               91.42357983                0.00010000               17.29161060               -0.92748480              -24.83387427               11.72654503                2.33862071              -35.73596512
              34.51973496                8.53218763               89.99092733                0.00010000               22.89246734                5.77153854              -53.19658577                5.61490436               -4.65515674              -57.66996854
              35.79355642                7.67300973               88.51412386                0.32979673               27.38214616               15.60048997              -94.78309903                2.51615505               -2.91818577              -85.88985175
              24.46674605               15.06593767               96.32966687                0.97474562               -0.00050864                0.00893787               -0.01235618                0.01744500                0.01372005                0.50288206
              25.46674096               14.50058143               95.91158390                0.77925806               -0.00377508               -0.00358584                0.01754927                0.02977521                0.02855342               -0.05466489
              26.46667055               13.93534714               95.49377245                0.00010000               16.98325874               -0.01496282                0.05688057               -0.16415748               20.98857032               -0.60167276
              27.80640614               13.36619339               95.49476975                0.00010000               33.50227165               -8.74385957                9.68837000                1.64597587               42.60830754                1.35915969
              29.13671598               12.77069516               95.12397179                0.00010000               32.45785365              -13.11362482                9.34249460                4.48232744               31.37593820                0.38345369
              30.45556321               12.17335368               94.45486724                0.00010000               29.97727790              -13.20090808                5.01399261                8.65946206               26.85940141               -2.67584431
              31.73626154               11.57632777               93.53930938                0.00010000               25.29387149              -10.18535413               -1.16875532               11.29310146               23.04719650               -7.97087209
              32.96144064               10.96564855               92.39468626                0.00010000               20.46850735               -5.07768111              -10.99046536               11.23401774               15.02235886              -15.97353683
              34.14563169               10.32114655               91.02697186                0.00010000               18.96425652                2.12541153              -28.94280823                8.44315440                3.22074465              -27.30869674
              35.34072577                9.62676210               89.47651424                0.00010000               23.79514871               11.86817017              -59.77014918                3.98718354               -4.46254566              -42.45877448
              36.62153466                8.88043174               87.87352726                0.32982930               28.08088892               24.02170015             -104.40768880                1.77163552               -2.98769719              -61.24864520
              25.03225914               16.06595364               96.18951375                0.97403420                0.00500720                0.00243915               -0.02493708                0.00645122                0.02101937                0.45804903
              26.03230922               15.50055920               95.76869002                0.71469243               -0.00094647               -0.00030847                0.00866463                0.01659730                0.03608333               -0.09322925
              27.03224021               14.93528442               95.34815748                0.00010000               18.36984045               -0.00704899                0.06333754               -5.11139731               22.45104542               -0.56845913
              28.39970602               14.26725943               95.37549803                0.00010000               36.63021596              -11.55947155                9.83800418               -6.74758468               45.77143022               -1.49543672
              29.76484453               13.62228530               95.01243459                0.00010000               35.84646275              -16.76008603                9.64398837                0.39314100               34.23493543               -2.71504560
              31.11663528               13.02632295               94.33052578                0.00010000               32.61505860              -15.52721976                5.30747739                6.03838326               29.19697797               -4.35314424
              32.41714571               12.46700507               93.37970591                0.00010000               26.85645173              -11.17292711               -1.25134599                8.58172661               24.42674090               -7.02735825
              33.65376431               11.91674418               92.18022173                0.00010000               21.31554544               -4.60178005              -11.82724651                8.33848720               15.50864943              -11.59487081
              34.84345661               11.35531401               90.74248807                0.00010000               19.32145629                4.23123970              -30.90878102                6.25257650                3.09219137              -18.35552204
              36.04019344               10.76955104               89.11363042                0.00010000               23.90966157               15.63599681              -63.23847661                3.16197193               -4.77499544              -27.13658153
              37.32164985               10.15344373               87.43155888                0.33014300               28.14564056               29.30315709             -109.72011796                1.32855881               -3.25575618              -37.30521656
              25.59766395               17.06598645               96.04885800                0.97300561                0.00781748                0.00638770               -0.03539515                0.00024243                0.03182430                0.35135726
              26.59774212               16.50057526               95.62535074                0.53744802                0.00392110                0.00311243               -0.01096927                0.00501739                0.11727883               -0.13320749
              27.59774237               15.93520616               95.20357109                0.00010000               19.33557175               -0.01829019                0.05062084              -11.71676191               24.92799341               -0.47433365
              28.98445356               15.13500396               95.27608389                0.00010000               39.38864526              -17.66363909               10.37666394              -11.24048877               50.61400859               -2.05628784
              30.38551528               14.43549344               94.94300423                0.00010000               37.35787738              -18.99124771               10.84412855               -1.53840072               38.72803791               -3.79730945
              31.73161111               13.86280929               94.26316164                0.00010000               31.59797824              -16.31917426                6.69418660                3.98638465               31.51590602               -3.83327093
              33.01747484               13.35286923               93.29405025                0.00010000               25.41451685              -11.21890140                0.02407059                5.35761929               24.91248357               -4.47186906
              34.23990144               12.87361295               92.05983242                0.00010000               20.02007583               -4.09001915              -10.90973753                4.98960088               14.67257817               -6.26959354
              35.41787636               12.40577135               90.57618348                0.00010000               18.29670216                5.34995210              -30.53039550                3.74607144                1.62700889               -9.24786921
              36.60583549               11.93948203               88.89884067                0.00010000               23.12220419               17.37573270              -63.58851563                2.02826435               -5.80567217              -12.94640741
              37.88032044               11.46649488               87.17957021                0.33024368               27.44849546               32.14589717             -110.98507524                0.58680738               -3.83482238              -15.84824077
              26.16308637               18.06608139               95.90664031                0.98629874                0.01034760                0.00949420               -0.03768229               -0.00375217                0.16303269                0.26889673
              27.16318985               17.50062145               95.48166809                0.70900805                0.01949505                0.00461880               -0.02134698               -0.01336639                0.31713063               -0.15169868
              28.16347627               16.93491862               95.05982882                0.33167208               25.57095651               -0.02875481                0.05510430              -22.75834995               31.35616016               -0.45509636
              29.67460898               15.91398665               95.25493202                0.33175889               42.13974594              -22.10173166               13.11394110              -15.60737147               63.77741797               -7.34256384
              31.00627119               15.24246035               94.96015725                0.33253349               30.21891021              -19.30330860               14.08714451                1.37323245               43.58739736               -7.14824468
              32.27898718               14.69993946               94.28726799                0.33222298               25.36116184              -16.28698245                9.88632683                4.74594221               31.88426214               -6.14125283
              33.51349443               14.24262704               93.30448279                0.33162820               21.08335151              -11.02421826                3.06176035                6.35217522               22.86978579               -5.57842988
              34.70065421               13.83494380               92.04553343                0.33060118               16.95072671               -3.86691566               -7.91626018                7.05957730               11.37309340               -5.68084491
              35.85250896               13.46231305               90.53008962                0.32971984               15.96904906                5.65417074              -27.48733881                7.56935511               -2.67458185               -6.14800898
              37.02003519               13.11706569               88.81533631                0.32960150               21.34256691               17.75836565              -60.61741925                8.12240175              -10.12174031               -6.31086507
              38.27936030               12.79636168               87.07550055                0.66484178               25.93251073               32.98667964             -108.36027310                7.83358450               -7.90838570               -3.64667004
              20.92681909                8.20539131               98.30970617                0.98698036                0.00263252                0.00892682                0.09082336               -0.04106486               -0.22375411                0.25942733
              21.92684542                7.64335642               97.90727616                0.97344601                0.04189223               -0.02423780                0.05479144               -0.06168407               -0.27595973                0.03585717
              22.92765694                7.08186428               97.50352946                0.97341803                0.09116534               -0.06531348                0.05543733               -0.03757411               -0.29583046               -0.02179098
              23.92866872                6.52230151               97.10038557                0.84733847                0.11024045               -0.03834483                0.04437509                0.05243667               -0.24890594               -0.05901848
              24.92986174                5.96498332               96.69729281                0.73838891                0.09152755               -0.00422584                0.05822098                0.04210509               -0.20144443               -0.03875790
              25.93049927                5.40929784               96.29512849                0.65853782                0.04093279                0.00906058                0.05970196                0.02928527               -0.08253391               -0.05420112
              26.93068040                4.85498057               95.89406651                0.60103087               -0.00501334                0.02552471                0.06189142               -0.01240694                0.02924149               -0.02114824
              27.93039901                4.30169104               95.49368807                0.55850622               -0.03518616                0.03321803                0.04451402               -0.06066364                0.04917192                0.01827639
              28.92997668                3.74882881               95.09285057                0.55707137               -0.02000369                0.03834969               -0.04064221               -0.08661105               -0.06665447                0.02161279
              29.92999893                3.19589092               94.69048049                0.58584530                0.04906593                0.06718659               -0.23796946               -0.07471408               -0.18625389               -0.05048753
              30.93095800                2.64318285               94.28789421                0.82156229                0.09590622                0.11169608               -0.49410597               -0.09607804               -0.17990785               -0.34682195
              21.48844334                9.20548058               98.16794925                0.97503567               -0.04512438                0.05847674                0.09627553               -0.04833552               -0.01959017                0.37424116
              22.48799209                8.64311404               97.76540741                0.94562505               -0.03173425               -0.00758324                0.05900430               -0.07074344               -0.00175962                0.05058505
              23.48780865                8.08121115               97.36312226                0.94728504               -0.01792585               -0.06709554                0.04365422               -0.00621383                0.04987918               -0.10856165
              24.48763357                7.52191806               96.96151178                0.94799294               -0.05120087                0.02092306                0.03112707                0.04012006                0.12286497               -0.03327841
              25.48678463                6.96494106               96.56063174                0.94331295               -0.09200368                0.03818224                0.00687123                0.03680934                0.18410821               -0.02075010
              26.48579350                6.40938844               96.16013903                0.75793110               -0.12124500                0.05633408               -0.02228887                0.03037547                0.27975363               -0.04015353
              27.48435973                5.85523582               95.76108845                0.63601637               -0.14626239                0.06673309               -0.01520602               -0.00052484                0.37809924               -0.01469991
              28.48286825                5.30202322               95.36277364                0.54853532               -0.11745536                0.05966244               -0.03364608               -0.04008839                0.41379467                0.01284654
              29.48201063                4.74921230               94.96418624                0.49971282               -0.03967399                0.04170028               -0.06934427               -0.06120911                0.38486564                0.00548855
              30.48207477                4.19656278               94.56431478                0.44327159                0.03473314                0.04754369               -0.11221650               -0.05175809                0.29301850               -0.08758501
              31.48270529                3.64429981               94.16268956                0.65785084                0.06305151                0.07280938               -0.28539961               -0.05182169                0.26444575               -0.39393867
              22.05058546               10.20656085               98.02818734                0.97700099               -0.08854765                0.13395274                0.07151747               -0.01648147                0.01451026                0.50591890
              23.04969998                9.64320476               97.62369856                0.94824054               -0.09284088                0.01277360                0.04942428                0.01160753                0.10178094                0.04678602
              24.04872864                9.08052237               97.22098319                0.00010000               -0.19793826               -0.14684908                0.03139798                0.32228519                0.42819154               -0.42112061
              25.04574122                8.52271997               96.82313334                0.00010000               -0.28005444                7.95865831                0.00489185               10.40614824                0.60243120               11.45243550
              26.04312755                7.96574696               96.42418434                0.00010000               -0.24645954                8.64362281               -0.04137993               16.88544226                0.55994028               12.77109007
              27.04081203                7.41042452               96.02543146                0.00010000               -0.25462096                7.26282998               -0.09006994               22.83699231                0.66856769                8.35482032
              28.03803513                6.85631523               95.62841700                0.00010000               -0.25956360                4.69488156               -0.06164270               27.80574048                0.75061969                0.38332281
              29.03562075                6.30288428               95.23206878                0.00010000               -0.19111026                0.86647714               -0.05907785               30.48955290                0.77448893              -11.45541666
              30.03421293                5.74966281               94.83550049                0.00010000               -0.08722426               -5.22102374               -0.05907369               31.11791045                0.73700669              -29.43588971
              31.03387627                5.19684179               94.43730853                0.00010000                0.01172954              -15.53410724               -0.10521552               33.58529588                0.60905937              -55.53966781
              32.03444752                4.64463903               94.03619123                0.33084909                0.05712494              -44.03448166               -0.49982189               49.83237268                0.75235964              -86.79648457
              22.61482589               11.20815964               97.88863438                0.97697067               -0.05631712                0.14876489                0.04434428                0.04361202                0.01875643                0.53336544
              23.61426272               10.64336952               97.48165123                0.94759725               -0.00433754               -0.00356987                0.03244559                0.06016471                0.00947863                0.01096834
              24.61473914               10.07827417               97.07447455                0.00010000                9.81346167               -0.19175857                0.02001371                8.50274384               12.33420207               -0.59888591
              25.81053195                9.68109123               96.91389830                0.00010000               16.10248964                9.75336344                5.05725558               26.08323530               25.88151335               23.81577841
              26.93678893                9.13781351               96.54317676                0.00010000               12.07165627               11.72392687                2.63906681               31.49702198               20.21319048               25.50930333
              28.05196508                8.55464504               96.05813720                0.00010000               10.56129233                9.81259754                0.44781757               41.88198635               22.79819289               16.65681587
              29.14801478                7.94913345               95.50305141                0.00010000                7.36733268                5.87875345                0.84678919               50.96981244               25.07408224                1.07708372
              30.19931173                7.31935276               94.87180362                0.00010000                3.11982743               -0.21979070                1.74525864               55.42910082               21.51668442              -21.66284924
              31.21041133                6.64479183               94.11838469                0.00010000                2.97463690              -10.09008840               -0.55861307               54.20867416                8.85684894              -55.61373929
              32.25880447                5.88588064               93.20243930                0.00010000               18.66734664              -28.46436104              -13.88358702               39.29673628               -7.30060679             -105.42464145
              33.58375826                4.76361017               92.18470864                0.32877168               32.49537907              -61.74649717              -45.79642858               35.47561433               -6.22211615             -184.58804612
              23.18103794               12.20953615               97.74900834                0.97617761               -0.02491953                0.11058552                0.02432375                0.04167759                0.00269842                0.53566565
              24.18078875               11.64313336               97.33916610                0.94631510                0.00119314               -0.01840789                0.01754802                0.05980500                0.00631641               -0.00884972
              25.18106180               11.07668720               96.92934140                0.00010000               16.35389152               -0.13217477                0.01023648               10.42096791               18.58835209               -0.54362391
              26.50786658               10.71778724               96.89108756                0.00010000               30.92261868                0.22196062                6.39473462               24.76658632               40.24392287               16.29034499
              27.79951418               10.20022550               96.52854828                0.00010000               27.96326215                1.33223807                2.57249584               27.98915158               35.07746009               17.62422607
              29.06713182                9.60667647               95.96542751                0.00010000               24.66047443                0.77998192               -0.91339484               36.89186570               39.70498286                9.90279865
              30.29272367                8.97389030               95.27018942                0.00010000               19.07062850               -0.86739500               -1.45541175               45.65088503               43.37294179               -3.67664769
              31.44854439                8.29848847               94.43409856                0.00010000               12.95674315               -3.78061630               -2.16834004               50.43318360               38.71621588              -23.29891626
              32.55185853                7.54786104               93.39892759                0.00010000               12.62241295               -8.97689501               -8.55817612               47.26292596               22.98251883              -51.32663681
              33.70099265                6.62755457               92.12242891                0.00010000               21.83211038              -17.76230340              -30.49471003               31.05334160                5.68147900              -93.35666957
              34.98850074                5.40970909               90.70653912                0.32900032               28.75080882              -18.84635648              -75.06199580               14.86963310                1.47477873             -157.70349504
              23.74846501               13.21037135               97.60929278                0.97558637               -0.01572515                0.06379689                0.01176861                0.03719231                0.00718064                0.52847152
              24.74830776               12.64300136               97.19677274                0.94576347                0.00198001               -0.01190314                0.01104061                0.04678157                0.01095527               -0.00778926
              25.74850462               12.07563067               96.78426979                0.00010000               21.70088091               -0.08296793                0.00701722                8.90097870               22.07574558               -0.54158418
              27.18232538               11.68553044               96.81294861                0.00010000               42.95890596               -5.41728350                6.29368810               20.61255851               48.64988090               10.50215336
              28.60768273               11.16445828               96.44072751                0.00010000               41.69061037               -7.17476908                1.77110513               22.25183394               43.45088183               11.08838728
              30.01613759               10.57024468               95.81046482                0.00010000               38.07688722               -7.38414967               -2.52322007               28.96263660               49.37402257                5.16708269
              31.36922048                9.93178555               94.99716561                0.00010000               30.89335350               -7.09100381               -4.18230730               35.81070571               53.69137956               -5.64471799
              32.63400466                9.24374043               93.99288761                0.00010000               22.86916328               -6.75684102               -6.86286321               38.56292527               48.65469461              -21.44481234
              33.82660374                8.46525393               92.73802520                0.00010000               19.20092973               -6.50695511              -16.85299172               33.67903291               32.02090886              -44.26090904
              35.01802325                7.53063457               91.19836828                0.00010000               24.51190696               -3.78425063              -44.39588262               19.03877917               11.56366078              -77.94281907
              36.31684188                6.38668304               89.46585281                0.32920485               29.88186299                6.87458084              -97.11200770                9.63611333                4.51399092             -127.46302786
              24.31652177               14.21081209               97.46951926                0.97511002               -0.00567133                0.02884549                0.00227434                0.02755859                0.01191247                0.51393342
              25.31646505               13.64289530               97.05434931                0.87656826                0.00152639               -0.01008952                0.01247152                0.03872078                0.02054828               -0.02170403
              26.31655229               13.07502784               96.63929546                0.00010000               25.74125453               -0.04286531                0.02119380                5.14568549               24.03895053               -0.54665101
              27.83129014               12.60944157               96.70432613                0.00010000               52.16421613               -9.30243591                5.90364540               12.81697369               53.24403475                5.46840654
              29.35983662               12.05673012               96.32009381                0.00010000               52.38835679              -13.57392949                0.91036070               15.18260700               47.76264096                5.39369436
              30.87905728               11.45899348               95.63692049                0.00010000               48.78027065              -14.06094299               -3.86939040               20.99088483               54.15747293                1.18295323
              32.33544203               10.83207022               94.73221654                0.00010000               40.36386176              -12.17513976               -6.38501560               26.16348844               58.75124893               -6.58283034
              33.68633451               10.16335165               93.59831281                0.00010000               30.15515093               -8.75468834              -10.63560264               27.27136906               53.52905590              -18.37065033
              34.93854505                9.41772194               92.17769240                0.00010000               23.70023005               -3.36808789              -23.12473417               22.19131155               35.93611127              -35.63907035
              36.16033912                8.55186956               90.43802225                0.00010000               26.52905050                5.81231351              -54.29850337               11.61993646               13.56473729              -60.88721230
              37.46912606                7.54720071               88.47587975                0.32945846               30.87869428               20.95849024             -111.71506697                5.63237015                5.21689413              -95.73569106
              24.88484976               15.21094826               97.32957205                0.97452070                0.00166591                0.00603987               -0.00739912                0.01668382                0.01799155                0.48625812
              25.88486642               14.64279957               96.91174898                0.75736172                0.00111445               -0.00757724                0.01445929                0.02862246                0.03889309               -0.05572395
              26.88487205               14.07477337               96.49428891                0.00010000               28.60480807               -0.01674911                0.04621079               -0.33181334               25.37480750               -0.58671580
              28.45696258               13.49948172               96.58296416                0.00010000               58.84554594              -12.65075462                5.46735552                2.64961145               56.38877355                1.22162855
              30.06178297               12.89297969               96.19294406                0.00010000               60.18262982              -18.89718927                0.27683048                7.69306922               50.80656482                0.45883798
              31.66061518               12.28902582               95.47555125                0.00010000               56.31745527              -19.27580647               -4.69746926               14.50853629               57.23082759               -2.09975108
              33.18813207               11.68828275               94.50691124                0.00010000               46.65825722              -15.76208209               -7.74191396               18.90766170               61.56254431               -6.98980065
              34.59378032               11.06864667               93.27963829                0.00010000               34.68899958               -9.78189422              -13.02508382               19.20186604               55.76061185              -14.90270122
              35.88191207               10.39789217               91.73905786                0.00010000               26.35814470               -1.02852377              -27.10158190               15.04334016               37.29173077              -26.82616468
              37.12094322                9.64688084               89.85710011                0.00010000               27.84574618               11.65630848              -60.42674830                7.65090606               13.86768291              -43.93154707
              38.43882699                8.80585285               87.73863028                0.32908054               31.78837732               28.61889331             -120.46796247                3.70044002                5.13689667              -66.62334270
              25.45315282               16.21093288               97.18930025                0.97379551                0.00595717               -0.00058573               -0.01735653                0.00622139                0.02384014                0.44304652
              26.45321239               15.64274375               96.76876282                0.64621570                0.00405245               -0.00266411                0.00544622                0.01583717                0.05236215               -0.10876094
              27.45323387               15.07469286               96.34876008                0.00010000               30.64318297               -0.00898992                0.05232659               -7.48146263               26.84683933               -0.58271994
              29.06607605               14.35642648               96.46379653                0.00010000               63.54600159              -16.88452160                5.26718803               -9.52548760               59.83397168               -2.34199423
              30.72415390               13.67878633               96.08294000                0.00010000               65.39244425              -24.28022929                0.29503912                1.59798580               54.28351113               -3.26455306
              32.37392494               13.07347735               95.35315504                0.00010000               60.49102584              -22.83898661               -4.57673541               10.04125796               60.20837060               -4.26481147
              33.93397442               12.51682858               94.34585691                0.00010000               49.34187396              -17.70067705               -7.92296153               13.75826941               63.40973929               -6.44293321
              35.36076242               11.96771377               93.05651701                0.00010000               36.36016277              -10.04595432              -13.86545153               13.47648556               56.59658288              -10.92128599
              36.66117768               11.39715147               91.43500476                0.00010000               27.23170701                0.52557728              -28.91564392               10.42415740               37.39392998              -18.07623280
              37.90539656               10.78499573               89.45994014                0.00010000               28.20065847               15.00581708              -63.53965419                5.53580194               13.59699198              -28.07063332
              39.22519084               10.11957857               87.24406164                0.32922560               31.97942871               33.31455852             -125.19372014                2.58141305                4.86169773              -40.64540059
              26.02135245               17.21093654               97.04855851                0.97282844                0.00707368                0.00288315               -0.02604706                0.00200076                0.02558977                0.34146595
              27.02142319               16.64274629               96.62522803                0.45572951                0.01038113                0.00116439               -0.01132513                0.00472907                0.13325790               -0.15116525
              28.02156007               16.07459357               96.20403972                0.00010000               32.04680873               -0.03756659                0.03192302              -17.18659667               29.57098107               -0.50006500
              29.66235936               15.16179129               96.36880580                0.00010000               67.75658730              -26.04338731                5.63885963              -16.21355041               65.42090269               -3.04914152
              31.37669182               14.40737510               96.02492724                0.00010000               68.05193635              -27.55279934                1.44161407               -1.46152022               59.84961439               -4.66652273
              33.02339809               13.83224609               95.29926076                0.00010000               59.61846139              -24.08379031               -3.16437291                6.54551593               63.06899427               -3.96266568
              34.56906105               13.33426921               94.27284931                0.00010000               47.97945316              -18.06088498               -6.68462398                8.30831144               64.24711566               -4.18379027
              35.98298715               12.86772758               92.94551729                0.00010000               35.20261031               -9.80907542              -12.95541108                7.72047231               56.10597190               -5.97081791
              37.27311325               12.40840372               91.27338879                0.00010000               26.31224989                1.35111221              -28.40017775                5.99963285               36.30276668               -9.23846321
              38.50923215               11.94699718               89.24301800                0.00010000               27.40881550               16.48504081              -63.63203043                3.46778638               12.95706694              -13.60224429
              39.82128956               11.47214402               86.98070630                0.32924366               31.20574134               36.24015792             -126.40663041                1.27290000                4.68233770              -17.84127211
              26.58957335               18.21099055               96.90634910                0.98622239                0.00765987                0.00540020               -0.02135781               -0.00026015                0.14903919                0.26293238
              27.58964995               17.64276704               96.48148322                0.66210143                0.04417900                0.00207546               -0.01191368               -0.02977429                0.33885333               -0.16628950
              28.59045693               17.07394153               96.06042709                0.33143598               40.96867813               -0.06520385                0.06735288              -33.47072931               37.49289107               -0.53349603
              30.40902351               15.83555873               96.37581817                0.33144101               71.70058844              -32.62325586                8.42036582              -22.64414392               81.03475796              -10.12851478
              32.02446870               15.12773034               96.07420284                0.33218807               58.44588159              -27.96447551                4.46407911                2.58982873               65.03982273               -8.80591977
              33.57794115               14.59180154               95.35423960                0.33204737               52.00952292              -24.04445487               -0.30835414                6.84833271               63.21705295               -7.22559487
              35.06465916               14.15561088               94.31286950                0.33142774               43.15481070              -17.86583287               -3.99435576                8.54634718               62.36656241               -6.38396740
              36.44103736               13.77153226               92.96155573                0.33026146               31.86207846               -9.61953224              -10.04171547                9.23316228               53.53611970               -6.73849800
              37.70190073               13.42417371               91.26026432                0.32929129               23.49873111                1.57699945              -24.98518099               10.03696207               33.01303349               -7.70644492
              38.91101198               13.11469654               89.19449008                0.32888099               24.92272224               16.76993612              -59.60138721               11.18838443                9.34462699               -8.50794313
              40.20035517               12.84438173               86.90847659                0.66437946               28.93431916               37.22377124             -122.44969118               10.87507987                0.85556404               -5.56555456
              21.32741975                8.34955064               99.31039597                0.98650089                0.01616436                0.02706706                0.04471776               -0.03551857               -0.17199661                0.21271092
              22.32758139                7.78555377               98.90765190                0.97266528                0.05465823               -0.01618209                0.01881427               -0.05973650               -0.20959730                0.03016893
              23.32851291                7.22218927               98.50399201                0.97279345                0.10273731               -0.06548329                0.03229998               -0.03381661               -0.22807962               -0.00759876
              24.32963614                6.66083013               98.10077890                0.84979008                0.11554038               -0.03708921                0.02929565                0.04587297               -0.19097788               -0.02575289
              25.33082372                6.10158335               97.69778859                0.68350280                0.10271972                0.00052555                0.04002113                0.04782614               -0.12686330               -0.02384199
              26.33169053                5.54418862               97.29572568                0.58169270                0.06932551                0.00499275                0.05715776                0.04204872                0.03143316               -0.03376316
              27.33221023                4.98830093               96.89486025                0.52366751                0.02396816                0.00722776                0.10059639               -0.01675943                0.19445932                0.06019677
              28.33216990                4.43339332               96.49446996                0.48724737               -0.02833957                0.00451568                0.11528331               -0.08133629                0.20939690                0.12573570
              29.33164344                3.87798336               96.09278492                0.48025727               -0.04714625                0.00944284                0.03386753               -0.11893558               -0.01107969                0.09460839
              30.33122697                3.32080894               95.68800014                0.49379481                0.03106565                0.05692642               -0.20542334               -0.10885000               -0.27195398               -0.01552326
              31.33226475                2.76252598               95.28196646                0.76269999                0.10377812                0.09165859               -0.60008004               -0.11654458               -0.34799094               -0.60106174
              21.89106143                9.34982131               99.16876800                0.97416917               -0.03967172                0.08067266                0.06078407               -0.04420761               -0.00518175                0.31887714
              22.89066471                8.78539195               98.76590538                0.94497501               -0.02624323               -0.00072147                0.03963174               -0.06808690                0.02161722                0.04159723
              23.89053657                8.22153443               98.36351049                0.94731405               -0.01334433               -0.07229329                0.03704164                0.00182933                0.08103524               -0.08933268
              24.89039783                7.66045924               97.96177881                0.94801580               -0.04569146                0.02179401                0.02347073                0.04063256                0.14724912               -0.00087690
              25.88962274                7.10158860               97.56056144                0.79159721               -0.08227981                0.04432869               -0.01755324                0.04261136                0.21349469               -0.01207711
              26.88875223                6.54423855               97.15982326                0.53814435               -0.10912236                0.05388681               -0.03860658                0.04626974                0.34343909               -0.03573081
              27.88744029                5.98837321               96.76087943                0.39881185               -0.11184554                0.06277136               -0.06096722               -0.00207608                0.51424790                0.05610726
              28.88651532                5.43343848               96.36230532                0.31058062               -0.03470082                0.03641933               -0.11534732               -0.07044116                0.69043368                0.14177232
              29.88674627                4.87807779               95.96330040                0.25229619                0.06759195                0.00711028               -0.14935903               -0.13826273                0.85398525                0.10935680
              30.88786716                4.32137821               95.56309667                0.20249887                0.13179962                0.02505277               -0.13910559               -0.16834229                0.76998016               -0.16461876
              31.88938227                3.76344257               95.15901495                0.54788846                0.15151069               -0.03119420               -0.37516932                0.01139431                0.68681031               -1.13325408
              22.45539431               10.35116409               99.02878259                0.97625932               -0.08877848                0.15995786                0.03557959               -0.01043319                0.02278204                0.44873687
              23.45450653                9.78553934               98.62415496                0.94836198               -0.09560529                0.01776614                0.03982551                0.02351336                0.11247743                0.02987329
              24.45348221                9.22074340               98.22131729                0.00010000               -0.20559558               -0.16760215                0.04442074                0.36302934                0.43194790               -0.40868186
              25.45039462                8.66126601               97.82317748                0.00010000               -0.27927857               11.78956727                0.01118472               17.95350310                0.59515962               13.77013707
              26.44789664                8.10246992               97.42362727                0.00010000               -0.22816460               12.36795216               -0.07291350               31.14101181                0.58553476               12.90977412
              27.44583133                7.54526636               97.02441147                0.00010000               -0.24639258               10.80617233               -0.09923883               44.98135939                0.74211406                7.11289777
              28.44296879                6.98955636               96.62768936                0.00010000               -0.23874158                8.09734168               -0.09710155               56.04538417                1.02721719               -0.04728367
              29.44105650                6.43412171               96.23131324                0.00010000               -0.10151647                4.22973426               -0.16224057               63.06657371                1.59968060              -10.48843309
              30.44093846                5.87812556               95.83463225                0.00010000                0.07194241               -2.47702986               -0.43863768               65.17445054                2.77912689              -28.43789016
              31.44249534                5.32131000               95.43568331                0.00010000                0.37127284              -15.50687749               -1.01267869               65.43580981                4.38110817              -61.69406218
              32.44836391                4.76190210               95.02757172                0.37364857                0.58685703              -61.07396298               -6.60410941               84.44541626               10.49328185             -119.84783038
              23.02210227               11.35302046               98.88899205                0.97649772               -0.05465955                0.16841155                0.01760382                0.05146722                0.02505933                0.49342120
              24.02155567               10.78574727               98.48196426                0.94775762               -0.00158931               -0.00194745                0.02700717                0.07051869                0.01794189               -0.00404030
              25.02207048               10.21818239               98.07474508                0.00010000               17.30928474               -0.21617820                0.04146406               12.40368286               14.61864524               -0.59454580
              26.36774137                9.89625059               97.95969005                0.00010000               30.31860725               13.94853132                1.38055436               42.07949199               34.54251260               28.18885501
              27.62844263                9.34894765               97.54496936                0.00010000               26.67758098               16.83843415               -8.18595485               56.83371737               40.23328416               26.36246996
              28.90129299                8.76036200               97.03163542                0.00010000               24.55250011               14.88023330               -8.53198983               80.76591675               52.75452541               15.23078484
              30.11949263                8.15032004               96.49272104                0.00010000               17.89923011               10.92692748               -5.91316346              100.67704424               63.25723310                0.86410914
              31.25927759                7.51803316               95.88896973                0.00010000                9.17771831                4.88565012               -2.18164161              112.60872544               66.67382939              -19.12719118
              32.30304699                6.82853719               95.13653365                0.00010000                2.67646158               -5.79247013                0.93972657              113.11725300               56.49510925              -51.76717526
              33.31280682                6.01124066               94.08591138                0.00010000               19.70296966              -29.54895022               -7.19749290               82.64113782               26.43222619             -110.66491187
              34.69710639                4.54196331               92.65630295                0.32822993               38.42995679              -78.83922864              -59.58516978               64.99959991                9.75443398             -228.42288271
              23.59097005               12.35453232               98.74920397                0.97580882               -0.02150667                0.11761095                0.00923892                0.04586126                0.00763822                0.50938726
              24.59075498               11.78550039               98.33933653                0.94627879                0.00412531               -0.01938465                0.01425016                0.06475439                0.01389241               -0.01544519
              25.59105255               11.21641984               97.92949383                0.00010000               28.52321107               -0.14173043                0.01615969               14.69322767               21.05296944               -0.53243191
              27.16121920               10.94023664               97.94036085                0.00010000               56.47035103               -0.28770131               -2.21066145               37.81912876               55.20405068               18.02234840
              28.72045957               10.43923861               97.50987357                0.00010000               54.92790346                2.02922304              -13.33108741               47.28466906               66.46091750               18.16748299
              30.25977727                9.84287103               96.90603033                0.00010000               48.91894680                2.00407852              -14.21358734               64.76435502               84.77392636               10.01050078
              31.69883851                9.20809491               96.22155967                0.00010000               37.76182931                0.74864669              -11.42849984               81.31376093               97.65097533               -2.80937029
              33.01501386                8.53183471               95.40211061                0.00010000               25.56187571               -1.97714882               -7.74679431               91.40390961               98.04216915              -21.03634526
              34.21007602                7.76227616               94.33054487                0.00010000               18.34390617               -7.64119630               -7.49836799               87.76887025               79.71547260              -48.27497147
              35.38189198                6.73033099               92.82963887                0.00010000               23.84172915              -18.71795224              -24.73427134               60.10558908               43.21185041              -94.25232801
              36.68691061                5.18511753               90.87429432                0.32854339               30.50186265              -14.60712832              -88.57641042               31.03165951               18.87946359             -174.89648603
              24.16108335               13.35537268               98.60939548                0.97525678               -0.01201072                0.06209798                0.00611858                0.03898363                0.00984940                0.50547641
              25.16096325               12.78535958               98.19686511                0.94559154                0.00577171               -0.01399016                0.00760137                0.04890362                0.01547704               -0.00593457
              26.16119879               12.21534778               97.78433188                0.00010000               37.01709631               -0.08941482                0.00541895               12.30109711               24.00751904               -0.51304843
              27.90130517               11.89049656               97.85157544                0.00010000               75.51514166               -7.93737200               -4.52701115               29.95909993               63.20660053               10.26349520
              29.67150162               11.38953211               97.40286738                0.00010000               76.32093077               -9.95117365              -16.49954211               34.72520903               75.93937778               11.09885543
              31.42772379               10.80044357               96.72527947                0.00010000               69.26512726               -9.69786441              -17.34840829               46.80444860               96.35733859                5.84808275
              33.05680416               10.16529297               95.91440742                0.00010000               55.27253697               -8.93924905              -14.97836700               58.82096533              110.16278728               -3.64747898
              34.53317453                9.47849018               94.90976753                0.00010000               40.15619754               -8.38502992              -12.63786042               64.72072174              109.85892445              -17.68189226
              35.85992812                8.67571326               93.58347034                0.00010000               27.94513546               -8.16422211              -15.45126750               58.15176301               89.93860689              -38.83186711
              37.09207724                7.63688161               91.76161307                0.00010000               27.41191975               -3.73097182              -38.27556446               34.25289230               49.34400276              -73.21001330
              38.40816651                6.24982074               89.40943664                0.32872111               31.60892752               15.02004591             -109.51209837               18.05734728               22.37573394             -131.03545091
              24.73177593               14.35577428               98.46955036                0.97479260               -0.00179746                0.02545782                0.00294741                0.02806357                0.01223018                0.48798216
              25.73175795               13.78522059               98.05444479                0.94513674                0.00807922               -0.01530686                0.00736487                0.03479877                0.02097613               -0.01499645
              26.73193751               13.21463154               97.63941893                0.00010000               42.72294588               -0.05997852                0.00977834                6.90106742               25.49510329               -0.48372206
              28.58621687               12.78148920               97.73368786                0.00010000               88.65396153              -12.96704972               -6.57698980               17.99024403               67.21509368                4.82780111
              30.50501674               12.24021513               97.26710743                0.00010000               91.69442525              -18.62531940              -18.95655923               22.80915494               80.28951605                5.13449265
              32.42010538               11.64891374               96.53343282                0.00010000               84.60972276              -19.26597315              -19.71822981               32.37917946              101.41623356                1.96540284
              34.19721120               11.02930992               95.62470534                0.00010000               68.94513129              -17.12007927              -17.64011843               41.09207979              115.48607526               -4.33308911
              35.79900800               10.36413411               94.47651683                0.00010000               50.87543291              -13.45499293              -16.25666602               44.05067624              114.92612744              -14.32110345
              37.21471986                9.59899172               92.96108514                0.00010000               34.69171713               -7.42011840              -20.93105929               37.28269037               93.90988985              -29.67078956
              38.49284235                8.65571156               90.90495726                0.00010000               30.37297156                4.46658251              -46.39350990               20.64782495               51.13375818              -54.27898934
              39.82217929                7.48551844               88.27982252                0.32834698               32.93369432               26.49811272             -120.69494527               10.63297653               22.88172110              -92.92498654
              25.30275201               15.35588184               98.32951889                0.97420903                0.00499527                0.00269145               -0.00068747                0.01890454                0.01929674                0.46104502
              26.30280196               14.78505344               97.91187308                0.77289301                0.00997572               -0.01578264                0.00977578                0.02025222                0.04299317               -0.05793262
              27.30295152               14.21414821               97.49469667                0.00010000               46.63622480               -0.03761659                0.02685765               -0.58460529               26.40532432               -0.51058979
              29.23552646               13.63115557               97.60411686                0.00010000               97.86543278              -17.34556513               -7.91254944                3.94330878               69.80836829                0.41786758
              31.26026018               13.01702572               97.12950840                0.00010000              102.53430630              -25.76020369              -20.45113039               12.00540213               83.36789041                0.18268127
              33.28621258               12.41512411               96.36091786                0.00010000               95.15826048              -26.57982623              -21.08450374               22.18230394              104.60950232               -1.32377257
              35.16342539               11.82289139               95.38447110                0.00010000               77.91468369              -22.85507969              -19.21031789               28.95167715              118.35956913               -4.98509009
              36.84450626               11.20939033               94.13418459                0.00010000               57.52895442              -16.58473248              -18.45003786               30.09798096              117.20993424              -11.51261061
              38.31400448               10.52731089               92.48494022                0.00010000               38.70003751               -6.97666463              -24.14582262               24.50075809               95.31894525              -21.95442483
              39.61850701                9.72621326               90.26797927                0.00010000               32.36038938                8.32544625              -50.92613248               13.13530794               51.37325840              -38.29914170
              40.96121226                8.77978300               87.46416801                0.32847608               34.27052567               30.64706274             -126.67519651                6.78004939               22.71274980              -62.93272117
              25.87381082               16.35582811               98.18916662                0.97347762                0.00858108               -0.00574629               -0.00394578                0.01191709                0.02434740                0.42078278
              26.87389663               15.78490494               97.76879894                0.58595675                0.01662332               -0.01109464                0.00035346                0.00875997                0.06284201               -0.12918284
              27.87414328               15.21387921               97.34920401                0.00010000               49.41544548               -0.03051763                0.02784478              -10.38471721               27.68561061               -0.55033256
              29.86220554               14.43457790               97.48084179                0.00010000              104.35064811              -23.45780351               -8.43532389              -12.62052560               73.22525048               -3.39351557
              31.96115625               13.72501106               97.01833537                0.00010000              109.78401250              -33.30627870              -20.62110024                3.72658720               87.20875453               -3.53925618
              34.05788579               13.11731721               96.23899107                0.00010000              101.04111379              -31.63263425              -21.09055748               15.30268047              107.76070587               -3.38557930
              35.98197852               12.57220833               95.22124668                0.00010000               81.93311642              -26.03552822              -19.47355831               20.39287432              120.19764308               -4.80943693
              37.69654812               12.03243946               93.90291270                0.00010000               60.29667813              -18.01162237              -19.21259279               20.21126232              118.03224252               -8.62141529
              39.18791208               11.45945842               92.16417519                0.00010000               40.32641426               -6.57841830              -25.55659945               16.11037611               95.43835052              -15.08694632
              40.50307640               10.82222048               89.84283734                0.00010000               33.13643603               10.33369762              -53.14356853                8.90767899               51.06685230              -24.89493374
              41.85064080               10.09845970               86.92768448                0.32830248               34.75644035               33.27357478             -129.84285212                4.49283864               22.42602773              -39.22273371
              26.44483670               17.35576691               98.04833706                0.94999945                0.00893634               -0.00346337               -0.01747451                0.00586868                0.02261155                0.32196402
              27.44492606               16.78483155               97.62512424                0.34771538                0.03737587               -0.00598316               -0.00769930               -0.01183766                0.13973018               -0.16802823
              28.44558422               16.21353786               97.20420955                0.00010000               51.35290151               -0.12026190               -0.02020012              -23.89880957               30.64598777               -0.52958375
              30.47198409               15.16199950               97.38886108                0.00010000              110.32341942              -36.85931395               -8.23737742              -22.16574304               79.99171386               -4.40225925
              32.65205261               14.35090015               96.97183651                0.00010000              113.65424138              -37.86101454              -18.90017483               -0.60190513               93.63796794               -4.98979624
              34.74506892               13.78247142               96.19987418                0.00010000              100.20540110              -33.59236598              -19.47155626                9.90282322              110.74607728               -3.06473867
              36.65616063               13.30218082               95.16035777                0.00010000               80.82062441              -26.86505066              -18.33548599               11.91087418              120.95996019               -3.05383175
              38.36148141               12.84915788               93.80072420                0.00010000               59.51351754              -18.21712524              -18.45763386               11.04976911              117.71403666               -4.81742926
              39.84643098               12.39574253               92.00817992                0.00010000               39.80889521               -6.25126643              -25.11500475                8.78262671               94.68799579               -8.05693692
              41.15765931               11.93288721               89.62620006                0.00010000               32.60798113               11.08710974              -53.04614194                5.25755129               50.45978344              -12.62473053
              42.49859060               11.44525449               86.65143760                0.32788113               34.09312875               36.55251554             -130.91417590                2.12961582               22.19081001              -18.81955379
              27.01579892               18.35575884               97.90621316                0.93377495                0.00900084               -0.00080719                0.00059906               -0.00113488                0.12899613                0.23962782
              28.01588893               17.78478527               97.48142981                0.59075954                0.16001115               -0.00462766               -0.00840148               -0.11795699                0.36037526               -0.16865376
              29.01899915               17.21147397               97.06117588                0.33269791               63.28197288               -0.20638889                0.01765286              -47.02818998               40.61458527               -1.08815835
              31.28152839               15.69739162               97.42333934                0.33141748              115.48235359              -46.46078775               -5.68775971              -31.22973064               99.07966243              -12.87515485
              33.32864622               14.96779077               97.04943883                0.33209520              101.15665932              -38.31093784              -15.52784336                5.06327491               98.23455845              -10.29319254
              35.30466157               14.44546989               96.28110091                0.33189420               91.24316649              -33.70015269              -17.06018104                9.31509275              110.14503744               -7.18728083
              37.15350955               14.03490732               95.22459568                0.33131299               75.96601097              -26.72735063              -16.31377888               10.86624494              119.43941924               -6.57057795
              38.82398179               13.66809696               93.84469912                0.33028523               56.31628686              -18.10609233              -16.00353463               11.22632735              116.57998974               -7.63913706
              40.27983528               13.33443310               92.03038600                0.32898910               36.73668345               -6.13094317              -21.72541944               12.13371649               93.48132173               -9.41940461
              41.55871546               13.04396268               89.62330856                0.32813568               29.43316398               11.10754623              -48.69256415               14.85946054               49.08027824              -11.20179704
              42.86849856               12.82951001               86.62650672                0.66412653               30.97831006               38.42555174             -126.41030149               15.54552958               21.01531684              -11.84639237
              21.72886731                8.49290148              100.31060052                0.98608498                0.01901237                0.05700320                0.00527745               -0.02510037               -0.09618163                0.12789035
              22.72905743                7.92745284               99.90765245                0.97207365                0.05505158               -0.00099161               -0.00963732               -0.04885510               -0.12170529                0.01671001
              23.72996834                7.36267535               99.50417546                0.97227657                0.09975779               -0.05761329                0.00272612               -0.02455223               -0.13982905                0.00329441
              24.73105259                6.79978663               99.10097148                0.78623737                0.12046826               -0.02846805                0.00388408                0.06177388               -0.11631236                0.00299846
              25.73237770                6.23896078               98.69809324                0.58379354                0.15018472               -0.00999476                0.00578781                0.09527625               -0.02071726               -0.00534496
              26.73405628                5.68042741               98.29627165                0.47500296                0.17237990               -0.04393761                0.02510068                0.08806814                0.22158114                0.03621832
              27.73582530                5.12414613               97.89607843                0.43285692                0.13029968               -0.06172789                0.09863442                0.03911387                0.46933994                0.16933399
              28.73666227                4.56853503               97.49599373                0.41851355                0.01998016               -0.05196435                0.12596698                0.03656295                0.45100831                0.19046049
              29.73622490                4.00969002               97.09352792                0.41509769               -0.06419817               -0.01379023                0.05667636                0.05002723                0.15680162                0.10584162
              30.73537831                3.44538741               96.68637203                0.41195475               -0.00796854                0.01998314               -0.10621107                0.00688267               -0.17382214                0.07995562
              31.73606553                2.87706464               96.27589261                0.70799395                0.06872234               -0.10351727               -0.44136876                0.02166238               -0.33779110               -0.51776403
              22.29406494                9.49347151              100.16916493                0.97329018               -0.03829977                0.12050312                0.01570946               -0.03140665                0.01310979                0.20652478
              23.29368194                8.92744292               99.76620004                0.94445411               -0.02545109                0.01452492                0.01908023               -0.05074484                0.03722791                0.02216601
              24.29355592                8.36209922               99.36386309                0.94649145               -0.00771672               -0.07805998                0.03112018                0.02178874                0.07196971               -0.05873105
              25.29352761                7.79950195               98.96198120                0.94641961               -0.02729205                0.02124256                0.01373216                0.05217285                0.11056158                0.02445059
              26.29301008                7.23886083               98.56028067                0.51454524               -0.05916613                0.02868722               -0.02671042                0.08563125                0.19978952               -0.00531776
              27.29234429                6.67998803               98.15936690                0.23707241               -0.04237246                0.02214524               -0.07441375                0.11019810                0.42117008                0.05333393
              28.29216263                6.12352885               97.75986911                0.15909136                0.09558377               -0.03090917               -0.20300018                0.19398820                0.74665277                0.31076460
              29.29425596                5.56801539               97.36046669                0.19786744                0.30681797               -0.10419050               -0.27901082                0.50162312                1.13391424                0.39857303
              30.29829899                5.00955211               96.96119906                0.24455334                0.37519318               -0.10091285               -0.25946588                1.33861691                1.49872176               -0.02570186
              31.30175983                4.44558724               96.56153267                0.14476947                0.31529686               -0.26207881               -0.19998458                2.98289986                1.43933743               -0.94487635
              32.30460493                3.87602947               96.15518617                0.47452393                0.28451000               -6.33351068               -0.38512896                9.26776291                1.27991135               -7.14909852
              22.86029635               10.49531154              100.02889893                0.97549707               -0.08815198                0.20675846               -0.01344629                0.00906470                0.03275148                0.31765720
              23.85941483                9.92774334               99.62449507                0.94871025               -0.09756309                0.03321119                0.02790328                0.04945954                0.10568283                0.01868352
              24.85834508                9.36111415               99.22187160                0.00010000               -0.20402003               -0.19462520                0.07692558                0.41492444                0.35812616               -0.33882463
              25.85533443                8.80021148               98.82335703                0.00010000               -0.23704179               16.40915029                0.02871336               30.80253457                0.45576299               12.86231783
              26.85360425                8.23953453               98.42272607                0.00010000               -0.18711016               16.99778911               -0.08077773               62.85789925                0.52880511                4.68258123
              27.85159222                7.68087031               98.02344668                0.00010000               -0.09632691               14.88269264               -0.26340166               87.54765172                1.20512160               -0.00023488
              28.85167771                7.12352795               97.62647497                0.02272648                0.45396268               12.45082336               -2.18011535              107.46217084                7.79161756               -5.37958562
              29.86067148                6.56645122               97.22882397                0.18286512                1.68738401                9.89980898               -6.79228930              123.94317803               33.76436621              -11.57664371
              30.88542539                6.00767176               96.82672773                0.33914114                3.39437390                5.19917929              -12.85091918              135.93837383               72.95868149              -23.12020437
              31.92855895                5.44014583               96.41705495                0.24281435                8.75554725               -8.34801943              -16.45848354              135.43212662              115.50355524              -51.34008997
              33.06053634                4.75039443               95.90410904                0.42442563               13.19773813              -76.37997709              -63.01409554              147.69780346              160.89617907             -191.47834456
              23.42938264               11.49760668               99.88898646                0.97598906               -0.05141153                0.20044617               -0.02215687                0.08150907                0.03022993                0.37630535
              24.42886852               10.92810715               99.48219137                0.94832491                0.00018115                0.00901380                0.01357342                0.09809705                0.02862621               -0.00597710
              25.42938626               10.35820671               99.07530383                0.00010000               30.11447001               -0.23311923                0.05649585               17.11647979               13.68313439               -0.48438048
              27.03115792               10.12768496               98.94150939                0.00010000               62.00614859               19.30686666              -28.23451104               69.84216632               95.27609829               29.15079074
              28.66950923                9.57881662               98.37945767                0.00010000               56.40729867               23.30713045              -26.60845514              107.97078619              114.06170021               16.38194001
              30.15930390                8.97764188               97.88749740                0.00010000               44.31579520               21.61860658              -23.30709112              149.65303659              135.08124352                7.54142916
              31.55582514                8.37254532               97.38478814                0.00010000               36.48359074               18.62442819              -19.75875875              184.31774327              147.30019737               -3.29188444
              32.88897571                7.76601157               96.82817079                0.00010000               29.37733578               14.52562690              -16.07163067              209.03607356              154.35219363              -17.18747696
              34.14337185                7.11353570               96.13717922                0.00010000               18.93519891                6.38765798              -11.09475225              217.29148083              150.40598278              -38.19118741
              35.26767969                6.27862685               95.05848945                0.00010000               24.73459755              -18.66697553               -7.67312187              166.39077397              110.34722105              -87.71794154
              36.63806381                4.34842992               92.99300524                0.32801345               37.03841142              -79.58743742              -46.24460168              117.79244596               59.13009111             -215.20293136
              24.00092559               12.49932046               99.74919312                0.97509246               -0.01488577                0.12639057               -0.01461530                0.07732002                0.01274402                0.39662303
              25.00077673               11.92792361               99.33945110                0.94657770                0.00856391               -0.01663704                0.00855481                0.09718404                0.01939282               -0.01379740
              26.00109687               11.35645177               98.92966459                0.00010000               51.53955576               -0.13810566                0.01792372               20.14918023               16.37943652               -0.42473949
              28.03156785               11.18634882               98.84687433                0.00010000              108.09830880               -1.51058105              -37.20195886               57.29946668              106.31708353               13.02671957
              30.16306305               10.70567714               98.26192653                0.00010000              100.96782005                2.51924551              -34.86568000               75.50753269              134.99680211               12.85379407
              32.05092425               10.11324244               97.68115577                0.00010000               79.32999242                4.10809835              -30.00596642              103.13898975              160.96195462                6.68650244
              33.74966289                9.49601651               97.04161943                0.00010000               62.47391594                4.15724844              -24.77650275              128.79421667              174.49040520               -1.96481481
              35.30040257                8.85696376               96.27916267                0.00010000               48.44884147                2.48423994              -19.90212775              145.62764607              178.94345084              -13.67395841
              36.71863972                8.13542492               95.24896023                0.00010000               36.05388196               -2.77296938              -16.22700872              142.00005245              166.37014317              -32.40662835
              38.02148021                7.06680632               93.62774349                0.00010000               27.90696907              -14.37554689              -19.99650164               96.72390395              118.15347162              -65.66336017
              39.27677911                5.15864568               90.93501091                0.32807359               25.52988967                0.60079494              -77.62820029               50.71621678               78.29932688             -139.42180745
              24.57372274               13.50013449               99.60941515                0.97430454               -0.00418359                0.05639239               -0.00440998                0.06658731                0.01228493                0.39092121
              25.57368090               12.92777441               99.19692476                0.94551825                0.01109625               -0.01681102                0.00465967                0.07746861                0.01945338               -0.00495922
              26.57394466               12.35544460               98.78437817                0.00010000               62.71204926               -0.07315768                0.00112064               15.79066745               17.55956146               -0.39270586
              28.82792189               12.09747334               98.72240838                0.00010000              133.94107984              -11.64463215              -44.04014700               39.50463002              111.76962337                6.98640769
              31.25276626               11.62920153               98.11073666                0.00010000              130.19112134              -13.64490945              -40.63244372               48.25747246              141.29990045                7.62938705
              33.43174432               11.05980385               97.46349665                0.00010000              106.76109485              -12.52896509              -34.76417416               66.26742731              169.08378368                4.82819630
              35.38798816               10.45569029               96.69759827                0.00010000               86.51879565              -11.03358754              -28.78900622               85.41545696              182.82241068               -1.00561046
              37.16212023                9.81569637               95.74013040                0.00010000               69.27710913              -10.22256158              -23.98359711               97.52303590              186.40594347               -9.72705232
              38.77353034                9.05807631               94.42899985                0.00010000               50.84083912              -10.62943233              -21.74803418               92.25411200              172.01765630              -23.06342664
              40.17893701                7.99111591               92.43285699                0.00010000               34.75895428               -5.34413731              -29.48242406               57.25831031              122.08241347              -46.34754388
              41.46870943                6.36044582               89.27561085                0.32776159               28.97724156               23.76619675              -91.13831876               31.94553391               79.94110681              -97.07032786
              25.14697751               14.50044831               99.46957821                0.97380911                0.00384910                0.02092048               -0.00108267                0.05413709                0.01027931                0.37718058
              26.14701600               13.92758739               99.05449660                0.82126176                0.01168912               -0.02438220                0.00657549                0.07039534                0.01721706               -0.01830612
              27.14721129               13.35498861               98.63949103                0.00010000               70.04437628               -0.03340530                0.00390085                8.63294381               17.44916355               -0.36088577
              29.54790352               12.95345617               98.57278634                0.00010000              150.93353459              -16.83940960              -48.49770234               23.40933282              113.65648098                2.68123013
              32.16588198               12.43277895               97.94096262                0.00010000              150.09402552              -24.18980777              -44.60520759               31.43902422              144.29200979                3.21953992
              34.54978403               11.86266314               97.24255589                0.00010000              126.80987697              -25.14058669              -38.05606967               45.43320119              172.45310978                1.88445592
              36.70207952               11.27534476               96.37941417                0.00010000              104.93466157              -23.18253363              -31.74230240               59.19589769              186.25378626               -1.56438412
              38.64847727               10.65251253               95.27317949                0.00010000               84.31114484              -20.18488921              -27.07201658               66.14405854              189.63302857               -7.31649297
              40.38830242                9.92283627               93.75907121                0.00010000               60.78998188              -15.11813446              -25.67848706               59.41884968              174.85136728              -16.56138987
              41.86427690                8.95992357               91.51015205                0.00010000               39.43637716               -2.40489917              -34.66383068               35.06884656              123.33106649              -32.42595271
              43.17702996                7.63396961               88.06198085                0.32778700               31.27530575               26.94453195              -96.89268279               19.00435844               80.33397948              -64.44061812
              25.72052732               15.50055290               99.32955830                0.97338609                0.00211931                0.00410285                0.00141534                0.04326677                0.01804806                0.36647395
              26.72054851               14.92728676               98.91194450                0.62818288                0.01037218               -0.03392270                0.00796500                0.08197167                0.04184309               -0.07400795
              27.72073476               14.35477649               98.49482606                0.00010000               74.88848506               -0.04076440               -0.00819257               -0.94548360               17.44807439               -0.39711813
              30.21831821               13.76068514               98.42471317                0.00010000              162.58025085              -22.48221150              -50.90548092                5.20875300              114.88883839               -0.46620935
              32.97233978               13.14540537               97.78392145                0.00010000              163.97621562              -33.35529233              -46.70540984               17.03023533              146.42675592               -0.11087164
              35.49784252               12.55699212               97.05386118                0.00010000              140.48584754              -34.79268496              -39.85691257               31.15389789              174.72414164               -0.38231581
              37.78205673               11.99203962               96.12270488                0.00010000              116.98336830              -31.52957913              -33.49858295               41.34662952              188.20136391               -2.22994791
              39.83750989               11.41199858               94.91063753                0.00010000               93.62197793              -26.18833393              -29.00885583               44.68377466              191.24634412               -5.94676416
              41.65449629               10.75571362               93.25614140                0.00010000               66.58353559              -17.53317169              -27.99557870               38.63684909              175.96175363              -12.17704612
              43.16918060                9.94301793               90.83857746                0.00010000               42.31041159               -1.55236531              -37.34119434               22.12851265              123.62397959              -22.61207281
              44.50070452                8.89933646               87.20512635                0.32797063               33.15239172               25.69423457              -99.33245706               11.98121100               79.99604267              -42.77938895
              26.29437512               16.50053037               99.18922133                0.97283683                0.00567205               -0.01118096                0.00497959                0.02300759                0.01963941                0.33666461
              27.29443184               15.92690894               98.76876988                0.42311755                0.02640589               -0.02659555               -0.00436234                0.07198720                0.07140690               -0.14391992
              28.29490323               15.35417332               98.34931698                0.00010000               78.35089343               -0.13732335               -0.04445596              -13.65443868               18.50225837               -0.48987588
              30.86144971               14.50381194               98.29509005                0.00010000              170.76382399              -31.47182940              -51.25538341              -15.61258786              117.17411421               -3.93022842
              33.71017971               13.76567310               97.67051800                0.00010000              173.23890197              -43.44648307              -46.62954078                6.45479016              149.49796217               -2.36691031
              36.32622775               13.16680944               96.93134389                0.00010000              148.19129664              -41.40753199              -40.00187952               21.55179659              177.07730256               -1.62120282
              38.67400565               12.64475318               95.95638574                0.00010000              122.61255035              -36.10980207              -33.89005836               28.36449514              189.40901617               -2.34525233
              40.77847875               12.12874585               94.67226516                0.00010000               97.80072019              -29.12030008              -29.70485436               28.96777484              191.76955959               -4.72346282
              42.63002005               11.57217284               92.92387277                0.00010000               69.23727815              -18.73297244              -28.94045483               24.35157209              176.07337934               -8.83147322
              44.16322432               10.92887627               90.39706877                0.00010000               43.69985306               -1.44932908              -38.49630674               14.08355022              123.44637387              -15.23075139
              45.50401711               10.14785430               86.64720460                0.32761366               34.07927967               24.87971198             -100.55184099                7.59411145               79.81555725              -27.51855678
              26.86823033               17.50032928               99.04820902                0.73707425                0.01149723               -0.02497295               -0.01253707                0.00979954                0.03085222                0.27352742
              27.86834530               16.92675485               98.62507404                0.17797345                0.12563281               -0.00630604               -0.00802034               -0.04181781                0.12935310               -0.18026775
              28.87074298               16.35203003               98.20363572                0.00010000               81.31106899               -0.79638065               -0.39727509              -31.47852106               22.24077309               -0.68119712
              31.49456668               15.13124856               98.20405825                0.00010000              178.38475495              -49.73564119              -48.78113530              -26.73251085              124.15699960               -6.39398149
              34.43843808               14.27647571               97.64692375                0.00010000              177.76158485              -49.95056253              -44.29795392                0.94057546              155.64616211               -2.92073315
              37.04979838               13.72884148               96.90982964                0.00010000              147.44860725              -44.06034902              -38.24176942               13.64125845              179.03994581               -1.24923005
              39.38741023               13.26984358               95.90613959                0.00010000              121.98236762              -37.45148387              -33.01513915               15.82973938              189.67919497               -1.41937040
              41.48944573               12.82959258               94.57636461                0.00010000               97.69935410              -29.89730849              -29.19323158               14.97893408              191.23905978               -2.80266443
              43.34139731               12.38105417               92.77108869                0.00010000               69.28622060              -19.03996831              -28.54802996               12.36682172              175.50646108               -5.14006115
              44.87517014               11.91403135               90.18209516                0.00010000               43.66166834               -1.62163378              -38.17438592                7.45745166              122.95941505               -8.26114939
              46.21463068               11.39693070               86.36242278                0.32785002               33.94605357               25.47306683             -100.83126988                3.80233946               79.58547720              -14.48778464
              27.44171997               18.50003091               98.90636108                0.80923865                0.01747688               -0.02983714                0.02213658                0.02415498                0.13041536                0.23185798
              28.44189474               17.92678282               98.48131519                0.49901216                0.95595707                0.00279675               -0.02941301               -0.73431623                0.39213880               -0.19275155
              29.46083911               17.33824571               98.06078014                0.37173960               98.02295353               -1.37843156               -3.95512253              -61.87457237               45.97829050               -6.74059930
              32.40235381               15.50909912               98.26206297                0.33055732              183.52795971              -62.21494365              -43.24129046              -37.80048031              143.05126853              -18.87275559
              35.13139830               14.76666185               97.76364597                0.33096317              160.16656211              -50.98138605              -39.12756479                8.12118922              158.45576729               -8.24060271
              37.60568505               14.28560246               97.01303598                0.33104289              137.92255154              -44.32390151              -36.01176729               12.04174997              177.44063548               -6.07528007
              39.88984933               13.89572350               95.98659393                0.33056172              118.05808937              -37.41200733              -31.69854519               12.50377144              188.67679612               -6.24345155
              41.96684684               13.53079968               94.64148504                0.33038341               95.15341921              -29.87929014              -27.55549090               12.52260930              191.63826955               -8.26521097
              43.79291772               13.19137347               92.82575593                0.32927460               66.48249921              -18.96807019              -25.73933273               13.43423662              176.13109549              -12.05498140
              45.29649682               12.89644359               90.22063879                0.32814043               41.06737370               -1.75877549              -34.94156877               15.42977648              123.34709280              -13.85614361
              46.61426519               12.65731564               86.38027056                0.66409423               31.77683713               26.03849383              -97.76857436               16.05065643               80.76420626              -17.89655275
              22.13139227                8.63497963              101.31050152                1.00000000                0.01800785                0.06737646               -0.00990016               -0.03257157               -0.05174044                0.06588172
              23.13157235                8.06879278              100.90745915                1.00000000                0.05025124                0.01998631               -0.01932934               -0.09111089               -0.07125738                0.01677693
              24.13239730                7.50287989              100.50404653                1.00000000                0.09098828               -0.02162198               -0.01289253               -0.11635421               -0.08723256                0.02908993
              25.13339212                6.93887067              100.10085658                1.00000000                0.13559567               -0.03079721               -0.01148972               -0.00897940               -0.07315641                0.02809135
              26.13510921                6.37710158               99.69790435                1.00000000                0.23724214               -0.02521572               -0.01888883                0.10495227                0.04170597                0.02636767
              27.13813696                5.81872249               99.29622769                1.00000000                0.33828678               -0.05922937               -0.00439566                0.29525775                0.35449724                0.04023767
              28.14187495                5.26410626               98.89683294                1.00000000                0.28018094                0.00857030                0.07545028                0.41656667                0.64304493               -0.00533819
              29.14374058                4.70825661               98.49698930                1.00000000                0.12631175                0.03230942                0.09955695                0.44489092                0.56210580               -0.05426157
              30.14440118                4.14475791               98.09391845                1.00000000                0.08226333               -0.03939803                0.03905271                0.31686250                0.26195845               -0.07394676
              31.14538584                3.57208676               97.68587592                1.00000000                0.10332957               -0.02890104               -0.04961049                0.16937758               -0.03821463               -0.00795931
              32.14646777                2.99358357               97.27313909                1.00000000                0.10819280               -0.13394039               -0.27535169                0.27025254               -0.23345948               -0.53077901
              22.69725341                9.63565339              101.16908219                1.00000000               -0.05422953                0.13580396               -0.00827421                0.00716450                0.03932591                0.11879525
              23.69671111                9.06899264              100.76628698                1.00000000               -0.05292999                0.05644514                0.00869420               -0.04572778                0.05545201                0.01766557
              24.69619481                8.50266367              100.36413290                1.00000000               -0.02598163               -0.01768582                0.02698028               -0.05222310                0.05221233               -0.00309144
              25.69619148                7.93856270               99.96205346                1.00000000                0.00190093                0.00567527                0.00722612               -0.02754759                0.06110365                0.05083292
              26.69623282                7.37684942               99.56002723                1.00000000                0.06978588               -0.00785104               -0.02534427                0.14206868                0.13635108                0.00422697
              27.69758720                6.81813020               99.15833499                1.00000000                0.25203636               -0.07956649               -0.10319122                0.76952177                0.36390092               -0.03999612
              28.70127355                6.26419196               98.75681943                1.00000000                0.51382310               -0.35303190               -0.30496792                7.09992092                0.83059825               -1.57098379
              29.70786366                5.70857970               98.35672511                1.00000000                0.71905892                1.33140644               -0.37415859               32.62612276                1.42535207               -6.01966067
              30.71565473                5.14436393               97.95811108                1.00000000                0.74015677                4.74916991               -0.30879762               71.53489824                1.85416748              -12.33404727
              31.72266679                4.57179775               97.55909697                1.00000000                0.60093806               11.27323302               -0.24356980              118.88397643                1.75076118              -16.34706271
              32.72767349                3.99224416               97.15131237                1.00000000                0.50066983              -44.95337152               -0.38738021              169.33021871                1.52839624              -63.67099420
              23.26485706               10.63769571              101.02851366                1.00000000               -0.12095468                0.22994979               -0.03852719                0.17477904                0.07600853                0.21175262
              24.26364752               10.06992168              100.62471303                1.00000000               -0.15371457                0.08395302                0.02179555                0.19650909                0.14037611                0.01527168
              25.26178277                9.50252617              100.22285580                1.00000000               -0.24960519               -0.09809396                0.09841996                0.46414235                0.29570458               -0.27169285
              26.25865541                8.93898418               99.82375174                1.00000000               -0.16998420               25.85931993                0.03947115              107.36681991                0.28989457              -14.47541214
              27.25838309                8.37694455               99.42201172                1.00000000                0.37647194               23.02682816               -0.07143487              157.28013850                0.24746886              -13.62034600
              28.26618485                7.81713116               99.01914344                1.00000000                6.75203829               21.76756511               -0.43032420              189.00506274               -0.43697049              -16.01598452
              29.39342386                7.25704562               98.58408705                1.00000000               32.49531027               20.25729695               -4.23879236              217.06516103                7.99081503              -19.61191122
              30.91609106                6.73488474               98.09546745                1.00000000               65.92286221               20.76826071              -13.33565121              243.43812061               55.21829873              -22.61604781
              32.71188110                6.23974131               97.57761386                1.00000000               87.95470423               24.90585035              -24.91138727              271.39299704              133.19788024              -28.96666857
              34.67518514                5.79755142               97.10651364                1.00000000               99.01491111               23.71977694              -31.05413108              239.80166249              184.14641628              -45.59184232
              36.69217932                4.09451614               95.76728981                1.00000000              101.69941787              -39.26206748             -113.68192283              193.84662781              229.24191546             -236.58290162
              23.83629704               11.64025239              100.88854891                1.00000000               -0.04862123                0.21701906               -0.04375498                0.33452591                0.06012232                0.28447098
              24.83581083               11.07067170              100.48223573                1.00000000                0.00590575                0.02846854                0.00443609                0.37366216                0.06053451               -0.00381494
              25.83641515               10.50070179              100.07587499                1.00000000              106.66493333               -0.18377353                0.05711671               26.72563388              -13.65890630               -0.40066725
              28.96910949               10.45574910               99.39499982                1.00000000              156.36367299               24.04439272              -54.65095623              151.66638547              140.64141983                1.43491063
              30.96368861                9.83738598               99.01280025                1.00000000               81.42389465               29.40454676              -36.66574125              206.27317447              187.94262683               -4.61565087
              32.59758739                9.25348150               98.56549360                1.00000000               58.05672893               29.17353342              -32.20038002              263.25452668              198.06562958               -8.07766062
              34.12482319                8.66933790               98.09754587                1.00000000               49.81714946               29.94714260              -28.72422674              303.38396384              207.00198089              -13.22361417
              35.59393038                8.12394492               97.56753711                1.00000000               47.80123979               30.57555948              -26.06336729              322.17970247              211.35010306              -18.77663473
              37.08084799                7.64248094               96.91463860                1.00000000               53.49974211               29.12908253              -22.25406169              319.96326692              211.99320508              -25.68593424
              38.66392522                7.04619329               95.93244895                1.00000000               46.49143145               12.25724103              -12.60405010              247.41237341              180.46316834              -57.08359651
              40.01067662                5.20700281               93.73141092                1.00000000               34.67513992                0.97798187              -26.15943265              163.39010155              117.15747826             -136.42068615
              24.41070896               12.64203609              100.74891166                1.00000000               -0.00375970                0.12768138               -0.02814534                0.34613579                0.03793233                0.30948071
              25.41067136               12.07049105              100.33950762                1.00000000                0.02545476               -0.02284043                0.00565206                0.36965401                0.03649452               -0.00712796
              26.41121805               11.49885070               99.92985230                1.00000000              127.23137858               -0.15172811                0.01877107               24.99361123              -16.14717940               -0.33614173
              29.95529893               11.41987203               99.19632167                1.00000000              208.74480645               -7.57181956              -65.05526610               65.37072213              136.50849146                2.14095533
              32.58611418               10.96503549               98.81255997                1.00000000              137.20122692                1.28488897              -44.93665633               88.67262714              197.78457995                4.80674804
              34.69932347               10.40060183               98.30591100                1.00000000              100.22627650                4.10629373              -37.52447650              125.79517213              210.51340395                1.96105743
              36.59063971                9.85598847               97.72602961                1.00000000               84.36092977                6.90240607              -31.55898149              162.87947700              219.00553420               -1.94873263
              38.38654207                9.34639593               97.00406805                1.00000000               79.91291780                8.29936990              -27.50946152              195.11479682              222.61270373               -7.92885902
              40.18889807                8.82232296               96.00600469                1.00000000               83.61843364                3.09264048              -24.29555392              211.15034852              218.30787326              -19.61664271
              42.05891074                8.04269624               94.42970883                1.00000000               72.47321187              -10.93355598              -19.80346551              165.74710517              169.52933376              -40.43522544
              43.63836230                6.11407577               91.32173031                1.00000000               57.94515664               -1.27792851              -61.32805962              122.67816946              125.36046774             -111.69402280
              24.98630983               13.64280602              100.60930728                1.00000000                0.00794651                0.05693296               -0.01078776                0.31267621                0.02381135                0.29800441
              25.98638929               13.07021489              100.19695830                1.00000000                0.02982840               -0.03281599                0.00335358                0.31896637                0.02318963               -0.00251768
              26.98690640               12.49766723               99.78435429                1.00000000              141.19749270               -0.09423842               -0.00238837               19.27554080              -20.01311693               -0.29550491
              30.81033915               12.30431271               98.97077250                1.00000000              238.47524829              -14.35315079              -75.16358856               48.39962513              138.53493668               -0.94545579
              33.75641136               11.86308376               98.59021851                1.00000000              170.60993507              -16.68071736              -52.05181585               58.31339354              203.32568437                1.51038875
              36.22253785               11.33560737               98.02999598                1.00000000              134.01036348              -15.21817502              -43.35006665               83.78474063              216.49979311                0.90037312
              38.43661863               10.80738602               97.33862730                1.00000000              115.36769855              -14.15364166              -35.89709744              112.76742787              224.86802772               -1.63894270
              40.52989182               10.28993232               96.43009559                1.00000000              108.54680067              -14.95494068              -31.00348060              136.12085989              227.27127713               -6.02598253
              42.60755465                9.70433375               95.14850966                1.00000000              107.86113452              -19.08502980              -28.04901899              141.17332141              220.49588055              -13.29872080
              44.68711451                8.82752217               93.17196459                1.00000000               85.69631488              -22.06121054              -26.08924000              103.73768971              172.72578024              -27.26078357
              46.32148094                7.18144424               89.58667027                1.00000000               63.43664325                7.65574029              -68.89405781               69.73415620              126.74771901              -66.88823043
              25.56214473               14.64317475              100.46952870                1.00000000                0.00447485                0.03810900               -0.00495076                0.26753551                0.02148152                0.28463969
              26.56218948               14.06983473              100.05457630                1.00000000                0.02431621               -0.04574445                0.00796932                0.28864759                0.01576019               -0.02156219
              27.56263105               13.49696593               99.63949695                1.00000000              149.78427123               -0.06436623                0.00059205               10.76061164              -23.00014806               -0.29334161
              31.55787490               13.13280902               98.76373381                1.00000000              257.92281684              -20.23925238              -80.90525255               28.41619497              137.77245391               -1.30297856
              34.72108739               12.63142114               98.37500328                1.00000000              193.64205618              -28.89154240              -56.59593460               38.33326170              205.94942125                0.12330472
              37.43071602               12.09623833               97.77231142                1.00000000              158.52879679              -30.84587934              -47.02444668               58.04343175              218.83600001                0.04669967
              39.89166332               11.57291564               96.98985930                1.00000000              139.06477544              -30.30325793              -38.95548742               79.25582349              227.09663417               -1.44930523
              42.21201153               11.04729712               95.93507650                1.00000000              129.15556592              -29.92814706              -33.81029909               93.69057630              229.23623197               -4.32594712
              44.47477464               10.44062237               94.44751540                1.00000000              122.22712532              -29.26826697              -31.15558109               92.59599451              222.47742983               -9.39544110
              46.65655404                9.60147203               92.21168065                1.00000000               92.52133199              -22.02335436              -29.84714052               64.07276802              173.95038669              -18.38561466
              48.32520128                8.26719058               88.34196886                1.00000000               66.86472430                7.87636121              -72.00119854               41.89957530              127.84595395              -42.13547337
              26.13834057               15.64356820              100.32954720                1.00000000                0.00304891                0.03679695               -0.00111000                0.22126977                0.02984362                0.28840471
              27.13837106               15.06930000               99.91203238                1.00000000                0.04018863               -0.04688685                0.00878828                0.29256777                0.03153573               -0.09190610
              28.13914434               14.49637990               99.49453282                1.00000000              155.29183889               -0.08469506               -0.02932485               -0.72675562              -24.46029888               -0.39876207
              32.24420784               13.89952766               98.58600724                1.00000000              271.02514719              -27.80903879              -83.87059281                5.77424561              137.63233216               -1.51573285
              35.55964729               13.28525291               98.19540021                1.00000000              209.88520761              -40.83752921              -58.85212460               20.64681933              207.61936925               -0.47818197
              38.44191199               12.71868979               97.56377961                1.00000000              175.55145138              -43.36568136              -49.00815723               39.94580103              220.36190855               -0.49813039
              41.07067631               12.20132086               96.71449945                1.00000000              154.70423134              -41.55235338              -40.82054342               55.51269239              228.37335178               -1.39256485
              43.53599662               11.69136938               95.55400747                1.00000000              141.73116525              -38.75269948              -35.66300614               63.50441462              230.37513282               -3.37596466
              45.90529962               11.11896841               93.92502865                1.00000000              130.30025206              -33.63703468              -33.11127552               60.27435607              223.43772896               -6.78198638
              48.14200166               10.38705508               91.52115539                1.00000000               96.13678663              -21.36921389              -31.74220775               40.60605357              174.90661642              -12.53475668
              49.82803535                9.33897147               87.47751886                1.00000000               68.60336942                6.18007746              -72.76074816               26.26558925              128.36943124              -27.30255958
              26.71510651               16.64391069              100.18926621                1.00000000                0.01226173                0.02647587                0.00448722                0.16778693                0.01768774                0.26498781
              27.71522912               16.06889699               99.76871169                1.00000000                0.13808870               -0.03095580               -0.00581894                0.25383532                0.03216291               -0.15462207
              28.71786828               15.49527203               99.34831489                1.00000000              158.46288388               -0.39645771               -0.10020845              -15.99988141              -23.35237405               -0.80356746
              32.88448680               14.57662824               98.45573412                1.00000000              279.84966849              -41.61903581              -83.93559325              -20.64866244              139.17519256               -1.35681340
              36.31486165               13.81467056               98.08574455                1.00000000              221.45386473              -54.29477006              -58.47734445                7.59268196              209.62916143               -0.57639278
              39.31356410               13.22892470               97.43895348                1.00000000              185.71879655              -52.14475249              -49.23904145               27.59690063              221.61868297               -0.22551520
              42.02923758               12.74186857               96.54344551                1.00000000              162.54440895              -47.88678152              -41.29402289               37.79258321              229.01630028               -1.01068399
              44.56445228               12.27224313               95.30881562                1.00000000              147.76692374              -43.37423319              -36.34495409               40.56649982              230.69338154               -2.50766738
              46.98457606               11.76788167               93.58536610                1.00000000              134.21098893              -36.39551297              -33.85066759               37.36873294              223.66037988               -4.81958267
              49.24867205               11.17408775               91.07291120                1.00000000               98.10521206              -22.14804395              -32.41575687               25.32111625              175.10885204               -8.40100371
              50.94668030               10.39079213               86.91664766                1.00000000               69.80082440                4.17306870              -73.05569364               16.75091547              128.63996438              -17.84155053
              27.29172369               17.64409771              100.04808632                1.00000000                0.03627277                0.00905888               -0.01226948                0.12794300                0.03708770                0.24632732
              28.29208642               17.06868089               99.62496383                1.00000000                0.98458874               -0.02245252               -0.01102102               -0.07817207               -0.21700137               -0.20090358
              29.31141547               16.48845075               99.19626405                1.00000000              160.98748207               -6.64494469               -0.73716711              -28.07925255              -16.51902430               -4.67000109
              33.51183606               15.06714695               98.41323838                1.00000000              287.38945000              -68.63505881              -79.08198780              -36.69460516              146.20760742               -1.27119068
              37.05920447               14.19935751               98.08587743                1.00000000              227.74079647              -62.25681445              -56.10463138                2.02873504              213.16665916                1.34532949
              40.06665199               13.67579474               97.43503879                1.00000000              186.20025431              -55.56865451              -47.47908476               18.05949756              222.39423917                0.79092997
              42.78320955               13.24358523               96.50005499                1.00000000              162.73307591              -49.63694724              -40.60846087               20.87244031              228.67097164               -0.26687127
              45.32131351               12.82388471               95.21685957                1.00000000              148.38100482              -44.98456193              -35.95050430               20.03029149              230.04499509               -1.33210252
              47.75082965               12.39105815               93.43721932                1.00000000              135.21000086              -39.19413380              -33.38693662               17.94684359              223.23587270               -2.48793995
              50.02551353               11.94409420               90.86271234                1.00000000               98.94076302              -24.21676066              -31.93828223               12.69226633              174.91398261               -4.41541506
              51.72964491               11.42243284               86.63481220                1.00000000               70.41313836                2.25456369              -72.76105764                8.72580711              128.71140985               -9.72540737
              27.86849902               18.64409186               99.90665589                1.00000000                0.08136291               -0.00058493                0.02948050                0.11314058                0.09647130                0.26305232
              28.86931265               18.06844794               99.48084155                1.00000000               14.46590767               -0.02329435               -0.04736389               -6.36331357               -3.48733197               -0.24571553
              30.15781717               17.36237314               98.98207343                1.00000000              178.51876437              -12.60776104               -7.87067170              -58.58587348               23.58140531              -19.00631964
              34.43968793               15.20392707               98.55851353                1.00000000              279.44856945              -86.32198798              -70.35494431              -46.85675609              167.97411835              -15.98968997
              37.74678856               14.56953427               98.26688754                1.00000000              209.54191969              -62.98232422              -49.67584311               14.43963657              211.65662734               -1.61174745
              40.63052633               14.11755161               97.56086556                1.00000000              177.59039255              -55.82431258              -45.21704151               15.36720151              218.67098985               -4.22240790
              43.29859641               13.74912962               96.59062478                1.00000000              159.35294278              -49.44556060              -39.59691499               14.28869966              227.51089473               -5.60240877
              45.81758518               13.37255189               95.29358930                1.00000000              146.23535123              -45.13328252              -34.78957348               11.37063612              231.32256317               -8.15180583
              48.22330344               12.98399900               93.51559934                1.00000000              132.67787531              -40.70591542              -31.01565840               13.10741133              224.58296625              -12.89944569
              50.47114269               12.68975254               90.92447719                1.00000000               97.06078642              -25.43416636              -29.61616048               17.15713666              175.24138166              -14.49262030
              52.16451916               12.43588340               86.67113524                1.00000000               69.33764745                1.34505614              -70.91353198               18.10051171              129.69120204              -18.51092053
         1          2         13         12        122        123        134        133  
         2          3         14         13        123        124        135        134  
         3          4         15         14        124        125        136        135  
         4          5         16         15        125        126        137        136  
         5          6         17         16        126        127        138        137  
         6          7         18         17        127        128        139        138  
         7          8         19         18        128        129        140        139  
         8          9         20         19        129        130        141        140  
         9         10         21         20        130        131        142        141  
        10         11         22         21        131        132        143        142  
        12         13         24         23        133        134        145        144  
        13         14         25         24        134        135        146        145  
        14         15         26         25        135        136        147        146  
        15         16         27         26        136        137        148        147  
        16         17         28         27        137        138        149        148  
        17         18         29         28        138        139        150        149  
        18         19         30         29        139        140        151        150  
        19         20         31         30        140        141        152        151  
        20         21         32         31        141        142        153        152  
        21         22         33         32        142        143        154        153  
        23         24         35         34        144        145        156        155  
        24         25         36         35        145        146        157        156  
        25         26         37         36        146        147        158        157  
        26         27         38         37        147        148        159        158  
        27         28         39         38        148        149        160        159  
        28         29         40         39        149        150        161        160  
        29         30         41         40        150        151        162        161  
        30         31         42         41        151        152        163        162  
        31         32         43         42        152        153        164        163  
        32         33         44         43        153        154        165        164  
        34         35         46         45        155        156        167        166  
        35         36         47         46        156        157        168        167  
        36         37         48         47        157        158        169        168  
        37         38         49         48        158        159        170        169  
        38         39         50         49        159        160        171        170  
        39         40         51         50        160        161        172        171  
        40         41         52         51        161        162        173        172  
        41         42         53         52        162        163        174        173  
        42         43         54         53        163        164        175        174  
        43         44         55         54        164        165        176        175  
        45         46         57         56        166        167        178        177  
        46         47         58         57        167        168        179        178  
        47         48         59         58        168        169        180        179  
        48         49         60         59        169        170        181        180  
        49         50         61         60        170        171        182        181  
        50         51         62         61        171        172        183        182  
        51         52         63         62        172        173        184        183  
        52         53         64         63        173        174        185        184  
        53         54         65         64        174        175        186        185  
        54         55         66         65        175        176        187        186  
        56         57         68         67        177        178        189        188  
        57         58         69         68        178        179        190        189  
        58         59         70         69        179        180        191        190  
        59         60         71         70        180        181        192        191  
        60         61         72         71        181        182        193        192  
        61         62         73         72        182        183        194        193  
        62         63         74         73        183        184        195        194  
        63         64         75         74        184        185        196        195  
        64         65         76         75        185        186        197        196  
        65         66         77         76        186        187        198        197  
        67         68         79         78        188        189        200        199  
        68         69         80         79        189        190        201        200  
        69         70         81         80        190        191        202        201  
        70         71         82         81        191        192        203        202  
        71         72         83         82        192        193        204        203  
        72         73         84         83        193        194        205        204  
        73         74         85         84        194        195        206        205  
        74         75         86         85        195        196        207        206  
        75         76         87         86        196        197        208        207  
        76         77         88         87        197        198        209        208  
        78         79         90         89        199        200        211        210  
        79         80         91         90        200        201        212        211  
        80         81         92         91        201        202        213        212  
        81         82         93         92        202        203        214        213  
        82         83         94         93        203        204        215        214  
        83         84         95         94        204        205        216        215  
        84         85         96         95        205        206        217        216  
        85         86         97         96        206        207        218        217  
        86         87         98         97        207        208        219        218  
        87         88         99         98        208        209        220        219  
        89         90        101        100        210        211        222        221  
        90         91        102        101        211        212        223        222  
        91         92        103        102        212        213        224        223  
        92         93        104        103        213        214        225        224  
        93         94        105        104        214        215        226        225  
        94         95        106        105        215        216        227        226  
        95         96        107        106        216        217        228        227  
        96         97        108        107        217        218        229        228  
        97         98        109        108        218        219        230        229  
        98         99        110        109        219        220        231        230  
       100        101        112        111        221        222        233        232  
       101        102        113        112        222        223        234        233  
       102        103        114        113        223        224        235        234  
       103        104        115        114        224        225        236        235  
       104        105        116        115        225        226        237        236  
       105        106        117        116        226        227        238        237  
       106        107        118        117        227        228        239        238  
       107        108        119        118        228        229        240        239  
       108        109        120        119        229        230        241        240  
       109        110        121        120        230        231        242        241  
       122        123        134        133        243        244        255        254  
       123        124        135        134        244        245        256        255  
       124        125        136        135        245        246        257        256  
       125        126        137        136        246        247        258        257  
       126        127        138        137        247        248        259        258  
       127        128        139        138        248        249        260        259  
       128        129        140        139        249        250        261        260  
       129        130        141        140        250        251        262        261  
       130        131        142        141        251        252        263        262  
       131        132        143        142        252        253        264        263  
       133        134        145        144        254        255        266        265  
       134        135        146        145        255        256        267        266  
       135        136        147        146        256        257        268        267  
       136        137        148        147        257        258        269        268  
       137        138        149        148        258        259        270        269  
       138        139        150        149        259        260        271        270  
       139        140        151        150        260        261        272        271  
       140        141        152        151        261        262        273        272  
       141        142        153        152        262        263        274        273  
       142        143        154        153        263        264        275        274  
       144        145        156        155        265        266        277        276  
       145        146        157        156        266        267        278        277  
       146        147        158        157        267        268        279        278  
       147        148        159        158        268        269        280        279  
       148        149        160        159        269        270        281        280  
       149        150        161        160        270        271        282        281  
       150        151        162        161        271        272        283        282  
       151        152        163        162        272        273        284        283  
       152        153        164        163        273        274        285        284  
       153        154        165        164        274        275        286        285  
       155        156        167        166        276        277        288        287  
       156        157        168        167        277        278        289        288  
       157        158        169        168        278        279        290        289  
       158        159        170        169        279        280        291        290  
       159        160        171        170        280        281        292        291  
       160        161        172        171        281        282        293        292  
       161        162        173        172        282        283        294        293  
       162        163        174        173        283        284        295        294  
       163        164        175        174        284        285        296        295  
       164        165        176        175        285        286        297        296  
       166        167        178        177        287        288        299        298  
       167        168        179        178        288        289        300        299  
       168        169        180        179        289        290        301        300  
       169        170        181        180        290        291        302        301  
       170        171        182        181        291        292        303        302  
       171        172        183        182        292        293        304        303  
       172        173        184        183        293        294        305        304  
       173        174        185        184        294        295        306        305  
       174        175        186        185        295        296        307        306  
       175        176        187        186        296        297        308        307  
       177        178        189        188        298        299        310        309  
       178        179        190        189        299        300        311        310  
       179        180        191        190        300        301        312        311  
       180        181        192        191        301        302        313        312  
       181        182        193        192        302        303        314        313  
       182        183        194        193        303        304        315        314  
       183        184        195        194        304        305        316        315  
       184        185        196        195        305        306        317        316  
       185        186        197        196        306        307        318        317  
       186        187        198        197        307        308        319        318  
       188        189        200        199        309        310        321        320  
       189        190        201        200        310        311        322        321  
       190        191        202        201        311        312        323        322  
       191        192        203        202        312        313        324        323  
       192        193        204        203        313        314        325        324  
       193        194        205        204        314        315        326        325  
       194        195        206        205        315        316        327        326  
       195        196        207        206        316        317        328        327  
       196        197        208        207        317        318        329        328  
       197        198        209        208        318        319        330        329  
       199        200        211        210        320        321        332        331  
       200        201        212        211        321        322        333        332  
       201        202        213        212        322        323        334        333  
       202        203        214        213        323        324        335        334  
       203        204        215        214        324        325        336        335  
       204        205        216        215        325        326        337        336  
       205        206        217        216        326        327        338        337  
       206        207        218        217        327        328        339        338  
       207        208        219        218        328        329        340        339  
       208        209        220        219        329        330        341        340  
       210        211        222        221        331        332        343        342  
       211        212        223        222        332        333        344        343  
       212        213        224        223        333        334        345        344  
       213        214        225        224        334        335        346        345  
       214        215        226        225        335        336        347        346  
       215        216        227        226        336        337        348        347  
       216        217        228        227        337        338        349        348  
       217        218        229        228        338        339        350        349  
       218        219        230        229        339        340        351        350  
       219        220        231        230        340        341        352        351  
       221        222        233        232        342        343        354        353  
       222        223        234        233        343        344        355        354  
       223        224        235        234        344        345        356        355  
       224        225        236        235        345        346        357        356  
       225        226        237        236        346        347        358        357  
       226        227        238        237        347        348        359        358  
       227        228        239        238        348        349        360        359  
       228        229        240        239        349        350        361        360  
       229        230        241        240        350        351        362        361  
       230        231        242        241        351        352        363        362  
       243        244        255        254        364        365        376        375  
       244        245        256        255        365        366        377        376  
       245        246        257        256        366        367        378        377  
       246        247        258        257        367        368        379        378  
       247        248        259        258        368        369        380        379  
       248        249        260        259        369        370        381        380  
       249        250        261        260        370        371        382        381  
       250        251        262        261        371        372        383        382  
       251        252        263        262        372        373        384        383  
       252        253        264        263        373        374        385        384  
       254        255        266        265        375        376        387        386  
       255        256        267        266        376        377        388        387  
       256        257        268        267        377        378        389        388  
       257        258        269        268        378        379        390        389  
       258        259        270        269        379        380        391        390  
       259        260        271        270        380        381        392        391  
       260        261        272        271        381        382        393        392  
       261        262        273        272        382        383        394        393  
       262        263        274        273        383        384        395        394  
       263        264        275        274        384        385        396        395  
       265        266        277        276        386        387        398        397  
       266        267        278        277        387        388        399        398  
       267        268        279        278        388        389        400        399  
       268        269        280        279        389        390        401        400  
       269        270        281        280        390        391        402        401  
       270        271        282        281        391        392        403        402  
       271        272        283        282        392        393        404        403  
       272        273        284        283        393        394        405        404  
       273        274        285        284        394        395        406        405  
       274        275        286        285        395        396        407        406  
       276        277        288        287        397        398        409        408  
       277        278        289        288        398        399        410        409  
       278        279        290        289        399        400        411        410  
       279        280        291        290        400        401        412        411  
       280        281        292        291        401        402        413        412  
       281        282        293        292        402        403        414        413  
       282        283        294        293        403        404        415        414  
       283        284        295        294        404        405        416        415  
       284        285        296        295        405        406        417        416  
       285        286        297        296        406        407        418        417  
       287        288        299        298        408        409        420        419  
       288        289        300        299        409        410        421        420  
       289        290        301        300        410        411        422        421  
       290        291        302        301        411        412        423        422  
       291        292        303        302        412        413        424        423  
       292        293        304        303        413        414        425        424  
       293        294        305        304        414        415        426        425  
       294        295        306        305        415        416        427        426  
       295        296        307        306        416        417        428        427  
       296        297        308        307        417        418        429        428  
       298        299        310        309        419        420        431        430  
       299        300        311        310        420        421        432        431  
       300        301        312        311        421        422        433        432  
       301        302        313        312        422        423        434        433  
       302        303        314        313        423        424        435        434  
       303        304        315        314        424        425        436        435  
       304        305        316        315        425        426        437        436  
       305        306        317        316        426        427        438        437  
       306        307        318        317        427        428        439        438  
       307        308        319        318        428        429        440        439  
       309        310        321        320        430        431        442        441  
       310        311        322        321        431        432        443        442  
       311        312        323        322        432        433        444        443  
       312        313        324        323        433        434        445        444  
       313        314        325        324        434        435        446        445  
       314        315        326        325        435        436        447        446  
       315        316        327        326        436        437        448        447  
       316        317        328        327        437        438        449        448  
       317        318        329        328        438        439        450        449  
       318        319        330        329        439        440        451        450  
       320        321        332        331        441        442        453        452  
       321        322        333        332        442        443        454        453  
       322        323        334        333        443        444        455        454  
       323        324        335        334        444        445        456        455  
       324        325        336        335        445        446        457        456  
       325        326        337        336        446        447        458        457  
       326        327        338        337        447        448        459        458  
       327        328        339        338        448        449        460        459  
       328        329        340        339        449        450        461        460  
       329        330        341        340        450        451        462        461  
       331        332        343        342        452        453        464        463  
       332        333        344        343        453        454        465        464  
       333        334        345        344        454        455        466        465  
       334        335        346        345        455        456        467        466  
       335        336        347        346        456        457        468        467  
       336        337        348        347        457        458        469        468  
       337        338        349        348        458        459        470        469  
       338        339        350        349        459        460        471        470  
       339        340        351        350        460        461        472        471  
       340        341        352        351        461        462        473        472  
       342        343        354        353        463        464        475        474  
       343        344        355        354        464        465        476        475  
       344        345        356        355        465        466        477        476  
       345        346        357        356        466        467        478        477  
       346        347        358        357        467        468        479        478  
       347        348        359        358        468        469        480        479  
       348        349        360        359        469        470        481        480  
       349        350        361        360        470        471        482        481  
       350        351        362        361        471        472        483        482  
       351        352        363        362        472        473        484        483  
       364        365        376        375        485        486        497        496  
       365        366        377        376        486        487        498        497  
       366        367        378        377        487        488        499        498  
       367        368        379        378        488        489        500        499  
       368        369        380        379        489        490        501        500  
       369        370        381        380        490        491        502        501  
       370        371        382        381        491        492        503        502  
       371        372        383        382        492        493        504        503  
       372        373        384        383        493        494        505        504  
       373        374        385        384        494        495        506        505  
       375        376        387        386        496        497        508        507  
       376        377        388        387        497        498        509        508  
       377        378        389        388        498        499        510        509  
       378        379        390        389        499        500        511        510  
       379        380        391        390        500        501        512        511  
       380        381        392        391        501        502        513        512  
       381        382        393        392        502        503        514        513  
       382        383        394        393        503        504        515        514  
       383        384        395        394        504        505        516        515  
       384        385        396        395        505        506        517        516  
       386        387        398        397        507        508        519        518  
       387        388        399        398        508        509        520        519  
       388        389        400        399        509        510        521        520  
       389        390        401        400        510        511        522        521  
       390        391        402        401        511        512        523        522  
       391        392        403        402        512        513        524        523  
       392        393        404        403        513        514        525        524  
       393        394        405        404        514        515        526        525  
       394        395        406        405        515        516        527        526  
       395        396        407        406        516        517        528        527  
       397        398        409        408        518        519        530        529  
       398        399        410        409        519        520        531        530  
       399        400        411        410        520        521        532        531  
       400        401        412        411        521        522        533        532  
       401        402        413        412        522        523        534        533  
       402        403        414        413        523        524        535        534  
       403        404        415        414        524        525        536        535  
       404        405        416        415        525        526        537        536  
       405        406        417        416        526        527        538        537  
       406        407        418        417        527        528        539        538  
       408        409        420        419        529        530        541        540  
       409        410        421        420        530        531        542        541  
       410        411        422        421        531        532        543        542  
       411        412        423        422        532        533        544        543  
       412        413        424        423        533        534        545        544  
       413        414        425        424        534        535        546        545  
       414        415        426        425        535        536        547        546  
       415        416        427        426        536        537        548        547  
       416        417        428        427        537        538        549        548  
       417        418        429        428        538        539        550        549  
       419        420        431        430        540        541        552        551  
       420        421        432        431        541        542        553        552  
       421        422        433        432        542        543        554        553  
       422        423        434        433        543        544        555        554  
       423        424        435        434        544        545        556        555  
       424        425        436        435        545        546        557        556  
       425        426        437        436        546        547        558        557  
       426        427        438        437        547        548        559        558  
       427        428        439        438        548        549        560        559  
       428        429        440        439        549        550        561        560  
       430        431        442        441        551        552        563        562  
       431        432        443        442        552        553        564        563  
       432        433        444        443        553        554        565        564  
       433        434        445        444        554        555        566        565  
       434        435        446        445        555        556        567        566  
       435        436        447        446        556        557        568        567  
       436        437        448        447        557        558        569        568  
       437        438        449        448        558        559        570        569  
       438        439        450        449        559        560        571        570  
       439        440        451        450        560        561        572        571  
       441        442        453        452        562        563        574        573  
       442        443        454        453        563        564        575        574  
       443        444        455        454        564        565        576        575  
       444        445        456        455        565        566        577        576  
       445        446        457        456        566        567        578        577  
       446        447        458        457        567        568        579        578  
       447        448        459        458        568        569        580        579  
       448        449        460        459        569        570        581        580  
       449        450        461        460        570        571        582        581  
       450        451        462        461        571        572        583        582  
       452        453        464        463        573        574        585        584  
       453        454        465        464        574        575        586        585  
       454        455        466        465        575        576        587        586  
       455        456        467        466        576        577        588        587  
       456        457        468        467        577        578        589        588  
       457        458        469        468        578        579        590        589  
       458        459        470        469        579        580        591        590  
       459        460        471        470        580        581        592        591  
       460        461        472        471        581        582        593        592  
       461        462        473        472        582        583        594        593  
       463        464        475        474        584        585        596        595  
       464        465        476        475        585        586        597        596  
       465        466        477        476        586        587        598        597  
       466        467        478        477        587        588        599        598  
       467        468        479        478        588        589        600        599  
       468        469        480        479        589        590        601        600  
       469        470        481        480        590        591        602        601  
       470        471        482        481        591        592        603        602  
       471        472        483        482        592        593        604        603  
       472        473        484        483        593        594        605        604  
       485        486        497        496        606        607        618        617  
       486        487        498        497        607        608        619        618  
       487        488        499        498        608        609        620        619  
       488        489        500        499        609        610        621        620  
       489        490        501        500        610        611        622        621  
       490        491        502        501        611        612        623        622  
       491        492        503        502        612        613        624        623  
       492        493        504        503        613        614        625        624  
       493        494        505        504        614        615        626        625  
       494        495        506        505        615        616        627        626  
       496        497        508        507        617        618        629        628  
       497        498        509        508        618        619        630        629  
       498        499        510        509        619        620        631        630  
       499        500        511        510        620        621        632        631  
       500        501        512        511        621        622        633        632  
       501        502        513        512        622        623        634        633  
       502        503        514        513        623        624        635        634  
       503        504        515        514        624        625        636        635  
       504        505        516        515        625        626        637        636  
       505        506        517        516        626        627        638        637  
       507        508        519        518        628        629        640        639  
       508        509        520        519        629        630        641        640  
       509        510        521        520        630        631        642        641  
       510        511        522        521        631        632        643        642  
       511        512        523        522        632        633        644        643  
       512        513        524        523        633        634        645        644  
       513        514        525        524        634        635        646        645  
       514        515        526        525        635        636        647        646  
       515        516        527        526        636        637        648        647  
       516        517        528        527        637        638        649        648  
       518        519        530        529        639        640        651        650  
       519        520        531        530        640        641        652        651  
       520        521        532        531        641        642        653        652  
       521        522        533        532        642        643        654        653  
       522        523        534        533        643        644        655        654  
       523        524        535        534        644        645        656        655  
       524        525        536        535        645        646        657        656  
       525        526        537        536        646        647        658        657  
       526        527        538        537        647        648        659        658  
       527        528        539        538        648        649        660        659  
       529        530        541        540        650        651        662        661  
       530        531        542        541        651        652        663        662  
       531        532        543        542        652        653        664        663  
       532        533        544        543        653        654        665        664  
       533        534        545        544        654        655        666        665  
       534        535        546        545        655        656        667        666  
       535        536        547        546        656        657        668        667  
       536        537        548        547        657        658        669        668  
       537        538        549        548        658        659        670        669  
       538        539        550        549        659        660        671        670  
       540        541        552        551        661        662        673        672  
       541        542        553        552        662        663        674        673  
       542        543        554        553        663        664        675        674  
       543        544        555        554        664        665        676        675  
       544        545        556        555        665        666        677        676  
       545        546        557        556        666        667        678        677  
       546        547        558        557        667        668        679        678  
       547        548        559        558        668        669        680        679  
       548        549        560        559        669        670        681        680  
       549        550        561        560        670        671        682        681  
       551        552        563        562        672        673        684        683  
       552        553        564        563        673        674        685        684  
       553        554        565        564        674        675        686        685  
       554        555        566        565        675        676        687        686  
       555        556        567        566        676        677        688        687  
       556        557        568        567        677        678        689        688  
       557        558        569        568        678        679        690        689  
       558        559        570        569        679        680        691        690  
       559        560        571        570        680        681        692        691  
       560        561        572        571        681        682        693        692  
       562        563        574        573        683        684        695        694  
       563        564        575        574        684        685        696        695  
       564        565        576        575        685        686        697        696  
       565        566        577        576        686        687        698        697  
       566        567        578        577        687        688        699        698  
       567        568        579        578        688        689        700        699  
       568        569        580        579        689        690        701        700  
       569        570        581        580        690        691        702        701  
       570        571        582        581        691        692        703        702  
       571        572        583        582        692        693        704        703  
       573        574        585        584        694        695        706        705  
       574        575        586        585        695        696        707        706  
       575        576        587        586        696        697        708        707  
       576        577        588        587        697        698        709        708  
       577        578        589        588        698        699        710        709  
       578        579        590        589        699        700        711        710  
       579        580        591        590        700        701        712        711  
       580        581        592        591        701        702        713        712  
       581        582        593        592        702        703        714        713  
       582        583        594        593        703        704        715        714  
       584        585        596        595        705        706        717        716  
       585        586        597        596        706        707        718        717  
       586        587        598        597        707        708        719        718  
       587        588        599        598        708        709        720        719  
       588        589        600        599        709        710        721        720  
       589        590        601        600        710        711        722        721  
       590        591        602        601        711        712        723        722  
       591        592        603        602        712        713        724        723  
       592        593        604        603        713        714        725        724  
       593        594        605        604        714        715        726        725  
       606        607        618        617        727        728        739        738  
       607        608        619        618        728        729        740        739  
       608        609        620        619        729        730        741        740  
       609        610        621        620        730        731        742        741  
       610        611        622        621        731        732        743        742  
       611        612        623        622        732        733        744        743  
       612        613        624        623        733        734        745        744  
       613        614        625        624        734        735        746        745  
       614        615        626        625        735        736        747        746  
       615        616        627        626        736        737        748        747  
       617        618        629        628        738        739        750        749  
       618        619        630        629        739        740        751        750  
       619        620        631        630        740        741        752        751  
       620        621        632        631        741        742        753        752  
       621        622        633        632        742        743        754        753  
       622        623        634        633        743        744        755        754  
       623        624        635        634        744        745        756        755  
       624        625        636        635        745        746        757        756  
       625        626        637        636        746        747        758        757  
       626        627        638        637        747        748        759        758  
       628        629        640        639        749        750        761        760  
       629        630        641        640        750        751        762        761  
       630        631        642        641        751        752        763        762  
       631        632        643        642        752        753        764        763  
       632        633        644        643        753        754        765        764  
       633        634        645        644        754        755        766        765  
       634        635        646        645        755        756        767        766  
       635        636        647        646        756        757        768        767  
       636        637        648        647        757        758        769        768  
       637        638        649        648        758        759        770        769  
       639        640        651        650        760        761        772        771  
       640        641        652        651        761        762        773        772  
       641        642        653        652        762        763        774        773  
       642        643        654        653        763        764        775        774  
       643        644        655        654        764        765        776        775  
       644        645        656        655        765        766        777        776  
       645        646        657        656        766        767        778        777  
       646        647        658        657        767        768        779        778  
       647        648        659        658        768        769        780        779  
       648        649        660        659        769        770        781        780  
       650        651        662        661        771        772        783        782  
       651        652        663        662        772        773        784        783  
       652        653        664        663        773        774        785        784  
       653        654        665        664        774        775        786        785  
       654        655        666        665        775        776        787        786  
       655        656        667        666        776        777        788        787  
       656        657        668        667        777        778        789        788  
       657        658        669        668        778        779        790        789  
       658        659        670        669        779        780        791        790  
       659        660        671        670        780        781        792        791  
       661        662        673        672        782        783        794        793  
       662        663        674        673        783        784        795        794  
       663        664        675        674        784        785        796        795  
       664        665        676        675        785        786        797        796  
       665        666        677        676        786        787        798        797  
       666        667        678        677        787        788        799        798  
       667        668        679        678        788        789        800        799  
       668        669        680        679        789        790        801        800  
       669        670        681        680        790        791        802        801  
       670        671        682        681        791        792        803        802  
       672        673        684        683        793        794        805        804  
       673        674        685        684        794        795        806        805  
       674        675        686        685        795        796        807        806  
       675        676        687        686        796        797        808        807  
       676        677        688        687        797        798        809        808  
       677        678        689        688        798        799        810        809  
       678        679        690        689        799        800        811        810  
       679        680        691        690        800        801        812        811  
       680        681        692        691        801        802        813        812  
       681        682        693        692        802        803        814        813  
       683        684        695        694        804        805        816        815  
       684        685        696        695        805        806        817        816  
       685        686        697        696        806        807        818        817  
       686        687        698        697        807        808        819        818  
       687        688        699        698        808        809        820        819  
       688        689        700        699        809        810        821        820  
       689        690        701        700        810        811        822        821  
       690        691        702        701        811        812        823        822  
       691        692        703        702        812        813        824        823  
       692        693        704        703        813        814        825        824  
       694        695        706        705        815        816        827        826  
       695        696        707        706        816        817        828        827  
       696        697        708        707        817        818        829        828  
       697        698        709        708        818        819        830        829  
       698        699        710        709        819        820        831        830  
       699        700        711        710        820        821        832        831  
       700        701        712        711        821        822        833        832  
       701        702        713        712        822        823        834        833  
       702        703        714        713        823        824        835        834  
       703        704        715        714        824        825        836        835  
       705        706        717        716        826        827        838        837  
       706        707        718        717        827        828        839        838  
       707        708        719        718        828        829        840        839  
       708        709        720        719        829        830        841        840  
       709        710        721        720        830        831        842        841  
       710        711        722        721        831        832        843        842  
       711        712        723        722        832        833        844        843  
       712        713        724        723        833        834        845        844  
       713        714        725        724        834        835        846        845  
       714        715        726        725        835        836        847        846  
       727        728        739        738        848        849        860        859  
       728        729        740        739        849        850        861        860  
       729        730        741        740        850        851        862        861  
       730        731        742        741        851        852        863        862  
       731        732        743        742        852        853        864        863  
       732        733        744        743        853        854        865        864  
       733        734        745        744        854        855        866        865  
       734        735        746        745        855        856        867        866  
       735        736        747        746        856        857        868        867  
       736        737        748        747        857        858        869        868  
       738        739        750        749        859        860        871        870  
       739        740        751        750        860        861        872        871  
       740        741        752        751        861        862        873        872  
       741        742        753        752        862        863        874        873  
       742        743        754        753        863        864        875        874  
       743        744        755        754        864        865        876        875  
       744        745        756        755        865        866        877        876  
       745        746        757        756        866        867        878        877  
       746        747        758        757        867        868        879        878  
       747        748        759        758        868        869        880        879  
       749        750        761        760        870        871        882        881  
       750        751        762        761        871        872        883        882  
       751        752        763        762        872        873        884        883  
       752        753        764        763        873        874        885        884  
       753        754        765        764        874        875        886        885  
       754        755        766        765        875        876        887        886  
       755        756        767        766        876        877        888        887  
       756        757        768        767        877        878        889        888  
       757        758        769        768        878        879        890        889  
       758        759        770        769        879        880        891        890  
       760        761        772        771        881        882        893        892  
       761        762        773        772        882        883        894        893  
       762        763        774        773        883        884        895        894  
       763        764        775        774        884        885        896        895  
       764        765        776        775        885        886        897        896  
       765        766        777        776        886        887        898        897  
       766        767        778        777        887        888        899        898  
       767        768        779        778        888        889        900        899  
       768        769        780        779        889        890        901        900  
       769        770        781        780        890        891        902        901  
       771        772        783        782        892        893        904        903  
       772        773        784        783        893        894        905        904  
       773        774        785        784        894        895        906        905  
       774        775        786        785        895        896        907        906  
       775        776        787        786        896        897        908        907  
       776        777        788        787        897        898        909        908  
       777        778        789        788        898        899        910        909  
       778        779        790        789        899        900        911        910  
       779        780        791        790        900        901        912        911  
       780        781        792        791        901        902        913        912  
       782        783        794        793        903        904        915        914  
       783        784        795        794        904        905        916        915  
       784        785        796        795        905        906        917        916  
       785        786        797        796        906        907        918        917  
       786        787        798        797        907        908        919        918  
       787        788        799        798        908        909        920        919  
       788        789        800        799        909        910        921        920  
       789        790        801        800        910        911        922        921  
       790        791        802        801        911        912        923        922  
       791        792        803        802        912        913        924        923  
       793        794        805        804        914        915        926        925  
       794        795        806        805        915        916        927        926  
       795        796        807        806        916        917        928        927  
       796        797        808        807        917        918        929        928  
       797        798        809        808        918        919        930        929  
       798        799        810        809        919        920        931        930  
       799        800        811        810        920        921        932        931  
       800        801        812        811        921        922        933        932  
       801        802        813        812        922        923        934        933  
       802        803        814        813        923        924        935        934  
       804        805        816        815        925        926        937        936  
       805        806        817        816        926        927        938        937  
       806        807        818        817        927        928        939        938  
       807        808        819        818        928        929        940        939  
       808        809        820        819        929        930        941        940  
       809        810        821        820        930        931        942        941  
       810        811        822        821        931        932        943        942  
       811        812        823        822        932        933        944        943  
       812        813        824        823        933        934        945        944  
       813        814        825        824        934        935        946        945  
       815        816        827        826        936        937        948        947  
       816        817        828        827        937        938        949        948  
       817        818        829        828        938        939        950        949  
       818        819        830        829        939        940        951        950  
       819        820        831        830        940        941        952        951  
       820        821        832        831        941        942        953        952  
       821        822        833        832        942        943        954        953  
       822        823        834        833        943        944        955        954  
       823        824        835        834        944        945        956        955  
       824        825        836        835        945        946        957        956  
       826        827        838        837        947        948        959        958  
       827        828        839        838        948        949        960        959  
       828        829        840        839        949        950        961        960  
       829        830        841        840        950        951        962        961  
       830        831        842        841        951        952        963        962  
       831        832        843        842        952        953        964        963  
       832        833        844        843        953        954        965        964  
       833        834        845        844        954        955        966        965  
       834        835        846        845        955        956        967        966  
       835        836        847        846        956        957        968        967  
       848        849        860        859        969        970        981        980  
       849        850        861        860        970        971        982        981  
       850        851        862        861        971        972        983        982  
       851        852        863        862        972        973        984        983  
       852        853        864        863        973        974        985        984  
       853        854        865        864        974        975        986        985  
       854        855        866        865        975        976        987        986  
       855        856        867        866        976        977        988        987  
       856        857        868        867        977        978        989        988  
       857        858        869        868        978        979        990        989  
       859        860        871        870        980        981        992        991  
       860        861        872        871        981        982        993        992  
       861        862        873        872        982        983        994        993  
       862        863        874        873        983        984        995        994  
       863        864        875        874        984        985        996        995  
       864        865        876        875        985        986        997        996  
       865        866        877        876        986        987        998        997  
       866        867        878        877        987        988        999        998  
       867        868        879        878        988        989       1000        999  
       868        869        880        879        989        990       1001       1000  
       870        871        882        881        991        992       1003       1002  
       871        872        883        882        992        993       1004       1003  
       872        873        884        883        993        994       1005       1004  
       873        874        885        884        994        995       1006       1005  
       874        875        886        885        995        996       1007       1006  
       875        876        887        886        996        997       1008       1007  
       876        877        888        887        997        998       1009       1008  
       877        878        889        888        998        999       1010       1009  
       878        879        890        889        999       1000       1011       1010  
       879        880        891        890       1000       1001       1012       1011  
       881        882        893        892       1002       1003       1014       1013  
       882        883        894        893       1003       1004       1015       1014  
       883        884        895        894       1004       1005       1016       1015  
       884        885        896        895       1005       1006       1017       1016  
       885        886        897        896       1006       1007       1018       1017  
       886        887        898        897       1007       1008       1019       1018  
       887        888        899        898       1008       1009       1020       1019  
       888        889        900        899       1009       1010       1021       1020  
       889        890        901        900       1010       1011       1022       1021  
       890        891        902        901       1011       1012       1023       1022  
       892        893        904        903       1013       1014       1025       1024  
       893        894        905        904       1014       1015       1026       1025  
       894        895        906        905       1015       1016       1027       1026  
       895        896        907        906       1016       1017       1028       1027  
       896        897        908        907       1017       1018       1029       1028  
       897        898        909        908       1018       1019       1030       1029  
       898        899        910        909       1019       1020       1031       1030  
       899        900        911        910       1020       1021       1032       1031  
       900        901        912        911       1021       1022       1033       1032  
       901        902        913        912       1022       1023       1034       1033  
       903        904        915        914       1024       1025       1036       1035  
       904        905        916        915       1025       1026       1037       1036  
       905        906        917        916       1026       1027       1038       1037  
       906        907        918        917       1027       1028       1039       1038  
       907        908        919        918       1028       1029       1040       1039  
       908        909        920        919       1029       1030       1041       1040  
       909        910        921        920       1030       1031       1042       1041  
       910        911        922        921       1031       1032       1043       1042  
       911        912        923        922       1032       1033       1044       1043  
       912        913        924        923       1033       1034       1045       1044  
       914        915        926        925       1035       1036       1047       1046  
       915        916        927        926       1036       1037       1048       1047  
       916        917        928        927       1037       1038       1049       1048  
       917        918        929        928       1038       1039       1050       1049  
       918        919        930        929       1039       1040       1051       1050  
       919        920        931        930       1040       1041       1052       1051  
       920        921        932        931       1041       1042       1053       1052  
       921        922        933        932       1042       1043       1054       1053  
       922        923        934        933       1043       1044       1055       1054  
       923        924        935        934       1044       1045       1056       1055  
       925        926        937        936       1046       1047       1058       1057  
       926        927        938        937       1047       1048       1059       1058  
       927        928        939        938       1048       1049       1060       1059  
       928        929        940        939       1049       1050       1061       1060  
       929        930        941        940       1050       1051       1062       1061  
       930        931        942        941       1051       1052       1063       1062  
       931        932        943        942       1052       1053       1064       1063  
       932        933        944        943       1053       1054       1065       1064  
       933        934        945        944       1054       1055       1066       1065  
       934        935        946        945       1055       1056       1067       1066  
       936        937        948        947       1057       1058       1069       1068  
       937        938        949        948       1058       1059       1070       1069  
       938        939        950        949       1059       1060       1071       1070  
       939        940        951        950       1060       1061       1072       1071  
       940        941        952        951       1061       1062       1073       1072  
       941        942        953        952       1062       1063       1074       1073  
       942        943        954        953       1063       1064       1075       1074  
       943        944        955        954       1064       1065       1076       1075  
       944        945        956        955       1065       1066       1077       1076  
       945        946        957        956       1066       1067       1078       1077  
       947        948        959        958       1068       1069       1080       1079  
       948        949        960        959       1069       1070       1081       1080  
       949        950        961        960       1070       1071       1082       1081  
       950        951        962        961       1071       1072       1083       1082  
       951        952        963        962       1072       1073       1084       1083  
       952        953        964        963       1073       1074       1085       1084  
       953        954        965        964       1074       1075       1086       1085  
       954        955        966        965       1075       1076       1087       1086  
       955        956        967        966       1076       1077       1088       1087  
       956        957        968        967       1077       1078       1089       1088  
       969        970        981        980       1090       1091       1102       1101  
       970        971        982        981       1091       1092       1103       1102  
       971        972        983        982       1092       1093       1104       1103  
       972        973        984        983       1093       1094       1105       1104  
       973        974        985        984       1094       1095       1106       1105  
       974        975        986        985       1095       1096       1107       1106  
       975        976        987        986       1096       1097       1108       1107  
       976        977        988        987       1097       1098       1109       1108  
       977        978        989        988       1098       1099       1110       1109  
       978        979        990        989       1099       1100       1111       1110  
       980        981        992        991       1101       1102       1113       1112  
       981        982        993        992       1102       1103       1114       1113  
       982        983        994        993       1103       1104       1115       1114  
       983        984        995        994       1104       1105       1116       1115  
       984        985        996        995       1105       1106       1117       1116  
       985        986        997        996       1106       1107       1118       1117  
       986        987        998        997       1107       1108       1119       1118  
       987        988        999        998       1108       1109       1120       1119  
       988        989       1000        999       1109       1110       1121       1120  
       989        990       1001       1000       1110       1111       1122       1121  
       991        992       1003       1002       1112       1113       1124       1123  
       992        993       1004       1003       1113       1114       1125       1124  
       993        994       1005       1004       1114       1115       1126       1125  
       994        995       1006       1005       1115       1116       1127       1126  
       995        996       1007       1006       1116       1117       1128       1127  
       996        997       1008       1007       1117       1118       1129       1128  
       997        998       1009       1008       1118       1119       1130       1129  
       998        999       1010       1009       1119       1120       1131       1130  
       999       1000       1011       1010       1120       1121       1132       1131  
      1000       1001       1012       1011       1121       1122       1133       1132  
      1002       1003       1014       1013       1123       1124       1135       1134  
      1003       1004       1015       1014       1124       1125       1136       1135  
      1004       1005       1016       1015       1125       1126       1137       1136  
      1005       1006       1017       1016       1126       1127       1138       1137  
      1006       1007       1018       1017       1127       1128       1139       1138  
      1007       1008       1019       1018       1128       1129       1140       1139  
      1008       1009       1020       1019       1129       1130       1141       1140  
      1009       1010       1021       1020       1130       1131       1142       1141  
      1010       1011       1022       1021       1131       1132       1143       1142  
      1011       1012       1023       1022       1132       1133       1144       1143  
      1013       1014       1025       1024       1134       1135       1146       1145  
      1014       1015       1026       1025       1135       1136       1147       1146  
      1015       1016       1027       1026       1136       1137       1148       1147  
      1016       1017       1028       1027       1137       1138       1149       1148  
      1017       1018       1029       1028       1138       1139       1150       1149  
      1018       1019       1030       1029       1139       1140       1151       1150  
      1019       1020       1031       1030       1140       1141       1152       1151  
      1020       1021       1032       1031       1141       1142       1153       1152  
      1021       1022       1033       1032       1142       1143       1154       1153  
      1022       1023       1034       1033       1143       1144       1155       1154  
      1024       1025       1036       1035       1145       1146       1157       1156  
      1025       1026       1037       1036       1146       1147       1158       1157  
      1026       1027       1038       1037       1147       1148       1159       1158  
      1027       1028       1039       1038       1148       1149       1160       1159  
      1028       1029       1040       1039       1149       1150       1161       1160  
      1029       1030       1041       1040       1150       1151       1162       1161  
      1030       1031       1042       1041       1151       1152       1163       1162  
      1031       1032       1043       1042       1152       1153       1164       1163  
      1032       1033       1044       1043       1153       1154       1165       1164  
      1033       1034       1045       1044       1154       1155       1166       1165  
      1035       1036       1047       1046       1156       1157       1168       1167  
      1036       1037       1048       1047       1157       1158       1169       1168  
      1037       1038       1049       1048       1158       1159       1170       1169  
      1038       1039       1050       1049       1159       1160       1171       1170  
      1039       1040       1051       1050       1160       1161       1172       1171  
      1040       1041       1052       1051       1161       1162       1173       1172  
      1041       1042       1053       1052       1162       1163       1174       1173  
      1042       1043       1054       1053       1163       1164       1175       1174  
      1043       1044       1055       1054       1164       1165       1176       1175  
      1044       1045       1056       1055       1165       1166       1177       1176  
      1046       1047       1058       1057       1167       1168       1179       1178  
      1047       1048       1059       1058       1168       1169       1180       1179  
      1048       1049       1060       1059       1169       1170       1181       1180  
      1049       1050       1061       1060       1170       1171       1182       1181  
      1050       1051       1062       1061       1171       1172       1183       1182  
      1051       1052       1063       1062       1172       1173       1184       1183  
      1052       1053       1064       1063       1173       1174       1185       1184  
      1053       1054       1065       1064       1174       1175       1186       1185  
      1054       1055       1066       1065       1175       1176       1187       1186  
      1055       1056       1067       1066       1176       1177       1188       1187  
      1057       1058       1069       1068       1178       1179       1190       1189  
      1058       1059       1070       1069       1179       1180       1191       1190  
      1059       1060       1071       1070       1180       1181       1192       1191  
      1060       1061       1072       1071       1181       1182       1193       1192  
      1061       1062       1073       1072       1182       1183       1194       1193  
      1062       1063       1074       1073       1183       1184       1195       1194  
      1063       1064       1075       1074       1184       1185       1196       1195  
      1064       1065       1076       1075       1185       1186       1197       1196  
      1065       1066       1077       1076       1186       1187       1198       1197  
      1066       1067       1078       1077       1187       1188       1199       1198  
      1068       1069       1080       1079       1189       1190       1201       1200  
      1069       1070       1081       1080       1190       1191       1202       1201  
      1070       1071       1082       1081       1191       1192       1203       1202  
      1071       1072       1083       1082       1192       1193       1204       1203  
      1072       1073       1084       1083       1193       1194       1205       1204  
      1073       1074       1085       1084       1194       1195       1206       1205  
      1074       1075       1086       1085       1195       1196       1207       1206  
      1075       1076       1087       1086       1196       1197       1208       1207  
      1076       1077       1088       1087       1197       1198       1209       1208  
      1077       1078       1089       1088       1198       1199       1210       1209  
      1090       1091       1102       1101       1211       1212       1223       1222  
      1091       1092       1103       1102       1212       1213       1224       1223  
      1092       1093       1104       1103       1213       1214       1225       1224  
      1093       1094       1105       1104       1214       1215       1226       1225  
      1094       1095       1106       1105       1215       1216       1227       1226  
      1095       1096       1107       1106       1216       1217       1228       1227  
      1096       1097       1108       1107       1217       1218       1229       1228  
      1097       1098       1109       1108       1218       1219       1230       1229  
      1098       1099       1110       1109       1219       1220       1231       1230  
      1099       1100       1111       1110       1220       1221       1232       1231  
      1101       1102       1113       1112       1222       1223       1234       1233  
      1102       1103       1114       1113       1223       1224       1235       1234  
      1103       1104       1115       1114       1224       1225       1236       1235  
      1104       1105       1116       1115       1225       1226       1237       1236  
      1105       1106       1117       1116       1226       1227       1238       1237  
      1106       1107       1118       1117       1227       1228       1239       1238  
      1107       1108       1119       1118       1228       1229       1240       1239  
      1108       1109       1120       1119       1229       1230       1241       1240  
      1109       1110       1121       1120       1230       1231       1242       1241  
      1110       1111       1122       1121       1231       1232       1243       1242  
      1112       1113       1124       1123       1233       1234       1245       1244  
      1113       1114       1125       1124       1234       1235       1246       1245  
      1114       1115       1126       1125       1235       1236       1247       1246  
      1115       1116       1127       1126       1236       1237       1248       1247  
      1116       1117       1128       1127       1237       1238       1249       1248  
      1117       1118       1129       1128       1238       1239       1250       1249  
      1118       1119       1130       1129       1239       1240       1251       1250  
      1119       1120       1131       1130       1240       1241       1252       1251  
      1120       1121       1132       1131       1241       1242       1253       1252  
      1121       1122       1133       1132       1242       1243       1254       1253  
      1123       1124       1135       1134       1244       1245       1256       1255  
      1124       1125       1136       1135       1245       1246       1257       1256  
      1125       1126       1137       1136       1246       1247       1258       1257  
      1126       1127       1138       1137       1247       1248       1259       1258  
      1127       1128       1139       1138       1248       1249       1260       1259  
      1128       1129       1140       1139       1249       1250       1261       1260  
      1129       1130       1141       1140       1250       1251       1262       1261  
      1130       1131       1142       1141       1251       1252       1263       1262  
      1131       1132       1143       1142       1252       1253       1264       1263  
      1132       1133       1144       1143       1253       1254       1265       1264  
      1134       1135       1146       1145       1255       1256       1267       1266  
      1135       1136       1147       1146       1256       1257       1268       1267  
      1136       1137       1148       1147       1257       1258       1269       1268  
      1137       1138       1149       1148       1258       1259       1270       1269  
      1138       1139       1150       1149       1259       1260       1271       1270  
      1139       1140       1151       1150       1260       1261       1272       1271  
      1140       1141       1152       1151       1261       1262       1273       1272  
      1141       1142       1153       1152       1262       1263       1274       1273  
      1142       1143       1154       1153       1263       1264       1275       1274  
      1143       1144       1155       1154       1264       1265       1276       1275  
      1145       1146       1157       1156       1266       1267       1278       1277  
      1146       1147       1158       1157       1267       1268       1279       1278  
      1147       1148       1159       1158       1268       1269       1280       1279  
      1148       1149       1160       1159       1269       1270       1281       1280  
      1149       1150       1161       1160       1270       1271       1282       1281  
      1150       1151       1162       1161       1271       1272       1283       1282  
      1151       1152       1163       1162       1272       1273       1284       1283  
      1152       1153       1164       1163       1273       1274       1285       1284  
      1153       1154       1165       1164       1274       1275       1286       1285  
      1154       1155       1166       1165       1275       1276       1287       1286  
      1156       1157       1168       1167       1277       1278       1289       1288  
      1157       1158       1169       1168       1278       1279       1290       1289  
      1158       1159       1170       1169       1279       1280       1291       1290  
      1159       1160       1171       1170       1280       1281       1292       1291  
      1160       1161       1172       1171       1281       1282       1293       1292  
      1161       1162       1173       1172       1282       1283       1294       1293  
      1162       1163       1174       1173       1283       1284       1295       1294  
      1163       1164       1175       1174       1284       1285       1296       1295  
      1164       1165       1176       1175       1285       1286       1297       1296  
      1165       1166       1177       1176       1286       1287       1298       1297  
      1167       1168       1179       1178       1288       1289       1300       1299  
      1168       1169       1180       1179       1289       1290       1301       1300  
      1169       1170       1181       1180       1290       1291       1302       1301  
      1170       1171       1182       1181       1291       1292       1303       1302  
      1171       1172       1183       1182       1292       1293       1304       1303  
      1172       1173       1184       1183       1293       1294       1305       1304  
      1173       1174       1185       1184       1294       1295       1306       1305  
      1174       1175       1186       1185       1295       1296       1307       1306  
      1175       1176       1187       1186       1296       1297       1308       1307  
      1176       1177       1188       1187       1297       1298       1309       1308  
      1178       1179       1190       1189       1299       1300       1311       1310  
      1179       1180       1191       1190       1300       1301       1312       1311  
      1180       1181       1192       1191       1301       1302       1313       1312  
      1181       1182       1193       1192       1302       1303       1314       1313  
      1182       1183       1194       1193       1303       1304       1315       1314  
      1183       1184       1195       1194       1304       1305       1316       1315  
      1184       1185       1196       1195       1305       1306       1317       1316  
      1185       1186       1197       1196       1306       1307       1318       1317  
      1186       1187       1198       1197       1307       1308       1319       1318  
      1187       1188       1199       1198       1308       1309       1320       1319  
      1189       1190       1201       1200       1310       1311       1322       1321  
      1190       1191       1202       1201       1311       1312       1323       1322  
      1191       1192       1203       1202       1312       1313       1324       1323  
      1192       1193       1204       1203       1313       1314       1325       1324  
      1193       1194       1205       1204       1314       1315       1326       1325  
      1194       1195       1206       1205       1315       1316       1327       1326  
      1195       1196       1207       1206       1316       1317       1328       1327  
      1196       1197       1208       1207       1317       1318       1329       1328  
      1197       1198       1209       1208       1318       1319       1330       1329  
      1198       1199       1210       1209       1319       1320       1331       1330  
      1211       1212       1223       1222       1332       1333       1344       1343  
      1212       1213       1224       1223       1333       1334       1345       1344  
      1213       1214       1225       1224       1334       1335       1346       1345  
      1214       1215       1226       1225       1335       1336       1347       1346  
      1215       1216       1227       1226       1336       1337       1348       1347  
      1216       1217       1228       1227       1337       1338       1349       1348  
      1217       1218       1229       1228       1338       1339       1350       1349  
      1218       1219       1230       1229       1339       1340       1351       1350  
      1219       1220       1231       1230       1340       1341       1352       1351  
      1220       1221       1232       1231       1341       1342       1353       1352  
      1222       1223       1234       1233       1343       1344       1355       1354  
      1223       1224       1235       1234       1344       1345       1356       1355  
      1224       1225       1236       1235       1345       1346       1357       1356  
      1225       1226       1237       1236       1346       1347       1358       1357  
      1226       1227       1238       1237       1347       1348       1359       1358  
      1227       1228       1239       1238       1348       1349       1360       1359  
      1228       1229       1240       1239       1349       1350       1361       1360  
      1229       1230       1241       1240       1350       1351       1362       1361  
      1230       1231       1242       1241       1351       1352       1363       1362  
      1231       1232       1243       1242       1352       1353       1364       1363  
      1233       1234       1245       1244       1354       1355       1366       1365  
      1234       1235       1246       1245       1355       1356       1367       1366  
      1235       1236       1247       1246       1356       1357       1368       1367  
      1236       1237       1248       1247       1357       1358       1369       1368  
      1237       1238       1249       1248       1358       1359       1370       1369  
      1238       1239       1250       1249       1359       1360       1371       1370  
      1239       1240       1251       1250       1360       1361       1372       1371  
      1240       1241       1252       1251       1361       1362       1373       1372  
      1241       1242       1253       1252       1362       1363       1374       1373  
      1242       1243       1254       1253       1363       1364       1375       1374  
      1244       1245       1256       1255       1365       1366       1377       1376  
      1245       1246       1257       1256       1366       1367       1378       1377  
      1246       1247       1258       1257       1367       1368       1379       1378  
      1247       1248       1259       1258       1368       1369       1380       1379  
      1248       1249       1260       1259       1369       1370       1381       1380  
      1249       1250       1261       1260       1370       1371       1382       1381  
      1250       1251       1262       1261       1371       1372       1383       1382  
      1251       1252       1263       1262       1372       1373       1384       1383  
      1252       1253       1264       1263       1373       1374       1385       1384  
      1253       1254       1265       1264       1374       1375       1386       1385  
      1255       1256       1267       1266       1376       1377       1388       1387  
      1256       1257       1268       1267       1377       1378       1389       1388  
      1257       1258       1269       1268       1378       1379       1390       1389  
      1258       1259       1270       1269       1379       1380       1391       1390  
      1259       1260       1271       1270       1380       1381       1392       1391  
      1260       1261       1272       1271       1381       1382       1393       1392  
      1261       1262       1273       1272       1382       1383       1394       1393  
      1262       1263       1274       1273       1383       1384       1395       1394  
      1263       1264       1275       1274       1384       1385       1396       1395  
      1264       1265       1276       1275       1385       1386       1397       1396  
      1266       1267       1278       1277       1387       1388       1399       1398  
      1267       1268       1279       1278       1388       1389       1400       1399  
      1268       1269       1280       1279       1389       1390       1401       1400  
      1269       1270       1281       1280       1390       1391       1402       1401  
      1270       1271       1282       1281       1391       1392       1403       1402  
      1271       1272       1283       1282       1392       1393       1404       1403  
      1272       1273       1284       1283       1393       1394       1405       1404  
      1273       1274       1285       1284       1394       1395       1406       1405  
      1274       1275       1286       1285       1395       1396       1407       1406  
      1275       1276       1287       1286       1396       1397       1408       1407  
      1277       1278       1289       1288       1398       1399       1410       1409  
      1278       1279       1290       1289       1399       1400       1411       1410  
      1279       1280       1291       1290       1400       1401       1412       1411  
      1280       1281       1292       1291       1401       1402       1413       1412  
      1281       1282       1293       1292       1402       1403       1414       1413  
      1282       1283       1294       1293       1403       1404       1415       1414  
      1283       1284       1295       1294       1404       1405       1416       1415  
      1284       1285       1296       1295       1405       1406       1417       1416  
      1285       1286       1297       1296       1406       1407       1418       1417  
      1286       1287       1298       1297       1407       1408       1419       1418  
      1288       1289       1300       1299       1409       1410       1421       1420  
      1289       1290       1301       1300       1410       1411       1422       1421  
      1290       1291       1302       1301       1411       1412       1423       1422  
      1291       1292       1303       1302       1412       1413       1424       1423  
      1292       1293       1304       1303       1413       1414       1425       1424  
      1293       1294       1305       1304       1414       1415       1426       1425  
      1294       1295       1306       1305       1415       1416       1427       1426  
      1295       1296       1307       1306       1416       1417       1428       1427  
      1296       1297       1308       1307       1417       1418       1429       1428  
      1297       1298       1309       1308       1418       1419       1430       1429  
      1299       1300       1311       1310       1420       1421       1432       1431  
      1300       1301       1312       1311       1421       1422       1433       1432  
      1301       1302       1313       1312       1422       1423       1434       1433  
      1302       1303       1314       1313       1423       1424       1435       1434  
      1303       1304       1315       1314       1424       1425       1436       1435  
      1304       1305       1316       1315       1425       1426       1437       1436  
      1305       1306       1317       1316       1426       1427       1438       1437  
      1306       1307       1318       1317       1427       1428       1439       1438  
      1307       1308       1319       1318       1428       1429       1440       1439  
      1308       1309       1320       1319       1429       1430       1441       1440  
      1310       1311       1322       1321       1431       1432       1443       1442  
      1311       1312       1323       1322       1432       1433       1444       1443  
      1312       1313       1324       1323       1433       1434       1445       1444  
      1313       1314       1325       1324       1434       1435       1446       1445  
      1314       1315       1326       1325       1435       1436       1447       1446  
      1315       1316       1327       1326       1436       1437       1448       1447  
      1316       1317       1328       1327       1437       1438       1449       1448  
      1317       1318       1329       1328       1438       1439       1450       1449  
      1318       1319       1330       1329       1439       1440       1451       1450  
      1319       1320       1331       1330       1440       1441       1452       1451  
      1332       1333       1344       1343       1453       1454       1465       1464  
      1333       1334       1345       1344       1454       1455       1466       1465  
      1334       1335       1346       1345       1455       1456       1467       1466  
      1335       1336       1347       1346       1456       1457       1468       1467  
      1336       1337       1348       1347       1457       1458       1469       1468  
      1337       1338       1349       1348       1458       1459       1470       1469  
      1338       1339       1350       1349       1459       1460       1471       1470  
      1339       1340       1351       1350       1460       1461       1472       1471  
      1340       1341       1352       1351       1461       1462       1473       1472  
      1341       1342       1353       1352       1462       1463       1474       1473  
      1343       1344       1355       1354       1464       1465       1476       1475  
      1344       1345       1356       1355       1465       1466       1477       1476  
      1345       1346       1357       1356       1466       1467       1478       1477  
      1346       1347       1358       1357       1467       1468       1479       1478  
      1347       1348       1359       1358       1468       1469       1480       1479  
      1348       1349       1360       1359       1469       1470       1481       1480  
      1349       1350       1361       1360       1470       1471       1482       1481  
      1350       1351       1362       1361       1471       1472       1483       1482  
      1351       1352       1363       1362       1472       1473       1484       1483  
      1352       1353       1364       1363       1473       1474       1485       1484  
      1354       1355       1366       1365       1475       1476       1487       1486  
      1355       1356       1367       1366       1476       1477       1488       1487  
      1356       1357       1368       1367       1477       1478       1489       1488  
      1357       1358       1369       1368       1478       1479       1490       1489  
      1358       1359       1370       1369       1479       1480       1491       1490  
      1359       1360       1371       1370       1480       1481       1492       1491  
      1360       1361       1372       1371       1481       1482       1493       1492  
      1361       1362       1373       1372       1482       1483       1494       1493  
      1362       1363       1374       1373       1483       1484       1495       1494  
      1363       1364       1375       1374       1484       1485       1496       1495  
      1365       1366       1377       1376       1486       1487       1498       1497  
      1366       1367       1378       1377       1487       1488       1499       1498  
      1367       1368       1379       1378       1488       1489       1500       1499  
      1368       1369       1380       1379       1489       1490       1501       1500  
      1369       1370       1381       1380       1490       1491       1502       1501  
      1370       1371       1382       1381       1491       1492       1503       1502  
      1371       1372       1383       1382       1492       1493       1504       1503  
      1372       1373       1384       1383       1493       1494       1505       1504  
      1373       1374       1385       1384       1494       1495       1506       1505  
      1374       1375       1386       1385       1495       1496       1507       1506  
      1376       1377       1388       1387       1497       1498       1509       1508  
      1377       1378       1389       1388       1498       1499       1510       1509  
      1378       1379       1390       1389       1499       1500       1511       1510  
      1379       1380       1391       1390       1500       1501       1512       1511  
      1380       1381       1392       1391       1501       1502       1513       1512  
      1381       1382       1393       1392       1502       1503       1514       1513  
      1382       1383       1394       1393       1503       1504       1515       1514  
      1383       1384       1395       1394       1504       1505       1516       1515  
      1384       1385       1396       1395       1505       1506       1517       1516  
      1385       1386       1397       1396       1506       1507       1518       1517  
      1387       1388       1399       1398       1508       1509       1520       1519  
      1388       1389       1400       1399       1509       1510       1521       1520  
      1389       1390       1401       1400       1510       1511       1522       1521  
      1390       1391       1402       1401       1511       1512       1523       1522  
      1391       1392       1403       1402       1512       1513       1524       1523  
      1392       1393       1404       1403       1513       1514       1525       1524  
      1393       1394       1405       1404       1514       1515       1526       1525  
      1394       1395       1406       1405       1515       1516       1527       1526  
      1395       1396       1407       1406       1516       1517       1528       1527  
      1396       1397       1408       1407       1517       1518       1529       1528  
      1398       1399       1410       1409       1519       1520       1531       1530  
      1399       1400       1411       1410       1520       1521       1532       1531  
      1400       1401       1412       1411       1521       1522       1533       1532  
      1401       1402       1413       1412       1522       1523       1534       1533  
      1402       1403       1414       1413       1523       1524       1535       1534  
      1403       1404       1415       1414       1524       1525       1536       1535  
      1404       1405       1416       1415       1525       1526       1537       1536  
      1405       1406       1417       1416       1526       1527       1538       1537  
      1406       1407       1418       1417       1527       1528       1539       1538  
      1407       1408       1419       1418       1528       1529       1540       1539  
      1409       1410       1421       1420       1530       1531       1542       1541  
      1410       1411       1422       1421       1531       1532       1543       1542  
      1411       1412       1423       1422       1532       1533       1544       1543  
      1412       1413       1424       1423       1533       1534       1545       1544  
      1413       1414       1425       1424       1534       1535       1546       1545  
      1414       1415       1426       1425       1535       1536       1547       1546  
      1415       1416       1427       1426       1536       1537       1548       1547  
      1416       1417       1428       1427       1537       1538       1549       1548  
      1417       1418       1429       1428       1538       1539       1550       1549  
      1418       1419       1430       1429       1539       1540       1551       1550  
      1420       1421       1432       1431       1541       1542       1553       1552  
      1421       1422       1433       1432       1542       1543       1554       1553  
      1422       1423       1434       1433       1543       1544       1555       1554  
      1423       1424       1435       1434       1544       1545       1556       1555  
      1424       1425       1436       1435       1545       1546       1557       1556  
      1425       1426       1437       1436       1546       1547       1558       1557  
      1426       1427       1438       1437       1547       1548       1559       1558  
      1427       1428       1439       1438       1548       1549       1560       1559  
      1428       1429       1440       1439       1549       1550       1561       1560  
      1429       1430       1441       1440       1550       1551       1562       1561  
      1431       1432       1443       1442       1552       1553       1564       1563  
      1432       1433       1444       1443       1553       1554       1565       1564  
      1433       1434       1445       1444       1554       1555       1566       1565  
      1434       1435       1446       1445       1555       1556       1567       1566  
      1435       1436       1447       1446       1556       1557       1568       1567  
      1436       1437       1448       1447       1557       1558       1569       1568  
      1437       1438       1449       1448       1558       1559       1570       1569  
      1438       1439       1450       1449       1559       1560       1571       1570  
      1439       1440       1451       1450       1560       1561       1572       1571  
      1440       1441       1452       1451       1561       1562       1573       1572  
      1453       1454       1465       1464       1574       1575       1586       1585  
      1454       1455       1466       1465       1575       1576       1587       1586  
      1455       1456       1467       1466       1576       1577       1588       1587  
      1456       1457       1468       1467       1577       1578       1589       1588  
      1457       1458       1469       1468       1578       1579       1590       1589  
      1458       1459       1470       1469       1579       1580       1591       1590  
      1459       1460       1471       1470       1580       1581       1592       1591  
      1460       1461       1472       1471       1581       1582       1593       1592  
      1461       1462       1473       1472       1582       1583       1594       1593  
      1462       1463       1474       1473       1583       1584       1595       1594  
      1464       1465       1476       1475       1585       1586       1597       1596  
      1465       1466       1477       1476       1586       1587       1598       1597  
      1466       1467       1478       1477       1587       1588       1599       1598  
      1467       1468       1479       1478       1588       1589       1600       1599  
      1468       1469       1480       1479       1589       1590       1601       1600  
      1469       1470       1481       1480       1590       1591       1602       1601  
      1470       1471       1482       1481       1591       1592       1603       1602  
      1471       1472       1483       1482       1592       1593       1604       1603  
      1472       1473       1484       1483       1593       1594       1605       1604  
      1473       1474       1485       1484       1594       1595       1606       1605  
      1475       1476       1487       1486       1596       1597       1608       1607  
      1476       1477       1488       1487       1597       1598       1609       1608  
      1477       1478       1489       1488       1598       1599       1610       1609  
      1478       1479       1490       1489       1599       1600       1611       1610  
      1479       1480       1491       1490       1600       1601       1612       1611  
      1480       1481       1492       1491       1601       1602       1613       1612  
      1481       1482       1493       1492       1602       1603       1614       1613  
      1482       1483       1494       1493       1603       1604       1615       1614  
      1483       1484       1495       1494       1604       1605       1616       1615  
      1484       1485       1496       1495       1605       1606       1617       1616  
      1486       1487       1498       1497       1607       1608       1619       1618  
      1487       1488       1499       1498       1608       1609       1620       1619  
      1488       1489       1500       1499       1609       1610       1621       1620  
      1489       1490       1501       1500       1610       1611       1622       1621  
      1490       1491       1502       1501       1611       1612       1623       1622  
      1491       1492       1503       1502       1612       1613       1624       1623  
      1492       1493       1504       1503       1613       1614       1625       1624  
      1493       1494       1505       1504       1614       1615       1626       1625  
      1494       1495       1506       1505       1615       1616       1627       1626  
      1495       1496       1507       1506       1616       1617       1628       1627  
      1497       1498       1509       1508       1618       1619       1630       1629  
      1498       1499       1510       1509       1619       1620       1631       1630  
      1499       1500       1511       1510       1620       1621       1632       1631  
      1500       1501       1512       1511       1621       1622       1633       1632  
      1501       1502       1513       1512       1622       1623       1634       1633  
      1502       1503       1514       1513       1623       1624       1635       1634  
      1503       1504       1515       1514       1624       1625       1636       1635  
      1504       1505       1516       1515       1625       1626       1637       1636  
      1505       1506       1517       1516       1626       1627       1638       1637  
      1506       1507       1518       1517       1627       1628       1639       1638  
      1508       1509       1520       1519       1629       1630       1641       1640  
      1509       1510       1521       1520       1630       1631       1642       1641  
      1510       1511       1522       1521       1631       1632       1643       1642  
      1511       1512       1523       1522       1632       1633       1644       1643  
      1512       1513       1524       1523       1633       1634       1645       1644  
      1513       1514       1525       1524       1634       1635       1646       1645  
      1514       1515       1526       1525       1635       1636       1647       1646  
      1515       1516       1527       1526       1636       1637       1648       1647  
      1516       1517       1528       1527       1637       1638       1649       1648  
      1517       1518       1529       1528       1638       1639       1650       1649  
      1519       1520       1531       1530       1640       1641       1652       1651  
      1520       1521       1532       1531       1641       1642       1653       1652  
      1521       1522       1533       1532       1642       1643       1654       1653  
      1522       1523       1534       1533       1643       1644       1655       1654  
      1523       1524       1535       1534       1644       1645       1656       1655  
      1524       1525       1536       1535       1645       1646       1657       1656  
      1525       1526       1537       1536       1646       1647       1658       1657  
      1526       1527       1538       1537       1647       1648       1659       1658  
      1527       1528       1539       1538       1648       1649       1660       1659  
      1528       1529       1540       1539       1649       1650       1661       1660  
      1530       1531       1542       1541       1651       1652       1663       1662  
      1531       1532       1543       1542       1652       1653       1664       1663  
      1532       1533       1544       1543       1653       1654       1665       1664  
      1533       1534       1545       1544       1654       1655       1666       1665  
      1534       1535       1546       1545       1655       1656       1667       1666  
      1535       1536       1547       1546       1656       1657       1668       1667  
      1536       1537       1548       1547       1657       1658       1669       1668  
      1537       1538       1549       1548       1658       1659       1670       1669  
      1538       1539       1550       1549       1659       1660       1671       1670  
      1539       1540       1551       1550       1660       1661       1672       1671  
      1541       1542       1553       1552       1662       1663       1674       1673  
      1542       1543       1554       1553       1663       1664       1675       1674  
      1543       1544       1555       1554       1664       1665       1676       1675  
      1544       1545       1556       1555       1665       1666       1677       1676  
      1545       1546       1557       1556       1666       1667       1678       1677  
      1546       1547       1558       1557       1667       1668       1679       1678  
      1547       1548       1559       1558       1668       1669       1680       1679  
      1548       1549       1560       1559       1669       1670       1681       1680  
      1549       1550       1561       1560       1670       1671       1682       1681  
      1550       1551       1562       1561       1671       1672       1683       1682  
      1552       1553       1564       1563       1673       1674       1685       1684  
      1553       1554       1565       1564       1674       1675       1686       1685  
      1554       1555       1566       1565       1675       1676       1687       1686  
      1555       1556       1567       1566       1676       1677       1688       1687  
      1556       1557       1568       1567       1677       1678       1689       1688  
      1557       1558       1569       1568       1678       1679       1690       1689  
      1558       1559       1570       1569       1679       1680       1691       1690  
      1559       1560       1571       1570       1680       1681       1692       1691  
      1560       1561       1572       1571       1681       1682       1693       1692  
      1561       1562       1573       1572       1682       1683       1694       1693  
      1574       1575       1586       1585       1695       1696       1707       1706  
      1575       1576       1587       1586       1696       1697       1708       1707  
      1576       1577       1588       1587       1697       1698       1709       1708  
      1577       1578       1589       1588       1698       1699       1710       1709  
      1578       1579       1590       1589       1699       1700       1711       1710  
      1579       1580       1591       1590       1700       1701       1712       1711  
      1580       1581       1592       1591       1701       1702       1713       1712  
      1581       1582       1593       1592       1702       1703       1714       1713  
      1582       1583       1594       1593       1703       1704       1715       1714  
      1583       1584       1595       1594       1704       1705       1716       1715  
      1585       1586       1597       1596       1706       1707       1718       1717  
      1586       1587       1598       1597       1707       1708       1719       1718  
      1587       1588       1599       1598       1708       1709       1720       1719  
      1588       1589       1600       1599       1709       1710       1721       1720  
      1589       1590       1601       1600       1710       1711       1722       1721  
      1590       1591       1602       1601       1711       1712       1723       1722  
      1591       1592       1603       1602       1712       1713       1724       1723  
      1592       1593       1604       1603       1713       1714       1725       1724  
      1593       1594       1605       1604       1714       1715       1726       1725  
      1594       1595       1606       1605       1715       1716       1727       1726  
      1596       1597       1608       1607       1717       1718       1729       1728  
      1597       1598       1609       1608       1718       1719       1730       1729  
      1598       1599       1610       1609       1719       1720       1731       1730  
      1599       1600       1611       1610       1720       1721       1732       1731  
      1600       1601       1612       1611       1721       1722       1733       1732  
      1601       1602       1613       1612       1722       1723       1734       1733  
      1602       1603       1614       1613       1723       1724       1735       1734  
      1603       1604       1615       1614       1724       1725       1736       1735  
      1604       1605       1616       1615       1725       1726       1737       1736  
      1605       1606       1617       1616       1726       1727       1738       1737  
      1607       1608       1619       1618       1728       1729       1740       1739  
      1608       1609       1620       1619       1729       1730       1741       1740  
      1609       1610       1621       1620       1730       1731       1742       1741  
      1610       1611       1622       1621       1731       1732       1743       1742  
      1611       1612       1623       1622       1732       1733       1744       1743  
      1612       1613       1624       1623       1733       1734       1745       1744  
      1613       1614       1625       1624       1734       1735       1746       1745  
      1614       1615       1626       1625       1735       1736       1747       1746  
      1615       1616       1627       1626       1736       1737       1748       1747  
      1616       1617       1628       1627       1737       1738       1749       1748  
      1618       1619       1630       1629       1739       1740       1751       1750  
      1619       1620       1631       1630       1740       1741       1752       1751  
      1620       1621       1632       1631       1741       1742       1753       1752  
      1621       1622       1633       1632       1742       1743       1754       1753  
      1622       1623       1634       1633       1743       1744       1755       1754  
      1623       1624       1635       1634       1744       1745       1756       1755  
      1624       1625       1636       1635       1745       1746       1757       1756  
      1625       1626       1637       1636       1746       1747       1758       1757  
      1626       1627       1638       1637       1747       1748       1759       1758  
      1627       1628       1639       1638       1748       1749       1760       1759  
      1629       1630       1641       1640       1750       1751       1762       1761  
      1630       1631       1642       1641       1751       1752       1763       1762  
      1631       1632       1643       1642       1752       1753       1764       1763  
      1632       1633       1644       1643       1753       1754       1765       1764  
      1633       1634       1645       1644       1754       1755       1766       1765  
      1634       1635       1646       1645       1755       1756       1767       1766  
      1635       1636       1647       1646       1756       1757       1768       1767  
      1636       1637       1648       1647       1757       1758       1769       1768  
      1637       1638       1649       1648       1758       1759       1770       1769  
      1638       1639       1650       1649       1759       1760       1771       1770  
      1640       1641       1652       1651       1761       1762       1773       1772  
      1641       1642       1653       1652       1762       1763       1774       1773  
      1642       1643       1654       1653       1763       1764       1775       1774  
      1643       1644       1655       1654       1764       1765       1776       1775  
      1644       1645       1656       1655       1765       1766       1777       1776  
      1645       1646       1657       1656       1766       1767       1778       1777  
      1646       1647       1658       1657       1767       1768       1779       1778  
      1647       1648       1659       1658       1768       1769       1780       1779  
      1648       1649       1660       1659       1769       1770       1781       1780  
      1649       1650       1661       1660       1770       1771       1782       1781  
      1651       1652       1663       1662       1772       1773       1784       1783  
      1652       1653       1664       1663       1773       1774       1785       1784  
      1653       1654       1665       1664       1774       1775       1786       1785  
      1654       1655       1666       1665       1775       1776       1787       1786  
      1655       1656       1667       1666       1776       1777       1788       1787  
      1656       1657       1668       1667       1777       1778       1789       1788  
      1657       1658       1669       1668       1778       1779       1790       1789  
      1658       1659       1670       1669       1779       1780       1791       1790  
      1659       1660       1671       1670       1780       1781       1792       1791  
      1660       1661       1672       1671       1781       1782       1793       1792  
      1662       1663       1674       1673       1783       1784       1795       1794  
      1663       1664       1675       1674       1784       1785       1796       1795  
      1664       1665       1676       1675       1785       1786       1797       1796  
      1665       1666       1677       1676       1786       1787       1798       1797  
      1666       1667       1678       1677       1787       1788       1799       1798  
      1667       1668       1679       1678       1788       1789       1800       1799  
      1668       1669       1680       1679       1789       1790       1801       1800  
      1669       1670       1681       1680       1790       1791       1802       1801  
      1670       1671       1682       1681       1791       1792       1803       1802  
      1671       1672       1683       1682       1792       1793       1804       1803  
      1673       1674       1685       1684       1794       1795       1806       1805  
      1674       1675       1686       1685       1795       1796       1807       1806  
      1675       1676       1687       1686       1796       1797       1808       1807  
      1676       1677       1688       1687       1797       1798       1809       1808  
      1677       1678       1689       1688       1798       1799       1810       1809  
      1678       1679       1690       1689       1799       1800       1811       1810  
      1679       1680       1691       1690       1800       1801       1812       1811  
      1680       1681       1692       1691       1801       1802       1813       1812  
      1681       1682       1693       1692       1802       1803       1814       1813  
      1682       1683       1694       1693       1803       1804       1815       1814  
      1695       1696       1707       1706       1816       1817       1828       1827  
      1696       1697       1708       1707       1817       1818       1829       1828  
      1697       1698       1709       1708       1818       1819       1830       1829  
      1698       1699       1710       1709       1819       1820       1831       1830  
      1699       1700       1711       1710       1820       1821       1832       1831  
      1700       1701       1712       1711       1821       1822       1833       1832  
      1701       1702       1713       1712       1822       1823       1834       1833  
      1702       1703       1714       1713       1823       1824       1835       1834  
      1703       1704       1715       1714       1824       1825       1836       1835  
      1704       1705       1716       1715       1825       1826       1837       1836  
      1706       1707       1718       1717       1827       1828       1839       1838  
      1707       1708       1719       1718       1828       1829       1840       1839  
      1708       1709       1720       1719       1829       1830       1841       1840  
      1709       1710       1721       1720       1830       1831       1842       1841  
      1710       1711       1722       1721       1831       1832       1843       1842  
      1711       1712       1723       1722       1832       1833       1844       1843  
      1712       1713       1724       1723       1833       1834       1845       1844  
      1713       1714       1725       1724       1834       1835       1846       1845  
      1714       1715       1726       1725       1835       1836       1847       1846  
      1715       1716       1727       1726       1836       1837       1848       1847  
      1717       1718       1729       1728       1838       1839       1850       1849  
      1718       1719       1730       1729       1839       1840       1851       1850  
      1719       1720       1731       1730       1840       1841       1852       1851  
      1720       1721       1732       1731       1841       1842       1853       1852  
      1721       1722       1733       1732       1842       1843       1854       1853  
      1722       1723       1734       1733       1843       1844       1855       1854  
      1723       1724       1735       1734       1844       1845       1856       1855  
      1724       1725       1736       1735       1845       1846       1857       1856  
      1725       1726       1737       1736       1846       1847       1858       1857  
      1726       1727       1738       1737       1847       1848       1859       1858  
      1728       1729       1740       1739       1849       1850       1861       1860  
      1729       1730       1741       1740       1850       1851       1862       1861  
      1730       1731       1742       1741       1851       1852       1863       1862  
      1731       1732       1743       1742       1852       1853       1864       1863  
      1732       1733       1744       1743       1853       1854       1865       1864  
      1733       1734       1745       1744       1854       1855       1866       1865  
      1734       1735       1746       1745       1855       1856       1867       1866  
      1735       1736       1747       1746       1856       1857       1868       1867  
      1736       1737       1748       1747       1857       1858       1869       1868  
      1737       1738       1749       1748       1858       1859       1870       1869  
      1739       1740       1751       1750       1860       1861       1872       1871  
      1740       1741       1752       1751       1861       1862       1873       1872  
      1741       1742       1753       1752       1862       1863       1874       1873  
      1742       1743       1754       1753       1863       1864       1875       1874  
      1743       1744       1755       1754       1864       1865       1876       1875  
      1744       1745       1756       1755       1865       1866       1877       1876  
      1745       1746       1757       1756       1866       1867       1878       1877  
      1746       1747       1758       1757       1867       1868       1879       1878  
      1747       1748       1759       1758       1868       1869       1880       1879  
      1748       1749       1760       1759       1869       1870       1881       1880  
      1750       1751       1762       1761       1871       1872       1883       1882  
      1751       1752       1763       1762       1872       1873       1884       1883  
      1752       1753       1764       1763       1873       1874       1885       1884  
      1753       1754       1765       1764       1874       1875       1886       1885  
      1754       1755       1766       1765       1875       1876       1887       1886  
      1755       1756       1767       1766       1876       1877       1888       1887  
      1756       1757       1768       1767       1877       1878       1889       1888  
      1757       1758       1769       1768       1878       1879       1890       1889  
      1758       1759       1770       1769       1879       1880       1891       1890  
      1759       1760       1771       1770       1880       1881       1892       1891  
      1761       1762       1773       1772       1882       1883       1894       1893  
      1762       1763       1774       1773       1883       1884       1895       1894  
      1763       1764       1775       1774       1884       1885       1896       1895  
      1764       1765       1776       1775       1885       1886       1897       1896  
      1765       1766       1777       1776       1886       1887       1898       1897  
      1766       1767       1778       1777       1887       1888       1899       1898  
      1767       1768       1779       1778       1888       1889       1900       1899  
      1768       1769       1780       1779       1889       1890       1901       1900  
      1769       1770       1781       1780       1890       1891       1902       1901  
      1770       1771       1782       1781       1891       1892       1903       1902  
      1772       1773       1784       1783       1893       1894       1905       1904  
      1773       1774       1785       1784       1894       1895       1906       1905  
      1774       1775       1786       1785       1895       1896       1907       1906  
      1775       1776       1787       1786       1896       1897       1908       1907  
      1776       1777       1788       1787       1897       1898       1909       1908  
      1777       1778       1789       1788       1898       1899       1910       1909  
      1778       1779       1790       1789       1899       1900       1911       1910  
      1779       1780       1791       1790       1900       1901       1912       1911  
      1780       1781       1792       1791       1901       1902       1913       1912  
      1781       1782       1793       1792       1902       1903       1914       1913  
      1783       1784       1795       1794       1904       1905       1916       1915  
      1784       1785       1796       1795       1905       1906       1917       1916  
      1785       1786       1797       1796       1906       1907       1918       1917  
      1786       1787       1798       1797       1907       1908       1919       1918  
      1787       1788       1799       1798       1908       1909       1920       1919  
      1788       1789       1800       1799       1909       1910       1921       1920  
      1789       1790       1801       1800       1910       1911       1922       1921  
      1790       1791       1802       1801       1911       1912       1923       1922  
      1791       1792       1803       1802       1912       1913       1924       1923  
      1792       1793       1804       1803       1913       1914       1925       1924  
      1794       1795       1806       1805       1915       1916       1927       1926  
      1795       1796       1807       1806       1916       1917       1928       1927  
      1796       1797       1808       1807       1917       1918       1929       1928  
      1797       1798       1809       1808       1918       1919       1930       1929  
      1798       1799       1810       1809       1919       1920       1931       1930  
      1799       1800       1811       1810       1920       1921       1932       1931  
      1800       1801       1812       1811       1921       1922       1933       1932  
      1801       1802       1813       1812       1922       1923       1934       1933  
      1802       1803       1814       1813       1923       1924       1935       1934  
      1803       1804       1815       1814       1924       1925       1936       1935  
      1816       1817       1828       1827       1937       1938       1949       1948  
      1817       1818       1829       1828       1938       1939       1950       1949  
      1818       1819       1830       1829       1939       1940       1951       1950  
      1819       1820       1831       1830       1940       1941       1952       1951  
      1820       1821       1832       1831       1941       1942       1953       1952  
      1821       1822       1833       1832       1942       1943       1954       1953  
      1822       1823       1834       1833       1943       1944       1955       1954  
      1823       1824       1835       1834       1944       1945       1956       1955  
      1824       1825       1836       1835       1945       1946       1957       1956  
      1825       1826       1837       1836       1946       1947       1958       1957  
      1827       1828       1839       1838       1948       1949       1960       1959  
      1828       1829       1840       1839       1949       1950       1961       1960  
      1829       1830       1841       1840       1950       1951       1962       1961  
      1830       1831       1842       1841       1951       1952       1963       1962  
      1831       1832       1843       1842       1952       1953       1964       1963  
      1832       1833       1844       1843       1953       1954       1965       1964  
      1833       1834       1845       1844       1954       1955       1966       1965  
      1834       1835       1846       1845       1955       1956       1967       1966  
      1835       1836       1847       1846       1956       1957       1968       1967  
      1836       1837       1848       1847       1957       1958       1969       1968  
      1838       1839       1850       1849       1959       1960       1971       1970  
      1839       1840       1851       1850       1960       1961       1972       1971  
      1840       1841       1852       1851       1961       1962       1973       1972  
      1841       1842       1853       1852       1962       1963       1974       1973  
      1842       1843       1854       1853       1963       1964       1975       1974  
      1843       1844       1855       1854       1964       1965       1976       1975  
      1844       1845       1856       1855       1965       1966       1977       1976  
      1845       1846       1857       1856       1966       1967       1978       1977  
      1846       1847       1858       1857       1967       1968       1979       1978  
      1847       1848       1859       1858       1968       1969       1980       1979  
      1849       1850       1861       1860       1970       1971       1982       1981  
      1850       1851       1862       1861       1971       1972       1983       1982  
      1851       1852       1863       1862       1972       1973       1984       1983  
      1852       1853       1864       1863       1973       1974       1985       1984  
      1853       1854       1865       1864       1974       1975       1986       1985  
      1854       1855       1866       1865       1975       1976       1987       1986  
      1855       1856       1867       1866       1976       1977       1988       1987  
      1856       1857       1868       1867       1977       1978       1989       1988  
      1857       1858       1869       1868       1978       1979       1990       1989  
      1858       1859       1870       1869       1979       1980       1991       1990  
      1860       1861       1872       1871       1981       1982       1993       1992  
      1861       1862       1873       1872       1982       1983       1994       1993  
      1862       1863       1874       1873       1983       1984       1995       1994  
      1863       1864       1875       1874       1984       1985       1996       1995  
      1864       1865       1876       1875       1985       1986       1997       1996  
      1865       1866       1877       1876       1986       1987       1998       1997  
      1866       1867       1878       1877       1987       1988       1999       1998  
      1867       1868       1879       1878       1988       1989       2000       1999  
      1868       1869       1880       1879       1989       1990       2001       2000  
      1869       1870       1881       1880       1990       1991       2002       2001  
      1871       1872       1883       1882       1992       1993       2004       2003  
      1872       1873       1884       1883       1993       1994       2005       2004  
      1873       1874       1885       1884       1994       1995       2006       2005  
      1874       1875       1886       1885       1995       1996       2007       2006  
      1875       1876       1887       1886       1996       1997       2008       2007  
      1876       1877       1888       1887       1997       1998       2009       2008  
      1877       1878       1889       1888       1998       1999       2010       2009  
      1878       1879       1890       1889       1999       2000       2011       2010  
      1879       1880       1891       1890       2000       2001       2012       2011  
      1880       1881       1892       1891       2001       2002       2013       2012  
      1882       1883       1894       1893       2003       2004       2015       2014  
      1883       1884       1895       1894       2004       2005       2016       2015  
      1884       1885       1896       1895       2005       2006       2017       2016  
      1885       1886       1897       1896       2006       2007       2018       2017  
      1886       1887       1898       1897       2007       2008       2019       2018  
      1887       1888       1899       1898       2008       2009       2020       2019  
      1888       1889       1900       1899       2009       2010       2021       2020  
      1889       1890       1901       1900       2010       2011       2022       2021  
      1890       1891       1902       1901       2011       2012       2023       2022  
      1891       1892       1903       1902       2012       2013       2024       2023  
      1893       1894       1905       1904       2014       2015       2026       2025  
      1894       1895       1906       1905       2015       2016       2027       2026  
      1895       1896       1907       1906       2016       2017       2028       2027  
      1896       1897       1908       1907       2017       2018       2029       2028  
      1897       1898       1909       1908       2018       2019       2030       2029  
      1898       1899       1910       1909       2019       2020       2031       2030  
      1899       1900       1911       1910       2020       2021       2032       2031  
      1900       1901       1912       1911       2021       2022       2033       2032  
      1901       1902       1913       1912       2022       2023       2034       2033  
      1902       1903       1914       1913       2023       2024       2035       2034  
      1904       1905       1916       1915       2025       2026       2037       2036  
      1905       1906       1917       1916       2026       2027       2038       2037  
      1906       1907       1918       1917       2027       2028       2039       2038  
      1907       1908       1919       1918       2028       2029       2040       2039  
      1908       1909       1920       1919       2029       2030       2041       2040  
      1909       1910       1921       1920       2030       2031       2042       2041  
      1910       1911       1922       1921       2031       2032       2043       2042  
      1911       1912       1923       1922       2032       2033       2044       2043  
      1912       1913       1924       1923       2033       2034       2045       2044  
      1913       1914       1925       1924       2034       2035       2046       2045  
      1915       1916       1927       1926       2036       2037       2048       2047  
      1916       1917       1928       1927       2037       2038       2049       2048  
      1917       1918       1929       1928       2038       2039       2050       2049  
      1918       1919       1930       1929       2039       2040       2051       2050  
      1919       1920       1931       1930       2040       2041       2052       2051  
      1920       1921       1932       1931       2041       2042       2053       2052  
      1921       1922       1933       1932       2042       2043       2054       2053  
      1922       1923       1934       1933       2043       2044       2055       2054  
      1923       1924       1935       1934       2044       2045       2056       2055  
      1924       1925       1936       1935       2045       2046       2057       2056  
      1937       1938       1949       1948       2058       2059       2070       2069  
      1938       1939       1950       1949       2059       2060       2071       2070  
      1939       1940       1951       1950       2060       2061       2072       2071  
      1940       1941       1952       1951       2061       2062       2073       2072  
      1941       1942       1953       1952       2062       2063       2074       2073  
      1942       1943       1954       1953       2063       2064       2075       2074  
      1943       1944       1955       1954       2064       2065       2076       2075  
      1944       1945       1956       1955       2065       2066       2077       2076  
      1945       1946       1957       1956       2066       2067       2078       2077  
      1946       1947       1958       1957       2067       2068       2079       2078  
      1948       1949       1960       1959       2069       2070       2081       2080  
      1949       1950       1961       1960       2070       2071       2082       2081  
      1950       1951       1962       1961       2071       2072       2083       2082  
      1951       1952       1963       1962       2072       2073       2084       2083  
      1952       1953       1964       1963       2073       2074       2085       2084  
      1953       1954       1965       1964       2074       2075       2086       2085  
      1954       1955       1966       1965       2075       2076       2087       2086  
      1955       1956       1967       1966       2076       2077       2088       2087  
      1956       1957       1968       1967       2077       2078       2089       2088  
      1957       1958       1969       1968       2078       2079       2090       2089  
      1959       1960       1971       1970       2080       2081       2092       2091  
      1960       1961       1972       1971       2081       2082       2093       2092  
      1961       1962       1973       1972       2082       2083       2094       2093  
      1962       1963       1974       1973       2083       2084       2095       2094  
      1963       1964       1975       1974       2084       2085       2096       2095  
      1964       1965       1976       1975       2085       2086       2097       2096  
      1965       1966       1977       1976       2086       2087       2098       2097  
      1966       1967       1978       1977       2087       2088       2099       2098  
      1967       1968       1979       1978       2088       2089       2100       2099  
      1968       1969       1980       1979       2089       2090       2101       2100  
      1970       1971       1982       1981       2091       2092       2103       2102  
      1971       1972       1983       1982       2092       2093       2104       2103  
      1972       1973       1984       1983       2093       2094       2105       2104  
      1973       1974       1985       1984       2094       2095       2106       2105  
      1974       1975       1986       1985       2095       2096       2107       2106  
      1975       1976       1987       1986       2096       2097       2108       2107  
      1976       1977       1988       1987       2097       2098       2109       2108  
      1977       1978       1989       1988       2098       2099       2110       2109  
      1978       1979       1990       1989       2099       2100       2111       2110  
      1979       1980       1991       1990       2100       2101       2112       2111  
      1981       1982       1993       1992       2102       2103       2114       2113  
      1982       1983       1994       1993       2103       2104       2115       2114  
      1983       1984       1995       1994       2104       2105       2116       2115  
      1984       1985       1996       1995       2105       2106       2117       2116  
      1985       1986       1997       1996       2106       2107       2118       2117  
      1986       1987       1998       1997       2107       2108       2119       2118  
      1987       1988       1999       1998       2108       2109       2120       2119  
      1988       1989       2000       1999       2109       2110       2121       2120  
      1989       1990       2001       2000       2110       2111       2122       2121  
      1990       1991       2002       2001       2111       2112       2123       2122  
      1992       1993       2004       2003       2113       2114       2125       2124  
      1993       1994       2005       2004       2114       2115       2126       2125  
      1994       1995       2006       2005       2115       2116       2127       2126  
      1995       1996       2007       2006       2116       2117       2128       2127  
      1996       1997       2008       2007       2117       2118       2129       2128  
      1997       1998       2009       2008       2118       2119       2130       2129  
      1998       1999       2010       2009       2119       2120       2131       2130  
      1999       2000       2011       2010       2120       2121       2132       2131  
      2000       2001       2012       2011       2121       2122       2133       2132  
      2001       2002       2013       2012       2122       2123       2134       2133  
      2003       2004       2015       2014       2124       2125       2136       2135  
      2004       2005       2016       2015       2125       2126       2137       2136  
      2005       2006       2017       2016       2126       2127       2138       2137  
      2006       2007       2018       2017       2127       2128       2139       2138  
      2007       2008       2019       2018       2128       2129       2140       2139  
      2008       2009       2020       2019       2129       2130       2141       2140  
      2009       2010       2021       2020       2130       2131       2142       2141  
      2010       2011       2022       2021       2131       2132       2143       2142  
      2011       2012       2023       2022       2132       2133       2144       2143  
      2012       2013       2024       2023       2133       2134       2145       2144  
      2014       2015       2026       2025       2135       2136       2147       2146  
      2015       2016       2027       2026       2136       2137       2148       2147  
      2016       2017       2028       2027       2137       2138       2149       2148  
      2017       2018       2029       2028       2138       2139       2150       2149  
      2018       2019       2030       2029       2139       2140       2151       2150  
      2019       2020       2031       2030       2140       2141       2152       2151  
      2020       2021       2032       2031       2141       2142       2153       2152  
      2021       2022       2033       2032       2142       2143       2154       2153  
      2022       2023       2034       2033       2143       2144       2155       2154  
      2023       2024       2035       2034       2144       2145       2156       2155  
      2025       2026       2037       2036       2146       2147       2158       2157  
      2026       2027       2038       2037       2147       2148       2159       2158  
      2027       2028       2039       2038       2148       2149       2160       2159  
      2028       2029       2040       2039       2149       2150       2161       2160  
      2029       2030       2041       2040       2150       2151       2162       2161  
      2030       2031       2042       2041       2151       2152       2163       2162  
      2031       2032       2043       2042       2152       2153       2164       2163  
      2032       2033       2044       2043       2153       2154       2165       2164  
      2033       2034       2045       2044       2154       2155       2166       2165  
      2034       2035       2046       2045       2155       2156       2167       2166  
      2036       2037       2048       2047       2157       2158       2169       2168  
      2037       2038       2049       2048       2158       2159       2170       2169  
      2038       2039       2050       2049       2159       2160       2171       2170  
      2039       2040       2051       2050       2160       2161       2172       2171  
      2040       2041       2052       2051       2161       2162       2173       2172  
      2041       2042       2053       2052       2162       2163       2174       2173  
      2042       2043       2054       2053       2163       2164       2175       2174  
      2043       2044       2055       2054       2164       2165       2176       2175  
      2044       2045       2056       2055       2165       2166       2177       2176  
      2045       2046       2057       2056       2166       2167       2178       2177  
      2058       2059       2070       2069       2179       2180       2191       2190  
      2059       2060       2071       2070       2180       2181       2192       2191  
      2060       2061       2072       2071       2181       2182       2193       2192  
      2061       2062       2073       2072       2182       2183       2194       2193  
      2062       2063       2074       2073       2183       2184       2195       2194  
      2063       2064       2075       2074       2184       2185       2196       2195  
      2064       2065       2076       2075       2185       2186       2197       2196  
      2065       2066       2077       2076       2186       2187       2198       2197  
      2066       2067       2078       2077       2187       2188       2199       2198  
      2067       2068       2079       2078       2188       2189       2200       2199  
      2069       2070       2081       2080       2190       2191       2202       2201  
      2070       2071       2082       2081       2191       2192       2203       2202  
      2071       2072       2083       2082       2192       2193       2204       2203  
      2072       2073       2084       2083       2193       2194       2205       2204  
      2073       2074       2085       2084       2194       2195       2206       2205  
      2074       2075       2086       2085       2195       2196       2207       2206  
      2075       2076       2087       2086       2196       2197       2208       2207  
      2076       2077       2088       2087       2197       2198       2209       2208  
      2077       2078       2089       2088       2198       2199       2210       2209  
      2078       2079       2090       2089       2199       2200       2211       2210  
      2080       2081       2092       2091       2201       2202       2213       2212  
      2081       2082       2093       2092       2202       2203       2214       2213  
      2082       2083       2094       2093       2203       2204       2215       2214  
      2083       2084       2095       2094       2204       2205       2216       2215  
      2084       2085       2096       2095       2205       2206       2217       2216  
      2085       2086       2097       2096       2206       2207       2218       2217  
      2086       2087       2098       2097       2207       2208       2219       2218  
      2087       2088       2099       2098       2208       2209       2220       2219  
      2088       2089       2100       2099       2209       2210       2221       2220  
      2089       2090       2101       2100       2210       2211       2222       2221  
      2091       2092       2103       2102       2212       2213       2224       2223  
      2092       2093       2104       2103       2213       2214       2225       2224  
      2093       2094       2105       2104       2214       2215       2226       2225  
      2094       2095       2106       2105       2215       2216       2227       2226  
      2095       2096       2107       2106       2216       2217       2228       2227  
      2096       2097       2108       2107       2217       2218       2229       2228  
      2097       2098       2109       2108       2218       2219       2230       2229  
      2098       2099       2110       2109       2219       2220       2231       2230  
      2099       2100       2111       2110       2220       2221       2232       2231  
      2100       2101       2112       2111       2221       2222       2233       2232  
      2102       2103       2114       2113       2223       2224       2235       2234  
      2103       2104       2115       2114       2224       2225       2236       2235  
      2104       2105       2116       2115       2225       2226       2237       2236  
      2105       2106       2117       2116       2226       2227       2238       2237  
      2106       2107       2118       2117       2227       2228       2239       2238  
      2107       2108       2119       2118       2228       2229       2240       2239  
      2108       2109       2120       2119       2229       2230       2241       2240  
      2109       2110       2121       2120       2230       2231       2242       2241  
      2110       2111       2122       2121       2231       2232       2243       2242  
      2111       2112       2123       2122       2232       2233       2244       2243  
      2113       2114       2125       2124       2234       2235       2246       2245  
      2114       2115       2126       2125       2235       2236       2247       2246  
      2115       2116       2127       2126       2236       2237       2248       2247  
      2116       2117       2128       2127       2237       2238       2249       2248  
      2117       2118       2129       2128       2238       2239       2250       2249  
      2118       2119       2130       2129       2239       2240       2251       2250  
      2119       2120       2131       2130       2240       2241       2252       2251  
      2120       2121       2132       2131       2241       2242       2253       2252  
      2121       2122       2133       2132       2242       2243       2254       2253  
      2122       2123       2134       2133       2243       2244       2255       2254  
      2124       2125       2136       2135       2245       2246       2257       2256  
      2125       2126       2137       2136       2246       2247       2258       2257  
      2126       2127       2138       2137       2247       2248       2259       2258  
      2127       2128       2139       2138       2248       2249       2260       2259  
      2128       2129       2140       2139       2249       2250       2261       2260  
      2129       2130       2141       2140       2250       2251       2262       2261  
      2130       2131       2142       2141       2251       2252       2263       2262  
      2131       2132       2143       2142       2252       2253       2264       2263  
      2132       2133       2144       2143       2253       2254       2265       2264  
      2133       2134       2145       2144       2254       2255       2266       2265  
      2135       2136       2147       2146       2256       2257       2268       2267  
      2136       2137       2148       2147       2257       2258       2269       2268  
      2137       2138       2149       2148       2258       2259       2270       2269  
      2138       2139       2150       2149       2259       2260       2271       2270  
      2139       2140       2151       2150       2260       2261       2272       2271  
      2140       2141       2152       2151       2261       2262       2273       2272  
      2141       2142       2153       2152       2262       2263       2274       2273  
      2142       2143       2154       2153       2263       2264       2275       2274  
      2143       2144       2155       2154       2264       2265       2276       2275  
      2144       2145       2156       2155       2265       2266       2277       2276  
      2146       2147       2158       2157       2267       2268       2279       2278  
      2147       2148       2159       2158       2268       2269       2280       2279  
      2148       2149       2160       2159       2269       2270       2281       2280  
      2149       2150       2161       2160       2270       2271       2282       2281  
      2150       2151       2162       2161       2271       2272       2283       2282  
      2151       2152       2163       2162       2272       2273       2284       2283  
      2152       2153       2164       2163       2273       2274       2285       2284  
      2153       2154       2165       2164       2274       2275       2286       2285  
      2154       2155       2166       2165       2275       2276       2287       2286  
      2155       2156       2167       2166       2276       2277       2288       2287  
      2157       2158       2169       2168       2278       2279       2290       2289  
      2158       2159       2170       2169       2279       2280       2291       2290  
      2159       2160       2171       2170       2280       2281       2292       2291  
      2160       2161       2172       2171       2281       2282       2293       2292  
      2161       2162       2173       2172       2282       2283       2294       2293  
      2162       2163       2174       2173       2283       2284       2295       2294  
      2163       2164       2175       2174       2284       2285       2296       2295  
      2164       2165       2176       2175       2285       2286       2297       2296  
      2165       2166       2177       2176       2286       2287       2298       2297  
      2166       2167       2178       2177       2287       2288       2299       2298  
      2179       2180       2191       2190       2300       2301       2312       2311  
      2180       2181       2192       2191       2301       2302       2313       2312  
      2181       2182       2193       2192       2302       2303       2314       2313  
      2182       2183       2194       2193       2303       2304       2315       2314  
      2183       2184       2195       2194       2304       2305       2316       2315  
      2184       2185       2196       2195       2305       2306       2317       2316  
      2185       2186       2197       2196       2306       2307       2318       2317  
      2186       2187       2198       2197       2307       2308       2319       2318  
      2187       2188       2199       2198       2308       2309       2320       2319  
      2188       2189       2200       2199       2309       2310       2321       2320  
      2190       2191       2202       2201       2311       2312       2323       2322  
      2191       2192       2203       2202       2312       2313       2324       2323  
      2192       2193       2204       2203       2313       2314       2325       2324  
      2193       2194       2205       2204       2314       2315       2326       2325  
      2194       2195       2206       2205       2315       2316       2327       2326  
      2195       2196       2207       2206       2316       2317       2328       2327  
      2196       2197       2208       2207       2317       2318       2329       2328  
      2197       2198       2209       2208       2318       2319       2330       2329  
      2198       2199       2210       2209       2319       2320       2331       2330  
      2199       2200       2211       2210       2320       2321       2332       2331  
      2201       2202       2213       2212       2322       2323       2334       2333  
      2202       2203       2214       2213       2323       2324       2335       2334  
      2203       2204       2215       2214       2324       2325       2336       2335  
      2204       2205       2216       2215       2325       2326       2337       2336  
      2205       2206       2217       2216       2326       2327       2338       2337  
      2206       2207       2218       2217       2327       2328       2339       2338  
      2207       2208       2219       2218       2328       2329       2340       2339  
      2208       2209       2220       2219       2329       2330       2341       2340  
      2209       2210       2221       2220       2330       2331       2342       2341  
      2210       2211       2222       2221       2331       2332       2343       2342  
      2212       2213       2224       2223       2333       2334       2345       2344  
      2213       2214       2225       2224       2334       2335       2346       2345  
      2214       2215       2226       2225       2335       2336       2347       2346  
      2215       2216       2227       2226       2336       2337       2348       2347  
      2216       2217       2228       2227       2337       2338       2349       2348  
      2217       2218       2229       2228       2338       2339       2350       2349  
      2218       2219       2230       2229       2339       2340       2351       2350  
      2219       2220       2231       2230       2340       2341       2352       2351  
      2220       2221       2232       2231       2341       2342       2353       2352  
      2221       2222       2233       2232       2342       2343       2354       2353  
      2223       2224       2235       2234       2344       2345       2356       2355  
      2224       2225       2236       2235       2345       2346       2357       2356  
      2225       2226       2237       2236       2346       2347       2358       2357  
      2226       2227       2238       2237       2347       2348       2359       2358  
      2227       2228       2239       2238       2348       2349       2360       2359  
      2228       2229       2240       2239       2349       2350       2361       2360  
      2229       2230       2241       2240       2350       2351       2362       2361  
      2230       2231       2242       2241       2351       2352       2363       2362  
      2231       2232       2243       2242       2352       2353       2364       2363  
      2232       2233       2244       2243       2353       2354       2365       2364  
      2234       2235       2246       2245       2355       2356       2367       2366  
      2235       2236       2247       2246       2356       2357       2368       2367  
      2236       2237       2248       2247       2357       2358       2369       2368  
      2237       2238       2249       2248       2358       2359       2370       2369  
      2238       2239       2250       2249       2359       2360       2371       2370  
      2239       2240       2251       2250       2360       2361       2372       2371  
      2240       2241       2252       2251       2361       2362       2373       2372  
      2241       2242       2253       2252       2362       2363       2374       2373  
      2242       2243       2254       2253       2363       2364       2375       2374  
      2243       2244       2255       2254       2364       2365       2376       2375  
      2245       2246       2257       2256       2366       2367       2378       2377  
      2246       2247       2258       2257       2367       2368       2379       2378  
      2247       2248       2259       2258       2368       2369       2380       2379  
      2248       2249       2260       2259       2369       2370       2381       2380  
      2249       2250       2261       2260       2370       2371       2382       2381  
      2250       2251       2262       2261       2371       2372       2383       2382  
      2251       2252       2263       2262       2372       2373       2384       2383  
      2252       2253       2264       2263       2373       2374       2385       2384  
      2253       2254       2265       2264       2374       2375       2386       2385  
      2254       2255       2266       2265       2375       2376       2387       2386  
      2256       2257       2268       2267       2377       2378       2389       2388  
      2257       2258       2269       2268       2378       2379       2390       2389  
      2258       2259       2270       2269       2379       2380       2391       2390  
      2259       2260       2271       2270       2380       2381       2392       2391  
      2260       2261       2272       2271       2381       2382       2393       2392  
      2261       2262       2273       2272       2382       2383       2394       2393  
      2262       2263       2274       2273       2383       2384       2395       2394  
      2263       2264       2275       2274       2384       2385       2396       2395  
      2264       2265       2276       2275       2385       2386       2397       2396  
      2265       2266       2277       2276       2386       2387       2398       2397  
      2267       2268       2279       2278       2388       2389       2400       2399  
      2268       2269       2280       2279       2389       2390       2401       2400  
      2269       2270       2281       2280       2390       2391       2402       2401  
      2270       2271       2282       2281       2391       2392       2403       2402  
      2271       2272       2283       2282       2392       2393       2404       2403  
      2272       2273       2284       2283       2393       2394       2405       2404  
      2273       2274       2285       2284       2394       2395       2406       2405  
      2274       2275       2286       2285       2395       2396       2407       2406  
      2275       2276       2287       2286       2396       2397       2408       2407  
      2276       2277       2288       2287       2397       2398       2409       2408  
      2278       2279       2290       2289       2399       2400       2411       2410  
      2279       2280       2291       2290       2400       2401       2412       2411  
      2280       2281       2292       2291       2401       2402       2413       2412  
      2281       2282       2293       2292       2402       2403       2414       2413  
      2282       2283       2294       2293       2403       2404       2415       2414  
      2283       2284       2295       2294       2404       2405       2416       2415  
      2284       2285       2296       2295       2405       2406       2417       2416  
      2285       2286       2297       2296       2406       2407       2418       2417  
      2286       2287       2298       2297       2407       2408       2419       2418  
      2287       2288       2299       2298       2408       2409       2420       2419  
      2300       2301       2312       2311       2421       2422       2433       2432  
      2301       2302       2313       2312       2422       2423       2434       2433  
      2302       2303       2314       2313       2423       2424       2435       2434  
      2303       2304       2315       2314       2424       2425       2436       2435  
      2304       2305       2316       2315       2425       2426       2437       2436  
      2305       2306       2317       2316       2426       2427       2438       2437  
      2306       2307       2318       2317       2427       2428       2439       2438  
      2307       2308       2319       2318       2428       2429       2440       2439  
      2308       2309       2320       2319       2429       2430       2441       2440  
      2309       2310       2321       2320       2430       2431       2442       2441  
      2311       2312       2323       2322       2432       2433       2444       2443  
      2312       2313       2324       2323       2433       2434       2445       2444  
      2313       2314       2325       2324       2434       2435       2446       2445  
      2314       2315       2326       2325       2435       2436       2447       2446  
      2315       2316       2327       2326       2436       2437       2448       2447  
      2316       2317       2328       2327       2437       2438       2449       2448  
      2317       2318       2329       2328       2438       2439       2450       2449  
      2318       2319       2330       2329       2439       2440       2451       2450  
      2319       2320       2331       2330       2440       2441       2452       2451  
      2320       2321       2332       2331       2441       2442       2453       2452  
      2322       2323       2334       2333       2443       2444       2455       2454  
      2323       2324       2335       2334       2444       2445       2456       2455  
      2324       2325       2336       2335       2445       2446       2457       2456  
      2325       2326       2337       2336       2446       2447       2458       2457  
      2326       2327       2338       2337       2447       2448       2459       2458  
      2327       2328       2339       2338       2448       2449       2460       2459  
      2328       2329       2340       2339       2449       2450       2461       2460  
      2329       2330       2341       2340       2450       2451       2462       2461  
      2330       2331       2342       2341       2451       2452       2463       2462  
      2331       2332       2343       2342       2452       2453       2464       2463  
      2333       2334       2345       2344       2454       2455       2466       2465  
      2334       2335       2346       2345       2455       2456       2467       2466  
      2335       2336       2347       2346       2456       2457       2468       2467  
      2336       2337       2348       2347       2457       2458       2469       2468  
      2337       2338       2349       2348       2458       2459       2470       2469  
      2338       2339       2350       2349       2459       2460       2471       2470  
      2339       2340       2351       2350       2460       2461       2472       2471  
      2340       2341       2352       2351       2461       2462       2473       2472  
      2341       2342       2353       2352       2462       2463       2474       2473  
      2342       2343       2354       2353       2463       2464       2475       2474  
      2344       2345       2356       2355       2465       2466       2477       2476  
      2345       2346       2357       2356       2466       2467       2478       2477  
      2346       2347       2358       2357       2467       2468       2479       2478  
      2347       2348       2359       2358       2468       2469       2480       2479  
      2348       2349       2360       2359       2469       2470       2481       2480  
      2349       2350       2361       2360       2470       2471       2482       2481  
      2350       2351       2362       2361       2471       2472       2483       2482  
      2351       2352       2363       2362       2472       2473       2484       2483  
      2352       2353       2364       2363       2473       2474       2485       2484  
      2353       2354       2365       2364       2474       2475       2486       2485  
      2355       2356       2367       2366       2476       2477       2488       2487  
      2356       2357       2368       2367       2477       2478       2489       2488  
      2357       2358       2369       2368       2478       2479       2490       2489  
      2358       2359       2370       2369       2479       2480       2491       2490  
      2359       2360       2371       2370       2480       2481       2492       2491  
      2360       2361       2372       2371       2481       2482       2493       2492  
      2361       2362       2373       2372       2482       2483       2494       2493  
      2362       2363       2374       2373       2483       2484       2495       2494  
      2363       2364       2375       2374       2484       2485       2496       2495  
      2364       2365       2376       2375       2485       2486       2497       2496  
      2366       2367       2378       2377       2487       2488       2499       2498  
      2367       2368       2379       2378       2488       2489       2500       2499  
      2368       2369       2380       2379       2489       2490       2501       2500  
      2369       2370       2381       2380       2490       2491       2502       2501  
      2370       2371       2382       2381       2491       2492       2503       2502  
      2371       2372       2383       2382       2492       2493       2504       2503  
      2372       2373       2384       2383       2493       2494       2505       2504  
      2373       2374       2385       2384       2494       2495       2506       2505  
      2374       2375       2386       2385       2495       2496       2507       2506  
      2375       2376       2387       2386       2496       2497       2508       2507  
      2377       2378       2389       2388       2498       2499       2510       2509  
      2378       2379       2390       2389       2499       2500       2511       2510  
      2379       2380       2391       2390       2500       2501       2512       2511  
      2380       2381       2392       2391       2501       2502       2513       2512  
      2381       2382       2393       2392       2502       2503       2514       2513  
      2382       2383       2394       2393       2503       2504       2515       2514  
      2383       2384       2395       2394       2504       2505       2516       2515  
      2384       2385       2396       2395       2505       2506       2517       2516  
      2385       2386       2397       2396       2506       2507       2518       2517  
      2386       2387       2398       2397       2507       2508       2519       2518  
      2388       2389       2400       2399       2509       2510       2521       2520  
      2389       2390       2401       2400       2510       2511       2522       2521  
      2390       2391       2402       2401       2511       2512       2523       2522  
      2391       2392       2403       2402       2512       2513       2524       2523  
      2392       2393       2404       2403       2513       2514       2525       2524  
      2393       2394       2405       2404       2514       2515       2526       2525  
      2394       2395       2406       2405       2515       2516       2527       2526  
      2395       2396       2407       2406       2516       2517       2528       2527  
      2396       2397       2408       2407       2517       2518       2529       2528  
      2397       2398       2409       2408       2518       2519       2530       2529  
      2399       2400       2411       2410       2520       2521       2532       2531  
      2400       2401       2412       2411       2521       2522       2533       2532  
      2401       2402       2413       2412       2522       2523       2534       2533  
      2402       2403       2414       2413       2523       2524       2535       2534  
      2403       2404       2415       2414       2524       2525       2536       2535  
      2404       2405       2416       2415       2525       2526       2537       2536  
      2405       2406       2417       2416       2526       2527       2538       2537  
      2406       2407       2418       2417       2527       2528       2539       2538  
      2407       2408       2419       2418       2528       2529       2540       2539  
      2408       2409       2420       2419       2529       2530       2541       2540  
      2421       2422       2433       2432       2542       2543       2554       2553  
      2422       2423       2434       2433       2543       2544       2555       2554  
      2423       2424       2435       2434       2544       2545       2556       2555  
      2424       2425       2436       2435       2545       2546       2557       2556  
      2425       2426       2437       2436       2546       2547       2558       2557  
      2426       2427       2438       2437       2547       2548       2559       2558  
      2427       2428       2439       2438       2548       2549       2560       2559  
      2428       2429       2440       2439       2549       2550       2561       2560  
      2429       2430       2441       2440       2550       2551       2562       2561  
      2430       2431       2442       2441       2551       2552       2563       2562  
      2432       2433       2444       2443       2553       2554       2565       2564  
      2433       2434       2445       2444       2554       2555       2566       2565  
      2434       2435       2446       2445       2555       2556       2567       2566  
      2435       2436       2447       2446       2556       2557       2568       2567  
      2436       2437       2448       2447       2557       2558       2569       2568  
      2437       2438       2449       2448       2558       2559       2570       2569  
      2438       2439       2450       2449       2559       2560       2571       2570  
      2439       2440       2451       2450       2560       2561       2572       2571  
      2440       2441       2452       2451       2561       2562       2573       2572  
      2441       2442       2453       2452       2562       2563       2574       2573  
      2443       2444       2455       2454       2564       2565       2576       2575  
      2444       2445       2456       2455       2565       2566       2577       2576  
      2445       2446       2457       2456       2566       2567       2578       2577  
      2446       2447       2458       2457       2567       2568       2579       2578  
      2447       2448       2459       2458       2568       2569       2580       2579  
      2448       2449       2460       2459       2569       2570       2581       2580  
      2449       2450       2461       2460       2570       2571       2582       2581  
      2450       2451       2462       2461       2571       2572       2583       2582  
      2451       2452       2463       2462       2572       2573       2584       2583  
      2452       2453       2464       2463       2573       2574       2585       2584  
      2454       2455       2466       2465       2575       2576       2587       2586  
      2455       2456       2467       2466       2576       2577       2588       2587  
      2456       2457       2468       2467       2577       2578       2589       2588  
      2457       2458       2469       2468       2578       2579       2590       2589  
      2458       2459       2470       2469       2579       2580       2591       2590  
      2459       2460       2471       2470       2580       2581       2592       2591  
      2460       2461       2472       2471       2581       2582       2593       2592  
      2461       2462       2473       2472       2582       2583       2594       2593  
      2462       2463       2474       2473       2583       2584       2595       2594  
      2463       2464       2475       2474       2584       2585       2596       2595  
      2465       2466       2477       2476       2586       2587       2598       2597  
      2466       2467       2478       2477       2587       2588       2599       2598  
      2467       2468       2479       2478       2588       2589       2600       2599  
      2468       2469       2480       2479       2589       2590       2601       2600  
      2469       2470       2481       2480       2590       2591       2602       2601  
      2470       2471       2482       2481       2591       2592       2603       2602  
      2471       2472       2483       2482       2592       2593       2604       2603  
      2472       2473       2484       2483       2593       2594       2605       2604  
      2473       2474       2485       2484       2594       2595       2606       2605  
      2474       2475       2486       2485       2595       2596       2607       2606  
      2476       2477       2488       2487       2597       2598       2609       2608  
      2477       2478       2489       2488       2598       2599       2610       2609  
      2478       2479       2490       2489       2599       2600       2611       2610  
      2479       2480       2491       2490       2600       2601       2612       2611  
      2480       2481       2492       2491       2601       2602       2613       2612  
      2481       2482       2493       2492       2602       2603       2614       2613  
      2482       2483       2494       2493       2603       2604       2615       2614  
      2483       2484       2495       2494       2604       2605       2616       2615  
      2484       2485       2496       2495       2605       2606       2617       2616  
      2485       2486       2497       2496       2606       2607       2618       2617  
      2487       2488       2499       2498       2608       2609       2620       2619  
      2488       2489       2500       2499       2609       2610       2621       2620  
      2489       2490       2501       2500       2610       2611       2622       2621  
      2490       2491       2502       2501       2611       2612       2623       2622  
      2491       2492       2503       2502       2612       2613       2624       2623  
      2492       2493       2504       2503       2613       2614       2625       2624  
      2493       2494       2505       2504       2614       2615       2626       2625  
      2494       2495       2506       2505       2615       2616       2627       2626  
      2495       2496       2507       2506       2616       2617       2628       2627  
      2496       2497       2508       2507       2617       2618       2629       2628  
      2498       2499       2510       2509       2619       2620       2631       2630  
      2499       2500       2511       2510       2620       2621       2632       2631  
      2500       2501       2512       2511       2621       2622       2633       2632  
      2501       2502       2513       2512       2622       2623       2634       2633  
      2502       2503       2514       2513       2623       2624       2635       2634  
      2503       2504       2515       2514       2624       2625       2636       2635  
      2504       2505       2516       2515       2625       2626       2637       2636  
      2505       2506       2517       2516       2626       2627       2638       2637  
      2506       2507       2518       2517       2627       2628       2639       2638  
      2507       2508       2519       2518       2628       2629       2640       2639  
      2509       2510       2521       2520       2630       2631       2642       2641  
      2510       2511       2522       2521       2631       2632       2643       2642  
      2511       2512       2523       2522       2632       2633       2644       2643  
      2512       2513       2524       2523       2633       2634       2645       2644  
      2513       2514       2525       2524       2634       2635       2646       2645  
      2514       2515       2526       2525       2635       2636       2647       2646  
      2515       2516       2527       2526       2636       2637       2648       2647  
      2516       2517       2528       2527       2637       2638       2649       2648  
      2517       2518       2529       2528       2638       2639       2650       2649  
      2518       2519       2530       2529       2639       2640       2651       2650  
      2520       2521       2532       2531       2641       2642       2653       2652  
      2521       2522       2533       2532       2642       2643       2654       2653  
      2522       2523       2534       2533       2643       2644       2655       2654  
      2523       2524       2535       2534       2644       2645       2656       2655  
      2524       2525       2536       2535       2645       2646       2657       2656  
      2525       2526       2537       2536       2646       2647       2658       2657  
      2526       2527       2538       2537       2647       2648       2659       2658  
      2527       2528       2539       2538       2648       2649       2660       2659  
      2528       2529       2540       2539       2649       2650       2661       2660  
      2529       2530       2541       2540       2650       2651       2662       2661  
      2542       2543       2554       2553       2663       2664       2675       2674  
      2543       2544       2555       2554       2664       2665       2676       2675  
      2544       2545       2556       2555       2665       2666       2677       2676  
      2545       2546       2557       2556       2666       2667       2678       2677  
      2546       2547       2558       2557       2667       2668       2679       2678  
      2547       2548       2559       2558       2668       2669       2680       2679  
      2548       2549       2560       2559       2669       2670       2681       2680  
      2549       2550       2561       2560       2670       2671       2682       2681  
      2550       2551       2562       2561       2671       2672       2683       2682  
      2551       2552       2563       2562       2672       2673       2684       2683  
      2553       2554       2565       2564       2674       2675       2686       2685  
      2554       2555       2566       2565       2675       2676       2687       2686  
      2555       2556       2567       2566       2676       2677       2688       2687  
      2556       2557       2568       2567       2677       2678       2689       2688  
      2557       2558       2569       2568       2678       2679       2690       2689  
      2558       2559       2570       2569       2679       2680       2691       2690  
      2559       2560       2571       2570       2680       2681       2692       2691  
      2560       2561       2572       2571       2681       2682       2693       2692  
      2561       2562       2573       2572       2682       2683       2694       2693  
      2562       2563       2574       2573       2683       2684       2695       2694  
      2564       2565       2576       2575       2685       2686       2697       2696  
      2565       2566       2577       2576       2686       2687       2698       2697  
      2566       2567       2578       2577       2687       2688       2699       2698  
      2567       2568       2579       2578       2688       2689       2700       2699  
      2568       2569       2580       2579       2689       2690       2701       2700  
      2569       2570       2581       2580       2690       2691       2702       2701  
      2570       2571       2582       2581       2691       2692       2703       2702  
      2571       2572       2583       2582       2692       2693       2704       2703  
      2572       2573       2584       2583       2693       2694       2705       2704  
      2573       2574       2585       2584       2694       2695       2706       2705  
      2575       2576       2587       2586       2696       2697       2708       2707  
      2576       2577       2588       2587       2697       2698       2709       2708  
      2577       2578       2589       2588       2698       2699       2710       2709  
      2578       2579       2590       2589       2699       2700       2711       2710  
      2579       2580       2591       2590       2700       2701       2712       2711  
      2580       2581       2592       2591       2701       2702       2713       2712  
      2581       2582       2593       2592       2702       2703       2714       2713  
      2582       2583       2594       2593       2703       2704       2715       2714  
      2583       2584       2595       2594       2704       2705       2716       2715  
      2584       2585       2596       2595       2705       2706       2717       2716  
      2586       2587       2598       2597       2707       2708       2719       2718  
      2587       2588       2599       2598       2708       2709       2720       2719  
      2588       2589       2600       2599       2709       2710       2721       2720  
      2589       2590       2601       2600       2710       2711       2722       2721  
      2590       2591       2602       2601       2711       2712       2723       2722  
      2591       2592       2603       2602       2712       2713       2724       2723  
      2592       2593       2604       2603       2713       2714       2725       2724  
      2593       2594       2605       2604       2714       2715       2726       2725  
      2594       2595       2606       2605       2715       2716       2727       2726  
      2595       2596       2607       2606       2716       2717       2728       2727  
      2597       2598       2609       2608       2718       2719       2730       2729  
      2598       2599       2610       2609       2719       2720       2731       2730  
      2599       2600       2611       2610       2720       2721       2732       2731  
      2600       2601       2612       2611       2721       2722       2733       2732  
      2601       2602       2613       2612       2722       2723       2734       2733  
      2602       2603       2614       2613       2723       2724       2735       2734  
      2603       2604       2615       2614       2724       2725       2736       2735  
      2604       2605       2616       2615       2725       2726       2737       2736  
      2605       2606       2617       2616       2726       2727       2738       2737  
      2606       2607       2618       2617       2727       2728       2739       2738  
      2608       2609       2620       2619       2729       2730       2741       2740  
      2609       2610       2621       2620       2730       2731       2742       2741  
      2610       2611       2622       2621       2731       2732       2743       2742  
      2611       2612       2623       2622       2732       2733       2744       2743  
      2612       2613       2624       2623       2733       2734       2745       2744  
      2613       2614       2625       2624       2734       2735       2746       2745  
      2614       2615       2626       2625       2735       2736       2747       2746  
      2615       2616       2627       2626       2736       2737       2748       2747  
      2616       2617       2628       2627       2737       2738       2749       2748  
      2617       2618       2629       2628       2738       2739       2750       2749  
      2619       2620       2631       2630       2740       2741       2752       2751  
      2620       2621       2632       2631       2741       2742       2753       2752  
      2621       2622       2633       2632       2742       2743       2754       2753  
      2622       2623       2634       2633       2743       2744       2755       2754  
      2623       2624       2635       2634       2744       2745       2756       2755  
      2624       2625       2636       2635       2745       2746       2757       2756  
      2625       2626       2637       2636       2746       2747       2758       2757  
      2626       2627       2638       2637       2747       2748       2759       2758  
      2627       2628       2639       2638       2748       2749       2760       2759  
      2628       2629       2640       2639       2749       2750       2761       2760  
      2630       2631       2642       2641       2751       2752       2763       2762  
      2631       2632       2643       2642       2752       2753       2764       2763  
      2632       2633       2644       2643       2753       2754       2765       2764  
      2633       2634       2645       2644       2754       2755       2766       2765  
      2634       2635       2646       2645       2755       2756       2767       2766  
      2635       2636       2647       2646       2756       2757       2768       2767  
      2636       2637       2648       2647       2757       2758       2769       2768  
      2637       2638       2649       2648       2758       2759       2770       2769  
      2638       2639       2650       2649       2759       2760       2771       2770  
      2639       2640       2651       2650       2760       2761       2772       2771  
      2641       2642       2653       2652       2762       2763       2774       2773  
      2642       2643       2654       2653       2763       2764       2775       2774  
      2643       2644       2655       2654       2764       2765       2776       2775  
      2644       2645       2656       2655       2765       2766       2777       2776  
      2645       2646       2657       2656       2766       2767       2778       2777  
      2646       2647       2658       2657       2767       2768       2779       2778  
      2647       2648       2659       2658       2768       2769       2780       2779  
      2648       2649       2660       2659       2769       2770       2781       2780  
      2649       2650       2661       2660       2770       2771       2782       2781  
      2650       2651       2662       2661       2771       2772       2783       2782  
      2663       2664       2675       2674       2784       2785       2796       2795  
      2664       2665       2676       2675       2785       2786       2797       2796  
      2665       2666       2677       2676       2786       2787       2798       2797  
      2666       2667       2678       2677       2787       2788       2799       2798  
      2667       2668       2679       2678       2788       2789       2800       2799  
      2668       2669       2680       2679       2789       2790       2801       2800  
      2669       2670       2681       2680       2790       2791       2802       2801  
      2670       2671       2682       2681       2791       2792       2803       2802  
      2671       2672       2683       2682       2792       2793       2804       2803  
      2672       2673       2684       2683       2793       2794       2805       2804  
      2674       2675       2686       2685       2795       2796       2807       2806  
      2675       2676       2687       2686       2796       2797       2808       2807  
      2676       2677       2688       2687       2797       2798       2809       2808  
      2677       2678       2689       2688       2798       2799       2810       2809  
      2678       2679       2690       2689       2799       2800       2811       2810  
      2679       2680       2691       2690       2800       2801       2812       2811  
      2680       2681       2692       2691       2801       2802       2813       2812  
      2681       2682       2693       2692       2802       2803       2814       2813  
      2682       2683       2694       2693       2803       2804       2815       2814  
      2683       2684       2695       2694       2804       2805       2816       2815  
      2685       2686       2697       2696       2806       2807       2818       2817  
      2686       2687       2698       2697       2807       2808       2819       2818  
      2687       2688       2699       2698       2808       2809       2820       2819  
      2688       2689       2700       2699       2809       2810       2821       2820  
      2689       2690       2701       2700       2810       2811       2822       2821  
      2690       2691       2702       2701       2811       2812       2823       2822  
      2691       2692       2703       2702       2812       2813       2824       2823  
      2692       2693       2704       2703       2813       2814       2825       2824  
      2693       2694       2705       2704       2814       2815       2826       2825  
      2694       2695       2706       2705       2815       2816       2827       2826  
      2696       2697       2708       2707       2817       2818       2829       2828  
      2697       2698       2709       2708       2818       2819       2830       2829  
      2698       2699       2710       2709       2819       2820       2831       2830  
      2699       2700       2711       2710       2820       2821       2832       2831  
      2700       2701       2712       2711       2821       2822       2833       2832  
      2701       2702       2713       2712       2822       2823       2834       2833  
      2702       2703       2714       2713       2823       2824       2835       2834  
      2703       2704       2715       2714       2824       2825       2836       2835  
      2704       2705       2716       2715       2825       2826       2837       2836  
      2705       2706       2717       2716       2826       2827       2838       2837  
      2707       2708       2719       2718       2828       2829       2840       2839  
      2708       2709       2720       2719       2829       2830       2841       2840  
      2709       2710       2721       2720       2830       2831       2842       2841  
      2710       2711       2722       2721       2831       2832       2843       2842  
      2711       2712       2723       2722       2832       2833       2844       2843  
      2712       2713       2724       2723       2833       2834       2845       2844  
      2713       2714       2725       2724       2834       2835       2846       2845  
      2714       2715       2726       2725       2835       2836       2847       2846  
      2715       2716       2727       2726       2836       2837       2848       2847  
      2716       2717       2728       2727       2837       2838       2849       2848  
      2718       2719       2730       2729       2839       2840       2851       2850  
      2719       2720       2731       2730       2840       2841       2852       2851  
      2720       2721       2732       2731       2841       2842       2853       2852  
      2721       2722       2733       2732       2842       2843       2854       2853  
      2722       2723       2734       2733       2843       2844       2855       2854  
      2723       2724       2735       2734       2844       2845       2856       2855  
      2724       2725       2736       2735       2845       2846       2857       2856  
      2725       2726       2737       2736       2846       2847       2858       2857  
      2726       2727       2738       2737       2847       2848       2859       2858  
      2727       2728       2739       2738       2848       2849       2860       2859  
      2729       2730       2741       2740       2850       2851       2862       2861  
      2730       2731       2742       2741       2851       2852       2863       2862  
      2731       2732       2743       2742       2852       2853       2864       2863  
      2732       2733       2744       2743       2853       2854       2865       2864  
      2733       2734       2745       2744       2854       2855       2866       2865  
      2734       2735       2746       2745       2855       2856       2867       2866  
      2735       2736       2747       2746       2856       2857       2868       2867  
      2736       2737       2748       2747       2857       2858       2869       2868  
      2737       2738       2749       2748       2858       2859       2870       2869  
      2738       2739       2750       2749       2859       2860       2871       2870  
      2740       2741       2752       2751       2861       2862       2873       2872  
      2741       2742       2753       2752       2862       2863       2874       2873  
      2742       2743       2754       2753       2863       2864       2875       2874  
      2743       2744       2755       2754       2864       2865       2876       2875  
      2744       2745       2756       2755       2865       2866       2877       2876  
      2745       2746       2757       2756       2866       2867       2878       2877  
      2746       2747       2758       2757       2867       2868       2879       2878  
      2747       2748       2759       2758       2868       2869       2880       2879  
      2748       2749       2760       2759       2869       2870       2881       2880  
      2749       2750       2761       2760       2870       2871       2882       2881  
      2751       2752       2763       2762       2872       2873       2884       2883  
      2752       2753       2764       2763       2873       2874       2885       2884  
      2753       2754       2765       2764       2874       2875       2886       2885  
      2754       2755       2766       2765       2875       2876       2887       2886  
      2755       2756       2767       2766       2876       2877       2888       2887  
      2756       2757       2768       2767       2877       2878       2889       2888  
      2757       2758       2769       2768       2878       2879       2890       2889  
      2758       2759       2770       2769       2879       2880       2891       2890  
      2759       2760       2771       2770       2880       2881       2892       2891  
      2760       2761       2772       2771       2881       2882       2893       2892  
      2762       2763       2774       2773       2883       2884       2895       2894  
      2763       2764       2775       2774       2884       2885       2896       2895  
      2764       2765       2776       2775       2885       2886       2897       2896  
      2765       2766       2777       2776       2886       2887       2898       2897  
      2766       2767       2778       2777       2887       2888       2899       2898  
      2767       2768       2779       2778       2888       2889       2900       2899  
      2768       2769       2780       2779       2889       2890       2901       2900  
      2769       2770       2781       2780       2890       2891       2902       2901  
      2770       2771       2782       2781       2891       2892       2903       2902  
      2771       2772       2783       2782       2892       2893       2904       2903  
      2784       2785       2796       2795       2905       2906       2917       2916  
      2785       2786       2797       2796       2906       2907       2918       2917  
      2786       2787       2798       2797       2907       2908       2919       2918  
      2787       2788       2799       2798       2908       2909       2920       2919  
      2788       2789       2800       2799       2909       2910       2921       2920  
      2789       2790       2801       2800       2910       2911       2922       2921  
      2790       2791       2802       2801       2911       2912       2923       2922  
      2791       2792       2803       2802       2912       2913       2924       2923  
      2792       2793       2804       2803       2913       2914       2925       2924  
      2793       2794       2805       2804       2914       2915       2926       2925  
      2795       2796       2807       2806       2916       2917       2928       2927  
      2796       2797       2808       2807       2917       2918       2929       2928  
      2797       2798       2809       2808       2918       2919       2930       2929  
      2798       2799       2810       2809       2919       2920       2931       2930  
      2799       2800       2811       2810       2920       2921       2932       2931  
      2800       2801       2812       2811       2921       2922       2933       2932  
      2801       2802       2813       2812       2922       2923       2934       2933  
      2802       2803       2814       2813       2923       2924       2935       2934  
      2803       2804       2815       2814       2924       2925       2936       2935  
      2804       2805       2816       2815       2925       2926       2937       2936  
      2806       2807       2818       2817       2927       2928       2939       2938  
      2807       2808       2819       2818       2928       2929       2940       2939  
      2808       2809       2820       2819       2929       2930       2941       2940  
      2809       2810       2821       2820       2930       2931       2942       2941  
      2810       2811       2822       2821       2931       2932       2943       2942  
      2811       2812       2823       2822       2932       2933       2944       2943  
      2812       2813       2824       2823       2933       2934       2945       2944  
      2813       2814       2825       2824       2934       2935       2946       2945  
      2814       2815       2826       2825       2935       2936       2947       2946  
      2815       2816       2827       2826       2936       2937       2948       2947  
      2817       2818       2829       2828       2938       2939       2950       2949  
      2818       2819       2830       2829       2939       2940       2951       2950  
      2819       2820       2831       2830       2940       2941       2952       2951  
      2820       2821       2832       2831       2941       2942       2953       2952  
      2821       2822       2833       2832       2942       2943       2954       2953  
      2822       2823       2834       2833       2943       2944       2955       2954  
      2823       2824       2835       2834       2944       2945       2956       2955  
      2824       2825       2836       2835       2945       2946       2957       2956  
      2825       2826       2837       2836       2946       2947       2958       2957  
      2826       2827       2838       2837       2947       2948       2959       2958  
      2828       2829       2840       2839       2949       2950       2961       2960  
      2829       2830       2841       2840       2950       2951       2962       2961  
      2830       2831       2842       2841       2951       2952       2963       2962  
      2831       2832       2843       2842       2952       2953       2964       2963  
      2832       2833       2844       2843       2953       2954       2965       2964  
      2833       2834       2845       2844       2954       2955       2966       2965  
      2834       2835       2846       2845       2955       2956       2967       2966  
      2835       2836       2847       2846       2956       2957       2968       2967  
      2836       2837       2848       2847       2957       2958       2969       2968  
      2837       2838       2849       2848       2958       2959       2970       2969  
      2839       2840       2851       2850       2960       2961       2972       2971  
      2840       2841       2852       2851       2961       2962       2973       2972  
      2841       2842       2853       2852       2962       2963       2974       2973  
      2842       2843       2854       2853       2963       2964       2975       2974  
      2843       2844       2855       2854       2964       2965       2976       2975  
      2844       2845       2856       2855       2965       2966       2977       2976  
      2845       2846       2857       2856       2966       2967       2978       2977  
      2846       2847       2858       2857       2967       2968       2979       2978  
      2847       2848       2859       2858       2968       2969       2980       2979  
      2848       2849       2860       2859       2969       2970       2981       2980  
      2850       2851       2862       2861       2971       2972       2983       2982  
      2851       2852       2863       2862       2972       2973       2984       2983  
      2852       2853       2864       2863       2973       2974       2985       2984  
      2853       2854       2865       2864       2974       2975       2986       2985  
      2854       2855       2866       2865       2975       2976       2987       2986  
      2855       2856       2867       2866       2976       2977       2988       2987  
      2856       2857       2868       2867       2977       2978       2989       2988  
      2857       2858       2869       2868       2978       2979       2990       2989  
      2858       2859       2870       2869       2979       2980       2991       2990  
      2859       2860       2871       2870       2980       2981       2992       2991  
      2861       2862       2873       2872       2982       2983       2994       2993  
      2862       2863       2874       2873       2983       2984       2995       2994  
      2863       2864       2875       2874       2984       2985       2996       2995  
      2864       2865       2876       2875       2985       2986       2997       2996  
      2865       2866       2877       2876       2986       2987       2998       2997  
      2866       2867       2878       2877       2987       2988       2999       2998  
      2867       2868       2879       2878       2988       2989       3000       2999  
      2868       2869       2880       2879       2989       2990       3001       3000  
      2869       2870       2881       2880       2990       2991       3002       3001  
      2870       2871       2882       2881       2991       2992       3003       3002  
      2872       2873       2884       2883       2993       2994       3005       3004  
      2873       2874       2885       2884       2994       2995       3006       3005  
      2874       2875       2886       2885       2995       2996       3007       3006  
      2875       2876       2887       2886       2996       2997       3008       3007  
      2876       2877       2888       2887       2997       2998       3009       3008  
      2877       2878       2889       2888       2998       2999       3010       3009  
      2878       2879       2890       2889       2999       3000       3011       3010  
      2879       2880       2891       2890       3000       3001       3012       3011  
      2880       2881       2892       2891       3001       3002       3013       3012  
      2881       2882       2893       2892       3002       3003       3014       3013  
      2883       2884       2895       2894       3004       3005       3016       3015  
      2884       2885       2896       2895       3005       3006       3017       3016  
      2885       2886       2897       2896       3006       3007       3018       3017  
      2886       2887       2898       2897       3007       3008       3019       3018  
      2887       2888       2899       2898       3008       3009       3020       3019  
      2888       2889       2900       2899       3009       3010       3021       3020  
      2889       2890       2901       2900       3010       3011       3022       3021  
      2890       2891       2902       2901       3011       3012       3023       3022  
      2891       2892       2903       2902       3012       3013       3024       3023  
      2892       2893       2904       2903       3013       3014       3025       3024  
      2905       2906       2917       2916       3026       3027       3038       3037  
      2906       2907       2918       2917       3027       3028       3039       3038  
      2907       2908       2919       2918       3028       3029       3040       3039  
      2908       2909       2920       2919       3029       3030       3041       3040  
      2909       2910       2921       2920       3030       3031       3042       3041  
      2910       2911       2922       2921       3031       3032       3043       3042  
      2911       2912       2923       2922       3032       3033       3044       3043  
      2912       2913       2924       2923       3033       3034       3045       3044  
      2913       2914       2925       2924       3034       3035       3046       3045  
      2914       2915       2926       2925       3035       3036       3047       3046  
      2916       2917       2928       2927       3037       3038       3049       3048  
      2917       2918       2929       2928       3038       3039       3050       3049  
      2918       2919       2930       2929       3039       3040       3051       3050  
      2919       2920       2931       2930       3040       3041       3052       3051  
      2920       2921       2932       2931       3041       3042       3053       3052  
      2921       2922       2933       2932       3042       3043       3054       3053  
      2922       2923       2934       2933       3043       3044       3055       3054  
      2923       2924       2935       2934       3044       3045       3056       3055  
      2924       2925       2936       2935       3045       3046       3057       3056  
      2925       2926       2937       2936       3046       3047       3058       3057  
      2927       2928       2939       2938       3048       3049       3060       3059  
      2928       2929       2940       2939       3049       3050       3061       3060  
      2929       2930       2941       2940       3050       3051       3062       3061  
      2930       2931       2942       2941       3051       3052       3063       3062  
      2931       2932       2943       2942       3052       3053       3064       3063  
      2932       2933       2944       2943       3053       3054       3065       3064  
      2933       2934       2945       2944       3054       3055       3066       3065  
      2934       2935       2946       2945       3055       3056       3067       3066  
      2935       2936       2947       2946       3056       3057       3068       3067  
      2936       2937       2948       2947       3057       3058       3069       3068  
      2938       2939       2950       2949       3059       3060       3071       3070  
      2939       2940       2951       2950       3060       3061       3072       3071  
      2940       2941       2952       2951       3061       3062       3073       3072  
      2941       2942       2953       2952       3062       3063       3074       3073  
      2942       2943       2954       2953       3063       3064       3075       3074  
      2943       2944       2955       2954       3064       3065       3076       3075  
      2944       2945       2956       2955       3065       3066       3077       3076  
      2945       2946       2957       2956       3066       3067       3078       3077  
      2946       2947       2958       2957       3067       3068       3079       3078  
      2947       2948       2959       2958       3068       3069       3080       3079  
      2949       2950       2961       2960       3070       3071       3082       3081  
      2950       2951       2962       2961       3071       3072       3083       3082  
      2951       2952       2963       2962       3072       3073       3084       3083  
      2952       2953       2964       2963       3073       3074       3085       3084  
      2953       2954       2965       2964       3074       3075       3086       3085  
      2954       2955       2966       2965       3075       3076       3087       3086  
      2955       2956       2967       2966       3076       3077       3088       3087  
      2956       2957       2968       2967       3077       3078       3089       3088  
      2957       2958       2969       2968       3078       3079       3090       3089  
      2958       2959       2970       2969       3079       3080       3091       3090  
      2960       2961       2972       2971       3081       3082       3093       3092  
      2961       2962       2973       2972       3082       3083       3094       3093  
      2962       2963       2974       2973       3083       3084       3095       3094  
      2963       2964       2975       2974       3084       3085       3096       3095  
      2964       2965       2976       2975       3085       3086       3097       3096  
      2965       2966       2977       2976       3086       3087       3098       3097  
      2966       2967       2978       2977       3087       3088       3099       3098  
      2967       2968       2979       2978       3088       3089       3100       3099  
      2968       2969       2980       2979       3089       3090       3101       3100  
      2969       2970       2981       2980       3090       3091       3102       3101  
      2971       2972       2983       2982       3092       3093       3104       3103  
      2972       2973       2984       2983       3093       3094       3105       3104  
      2973       2974       2985       2984       3094       3095       3106       3105  
      2974       2975       2986       2985       3095       3096       3107       3106  
      2975       2976       2987       2986       3096       3097       3108       3107  
      2976       2977       2988       2987       3097       3098       3109       3108  
      2977       2978       2989       2988       3098       3099       3110       3109  
      2978       2979       2990       2989       3099       3100       3111       3110  
      2979       2980       2991       2990       3100       3101       3112       3111  
      2980       2981       2992       2991       3101       3102       3113       3112  
      2982       2983       2994       2993       3103       3104       3115       3114  
      2983       2984       2995       2994       3104       3105       3116       3115  
      2984       2985       2996       2995       3105       3106       3117       3116  
      2985       2986       2997       2996       3106       3107       3118       3117  
      2986       2987       2998       2997       3107       3108       3119       3118  
      2987       2988       2999       2998       3108       3109       3120       3119  
      2988       2989       3000       2999       3109       3110       3121       3120  
      2989       2990       3001       3000       3110       3111       3122       3121  
      2990       2991       3002       3001       3111       3112       3123       3122  
      2991       2992       3003       3002       3112       3113       3124       3123  
      2993       2994       3005       3004       3114       3115       3126       3125  
      2994       2995       3006       3005       3115       3116       3127       3126  
      2995       2996       3007       3006       3116       3117       3128       3127  
      2996       2997       3008       3007       3117       3118       3129       3128  
      2997       2998       3009       3008       3118       3119       3130       3129  
      2998       2999       3010       3009       3119       3120       3131       3130  
      2999       3000       3011       3010       3120       3121       3132       3131  
      3000       3001       3012       3011       3121       3122       3133       3132  
      3001       3002       3013       3012       3122       3123       3134       3133  
      3002       3003       3014       3013       3123       3124       3135       3134  
      3004       3005       3016       3015       3125       3126       3137       3136  
      3005       3006       3017       3016       3126       3127       3138       3137  
      3006       3007       3018       3017       3127       3128       3139       3138  
      3007       3008       3019       3018       3128       3129       3140       3139  
      3008       3009       3020       3019       3129       3130       3141       3140  
      3009       3010       3021       3020       3130       3131       3142       3141  
      3010       3011       3022       3021       3131       3132       3143       3142  
      3011       3012       3023       3022       3132       3133       3144       3143  
      3012       3013       3024       3023       3133       3134       3145       3144  
      3013       3014       3025       3024       3134       3135       3146       3145  
      3026       3027       3038       3037       3147       3148       3159       3158  
      3027       3028       3039       3038       3148       3149       3160       3159  
      3028       3029       3040       3039       3149       3150       3161       3160  
      3029       3030       3041       3040       3150       3151       3162       3161  
      3030       3031       3042       3041       3151       3152       3163       3162  
      3031       3032       3043       3042       3152       3153       3164       3163  
      3032       3033       3044       3043       3153       3154       3165       3164  
      3033       3034       3045       3044       3154       3155       3166       3165  
      3034       3035       3046       3045       3155       3156       3167       3166  
      3035       3036       3047       3046       3156       3157       3168       3167  
      3037       3038       3049       3048       3158       3159       3170       3169  
      3038       3039       3050       3049       3159       3160       3171       3170  
      3039       3040       3051       3050       3160       3161       3172       3171  
      3040       3041       3052       3051       3161       3162       3173       3172  
      3041       3042       3053       3052       3162       3163       3174       3173  
      3042       3043       3054       3053       3163       3164       3175       3174  
      3043       3044       3055       3054       3164       3165       3176       3175  
      3044       3045       3056       3055       3165       3166       3177       3176  
      3045       3046       3057       3056       3166       3167       3178       3177  
      3046       3047       3058       3057       3167       3168       3179       3178  
      3048       3049       3060       3059       3169       3170       3181       3180  
      3049       3050       3061       3060       3170       3171       3182       3181  
      3050       3051       3062       3061       3171       3172       3183       3182  
      3051       3052       3063       3062       3172       3173       3184       3183  
      3052       3053       3064       3063       3173       3174       3185       3184  
      3053       3054       3065       3064       3174       3175       3186       3185  
      3054       3055       3066       3065       3175       3176       3187       3186  
      3055       3056       3067       3066       3176       3177       3188       3187  
      3056       3057       3068       3067       3177       3178       3189       3188  
      3057       3058       3069       3068       3178       3179       3190       3189  
      3059       3060       3071       3070       3180       3181       3192       3191  
      3060       3061       3072       3071       3181       3182       3193       3192  
      3061       3062       3073       3072       3182       3183       3194       3193  
      3062       3063       3074       3073       3183       3184       3195       3194  
      3063       3064       3075       3074       3184       3185       3196       3195  
      3064       3065       3076       3075       3185       3186       3197       3196  
      3065       3066       3077       3076       3186       3187       3198       3197  
      3066       3067       3078       3077       3187       3188       3199       3198  
      3067       3068       3079       3078       3188       3189       3200       3199  
      3068       3069       3080       3079       3189       3190       3201       3200  
      3070       3071       3082       3081       3191       3192       3203       3202  
      3071       3072       3083       3082       3192       3193       3204       3203  
      3072       3073       3084       3083       3193       3194       3205       3204  
      3073       3074       3085       3084       3194       3195       3206       3205  
      3074       3075       3086       3085       3195       3196       3207       3206  
      3075       3076       3087       3086       3196       3197       3208       3207  
      3076       3077       3088       3087       3197       3198       3209       3208  
      3077       3078       3089       3088       3198       3199       3210       3209  
      3078       3079       3090       3089       3199       3200       3211       3210  
      3079       3080       3091       3090       3200       3201       3212       3211  
      3081       3082       3093       3092       3202       3203       3214       3213  
      3082       3083       3094       3093       3203       3204       3215       3214  
      3083       3084       3095       3094       3204       3205       3216       3215  
      3084       3085       3096       3095       3205       3206       3217       3216  
      3085       3086       3097       3096       3206       3207       3218       3217  
      3086       3087       3098       3097       3207       3208       3219       3218  
      3087       3088       3099       3098       3208       3209       3220       3219  
      3088       3089       3100       3099       3209       3210       3221       3220  
      3089       3090       3101       3100       3210       3211       3222       3221  
      3090       3091       3102       3101       3211       3212       3223       3222  
      3092       3093       3104       3103       3213       3214       3225       3224  
      3093       3094       3105       3104       3214       3215       3226       3225  
      3094       3095       3106       3105       3215       3216       3227       3226  
      3095       3096       3107       3106       3216       3217       3228       3227  
      3096       3097       3108       3107       3217       3218       3229       3228  
      3097       3098       3109       3108       3218       3219       3230       3229  
      3098       3099       3110       3109       3219       3220       3231       3230  
      3099       3100       3111       3110       3220       3221       3232       3231  
      3100       3101       3112       3111       3221       3222       3233       3232  
      3101       3102       3113       3112       3222       3223       3234       3233  
      3103       3104       3115       3114       3224       3225       3236       3235  
      3104       3105       3116       3115       3225       3226       3237       3236  
      3105       3106       3117       3116       3226       3227       3238       3237  
      3106       3107       3118       3117       3227       3228       3239       3238  
      3107       3108       3119       3118       3228       3229       3240       3239  
      3108       3109       3120       3119       3229       3230       3241       3240  
      3109       3110       3121       3120       3230       3231       3242       3241  
      3110       3111       3122       3121       3231       3232       3243       3242  
      3111       3112       3123       3122       3232       3233       3244       3243  
      3112       3113       3124       3123       3233       3234       3245       3244  
      3114       3115       3126       3125       3235       3236       3247       3246  
      3115       3116       3127       3126       3236       3237       3248       3247  
      3116       3117       3128       3127       3237       3238       3249       3248  
      3117       3118       3129       3128       3238       3239       3250       3249  
      3118       3119       3130       3129       3239       3240       3251       3250  
      3119       3120       3131       3130       3240       3241       3252       3251  
      3120       3121       3132       3131       3241       3242       3253       3252  
      3121       3122       3133       3132       3242       3243       3254       3253  
      3122       3123       3134       3133       3243       3244       3255       3254  
      3123       3124       3135       3134       3244       3245       3256       3255  
      3125       3126       3137       3136       3246       3247       3258       3257  
      3126       3127       3138       3137       3247       3248       3259       3258  
      3127       3128       3139       3138       3248       3249       3260       3259  
      3128       3129       3140       3139       3249       3250       3261       3260  
      3129       3130       3141       3140       3250       3251       3262       3261  
      3130       3131       3142       3141       3251       3252       3263       3262  
      3131       3132       3143       3142       3252       3253       3264       3263  
      3132       3133       3144       3143       3253       3254       3265       3264  
      3133       3134       3145       3144       3254       3255       3266       3265  
      3134       3135       3146       3145       3255       3256       3267       3266  
      3147       3148       3159       3158       3268       3269       3280       3279  
      3148       3149       3160       3159       3269       3270       3281       3280  
      3149       3150       3161       3160       3270       3271       3282       3281  
      3150       3151       3162       3161       3271       3272       3283       3282  
      3151       3152       3163       3162       3272       3273       3284       3283  
      3152       3153       3164       3163       3273       3274       3285       3284  
      3153       3154       3165       3164       3274       3275       3286       3285  
      3154       3155       3166       3165       3275       3276       3287       3286  
      3155       3156       3167       3166       3276       3277       3288       3287  
      3156       3157       3168       3167       3277       3278       3289       3288  
      3158       3159       3170       3169       3279       3280       3291       3290  
      3159       3160       3171       3170       3280       3281       3292       3291  
      3160       3161       3172       3171       3281       3282       3293       3292  
      3161       3162       3173       3172       3282       3283       3294       3293  
      3162       3163       3174       3173       3283       3284       3295       3294  
      3163       3164       3175       3174       3284       3285       3296       3295  
      3164       3165       3176       3175       3285       3286       3297       3296  
      3165       3166       3177       3176       3286       3287       3298       3297  
      3166       3167       3178       3177       3287       3288       3299       3298  
      3167       3168       3179       3178       3288       3289       3300       3299  
      3169       3170       3181       3180       3290       3291       3302       3301  
      3170       3171       3182       3181       3291       3292       3303       3302  
      3171       3172       3183       3182       3292       3293       3304       3303  
      3172       3173       3184       3183       3293       3294       3305       3304  
      3173       3174       3185       3184       3294       3295       3306       3305  
      3174       3175       3186       3185       3295       3296       3307       3306  
      3175       3176       3187       3186       3296       3297       3308       3307  
      3176       3177       3188       3187       3297       3298       3309       3308  
      3177       3178       3189       3188       3298       3299       3310       3309  
      3178       3179       3190       3189       3299       3300       3311       3310  
      3180       3181       3192       3191       3301       3302       3313       3312  
      3181       3182       3193       3192       3302       3303       3314       3313  
      3182       3183       3194       3193       3303       3304       3315       3314  
      3183       3184       3195       3194       3304       3305       3316       3315  
      3184       3185       3196       3195       3305       3306       3317       3316  
      3185       3186       3197       3196       3306       3307       3318       3317  
      3186       3187       3198       3197       3307       3308       3319       3318  
      3187       3188       3199       3198       3308       3309       3320       3319  
      3188       3189       3200       3199       3309       3310       3321       3320  
      3189       3190       3201       3200       3310       3311       3322       3321  
      3191       3192       3203       3202       3312       3313       3324       3323  
      3192       3193       3204       3203       3313       3314       3325       3324  
      3193       3194       3205       3204       3314       3315       3326       3325  
      3194       3195       3206       3205       3315       3316       3327       3326  
      3195       3196       3207       3206       3316       3317       3328       3327  
      3196       3197       3208       3207       3317       3318       3329       3328  
      3197       3198       3209       3208       3318       3319       3330       3329  
      3198       3199       3210       3209       3319       3320       3331       3330  
      3199       3200       3211       3210       3320       3321       3332       3331  
      3200       3201       3212       3211       3321       3322       3333       3332  
      3202       3203       3214       3213       3323       3324       3335       3334  
      3203       3204       3215       3214       3324       3325       3336       3335  
      3204       3205       3216       3215       3325       3326       3337       3336  
      3205       3206       3217       3216       3326       3327       3338       3337  
      3206       3207       3218       3217       3327       3328       3339       3338  
      3207       3208       3219       3218       3328       3329       3340       3339  
      3208       3209       3220       3219       3329       3330       3341       3340  
      3209       3210       3221       3220       3330       3331       3342       3341  
      3210       3211       3222       3221       3331       3332       3343       3342  
      3211       3212       3223       3222       3332       3333       3344       3343  
      3213       3214       3225       3224       3334       3335       3346       3345  
      3214       3215       3226       3225       3335       3336       3347       3346  
      3215       3216       3227       3226       3336       3337       3348       3347  
      3216       3217       3228       3227       3337       3338       3349       3348  
      3217       3218       3229       3228       3338       3339       3350       3349  
      3218       3219       3230       3229       3339       3340       3351       3350  
      3219       3220       3231       3230       3340       3341       3352       3351  
      3220       3221       3232       3231       3341       3342       3353       3352  
      3221       3222       3233       3232       3342       3343       3354       3353  
      3222       3223       3234       3233       3343       3344       3355       3354  
      3224       3225       3236       3235       3345       3346       3357       3356  
      3225       3226       3237       3236       3346       3347       3358       3357  
      3226       3227       3238       3237       3347       3348       3359       3358  
      3227       3228       3239       3238       3348       3349       3360       3359  
      3228       3229       3240       3239       3349       3350       3361       3360  
      3229       3230       3241       3240       3350       3351       3362       3361  
      3230       3231       3242       3241       3351       3352       3363       3362  
      3231       3232       3243       3242       3352       3353       3364       3363  
      3232       3233       3244       3243       3353       3354       3365       3364  
      3233       3234       3245       3244       3354       3355       3366       3365  
      3235       3236       3247       3246       3356       3357       3368       3367  
      3236       3237       3248       3247       3357       3358       3369       3368  
      3237       3238       3249       3248       3358       3359       3370       3369  
      3238       3239       3250       3249       3359       3360       3371       3370  
      3239       3240       3251       3250       3360       3361       3372       3371  
      3240       3241       3252       3251       3361       3362       3373       3372  
      3241       3242       3253       3252       3362       3363       3374       3373  
      3242       3243       3254       3253       3363       3364       3375       3374  
      3243       3244       3255       3254       3364       3365       3376       3375  
      3244       3245       3256       3255       3365       3366       3377       3376  
      3246       3247       3258       3257       3367       3368       3379       3378  
      3247       3248       3259       3258       3368       3369       3380       3379  
      3248       3249       3260       3259       3369       3370       3381       3380  
      3249       3250       3261       3260       3370       3371       3382       3381  
      3250       3251       3262       3261       3371       3372       3383       3382  
      3251       3252       3263       3262       3372       3373       3384       3383  
      3252       3253       3264       3263       3373       3374       3385       3384  
      3253       3254       3265       3264       3374       3375       3386       3385  
      3254       3255       3266       3265       3375       3376       3387       3386  
      3255       3256       3267       3266       3376       3377       3388       3387  
      3268       3269       3280       3279       3389       3390       3401       3400  
      3269       3270       3281       3280       3390       3391       3402       3401  
      3270       3271       3282       3281       3391       3392       3403       3402  
      3271       3272       3283       3282       3392       3393       3404       3403  
      3272       3273       3284       3283       3393       3394       3405       3404  
      3273       3274       3285       3284       3394       3395       3406       3405  
      3274       3275       3286       3285       3395       3396       3407       3406  
      3275       3276       3287       3286       3396       3397       3408       3407  
      3276       3277       3288       3287       3397       3398       3409       3408  
      3277       3278       3289       3288       3398       3399       3410       3409  
      3279       3280       3291       3290       3400       3401       3412       3411  
      3280       3281       3292       3291       3401       3402       3413       3412  
      3281       3282       3293       3292       3402       3403       3414       3413  
      3282       3283       3294       3293       3403       3404       3415       3414  
      3283       3284       3295       3294       3404       3405       3416       3415  
      3284       3285       3296       3295       3405       3406       3417       3416  
      3285       3286       3297       3296       3406       3407       3418       3417  
      3286       3287       3298       3297       3407       3408       3419       3418  
      3287       3288       3299       3298       3408       3409       3420       3419  
      3288       3289       3300       3299       3409       3410       3421       3420  
      3290       3291       3302       3301       3411       3412       3423       3422  
      3291       3292       3303       3302       3412       3413       3424       3423  
      3292       3293       3304       3303       3413       3414       3425       3424  
      3293       3294       3305       3304       3414       3415       3426       3425  
      3294       3295       3306       3305       3415       3416       3427       3426  
      3295       3296       3307       3306       3416       3417       3428       3427  
      3296       3297       3308       3307       3417       3418       3429       3428  
      3297       3298       3309       3308       3418       3419       3430       3429  
      3298       3299       3310       3309       3419       3420       3431       3430  
      3299       3300       3311       3310       3420       3421       3432       3431  
      3301       3302       3313       3312       3422       3423       3434       3433  
      3302       3303       3314       3313       3423       3424       3435       3434  
      3303       3304       3315       3314       3424       3425       3436       3435  
      3304       3305       3316       3315       3425       3426       3437       3436  
      3305       3306       3317       3316       3426       3427       3438       3437  
      3306       3307       3318       3317       3427       3428       3439       3438  
      3307       3308       3319       3318       3428       3429       3440       3439  
      3308       3309       3320       3319       3429       3430       3441       3440  
      3309       3310       3321       3320       3430       3431       3442       3441  
      3310       3311       3322       3321       3431       3432       3443       3442  
      3312       3313       3324       3323       3433       3434       3445       3444  
      3313       3314       3325       3324       3434       3435       3446       3445  
      3314       3315       3326       3325       3435       3436       3447       3446  
      3315       3316       3327       3326       3436       3437       3448       3447  
      3316       3317       3328       3327       3437       3438       3449       3448  
      3317       3318       3329       3328       3438       3439       3450       3449  
      3318       3319       3330       3329       3439       3440       3451       3450  
      3319       3320       3331       3330       3440       3441       3452       3451  
      3320       3321       3332       3331       3441       3442       3453       3452  
      3321       3322       3333       3332       3442       3443       3454       3453  
      3323       3324       3335       3334       3444       3445       3456       3455  
      3324       3325       3336       3335       3445       3446       3457       3456  
      3325       3326       3337       3336       3446       3447       3458       3457  
      3326       3327       3338       3337       3447       3448       3459       3458  
      3327       3328       3339       3338       3448       3449       3460       3459  
      3328       3329       3340       3339       3449       3450       3461       3460  
      3329       3330       3341       3340       3450       3451       3462       3461  
      3330       3331       3342       3341       3451       3452       3463       3462  
      3331       3332       3343       3342       3452       3453       3464       3463  
      3332       3333       3344       3343       3453       3454       3465       3464  
      3334       3335       3346       3345       3455       3456       3467       3466  
      3335       3336       3347       3346       3456       3457       3468       3467  
      3336       3337       3348       3347       3457       3458       3469       3468  
      3337       3338       3349       3348       3458       3459       3470       3469  
      3338       3339       3350       3349       3459       3460       3471       3470  
      3339       3340       3351       3350       3460       3461       3472       3471  
      3340       3341       3352       3351       3461       3462       3473       3472  
      3341       3342       3353       3352       3462       3463       3474       3473  
      3342       3343       3354       3353       3463       3464       3475       3474  
      3343       3344       3355       3354       3464       3465       3476       3475  
      3345       3346       3357       3356       3466       3467       3478       3477  
      3346       3347       3358       3357       3467       3468       3479       3478  
      3347       3348       3359       3358       3468       3469       3480       3479  
      3348       3349       3360       3359       3469       3470       3481       3480  
      3349       3350       3361       3360       3470       3471       3482       3481  
      3350       3351       3362       3361       3471       3472       3483       3482  
      3351       3352       3363       3362       3472       3473       3484       3483  
      3352       3353       3364       3363       3473       3474       3485       3484  
      3353       3354       3365       3364       3474       3475       3486       3485  
      3354       3355       3366       3365       3475       3476       3487       3486  
      3356       3357       3368       3367       3477       3478       3489       3488  
      3357       3358       3369       3368       3478       3479       3490       3489  
      3358       3359       3370       3369       3479       3480       3491       3490  
      3359       3360       3371       3370       3480       3481       3492       3491  
      3360       3361       3372       3371       3481       3482       3493       3492  
      3361       3362       3373       3372       3482       3483       3494       3493  
      3362       3363       3374       3373       3483       3484       3495       3494  
      3363       3364       3375       3374       3484       3485       3496       3495  
      3364       3365       3376       3375       3485       3486       3497       3496  
      3365       3366       3377       3376       3486       3487       3498       3497  
      3367       3368       3379       3378       3488       3489       3500       3499  
      3368       3369       3380       3379       3489       3490       3501       3500  
      3369       3370       3381       3380       3490       3491       3502       3501  
      3370       3371       3382       3381       3491       3492       3503       3502  
      3371       3372       3383       3382       3492       3493       3504       3503  
      3372       3373       3384       3383       3493       3494       3505       3504  
      3373       3374       3385       3384       3494       3495       3506       3505  
      3374       3375       3386       3385       3495       3496       3507       3506  
      3375       3376       3387       3386       3496       3497       3508       3507  
      3376       3377       3388       3387       3497       3498       3509       3508  
      3389       3390       3401       3400       3510       3511       3522       3521  
      3390       3391       3402       3401       3511       3512       3523       3522  
      3391       3392       3403       3402       3512       3513       3524       3523  
      3392       3393       3404       3403       3513       3514       3525       3524  
      3393       3394       3405       3404       3514       3515       3526       3525  
      3394       3395       3406       3405       3515       3516       3527       3526  
      3395       3396       3407       3406       3516       3517       3528       3527  
      3396       3397       3408       3407       3517       3518       3529       3528  
      3397       3398       3409       3408       3518       3519       3530       3529  
      3398       3399       3410       3409       3519       3520       3531       3530  
      3400       3401       3412       3411       3521       3522       3533       3532  
      3401       3402       3413       3412       3522       3523       3534       3533  
      3402       3403       3414       3413       3523       3524       3535       3534  
      3403       3404       3415       3414       3524       3525       3536       3535  
      3404       3405       3416       3415       3525       3526       3537       3536  
      3405       3406       3417       3416       3526       3527       3538       3537  
      3406       3407       3418       3417       3527       3528       3539       3538  
      3407       3408       3419       3418       3528       3529       3540       3539  
      3408       3409       3420       3419       3529       3530       3541       3540  
      3409       3410       3421       3420       3530       3531       3542       3541  
      3411       3412       3423       3422       3532       3533       3544       3543  
      3412       3413       3424       3423       3533       3534       3545       3544  
      3413       3414       3425       3424       3534       3535       3546       3545  
      3414       3415       3426       3425       3535       3536       3547       3546  
      3415       3416       3427       3426       3536       3537       3548       3547  
      3416       3417       3428       3427       3537       3538       3549       3548  
      3417       3418       3429       3428       3538       3539       3550       3549  
      3418       3419       3430       3429       3539       3540       3551       3550  
      3419       3420       3431       3430       3540       3541       3552       3551  
      3420       3421       3432       3431       3541       3542       3553       3552  
      3422       3423       3434       3433       3543       3544       3555       3554  
      3423       3424       3435       3434       3544       3545       3556       3555  
      3424       3425       3436       3435       3545       3546       3557       3556  
      3425       3426       3437       3436       3546       3547       3558       3557  
      3426       3427       3438       3437       3547       3548       3559       3558  
      3427       3428       3439       3438       3548       3549       3560       3559  
      3428       3429       3440       3439       3549       3550       3561       3560  
      3429       3430       3441       3440       3550       3551       3562       3561  
      3430       3431       3442       3441       3551       3552       3563       3562  
      3431       3432       3443       3442       3552       3553       3564       3563  
      3433       3434       3445       3444       3554       3555       3566       3565  
      3434       3435       3446       3445       3555       3556       3567       3566  
      3435       3436       3447       3446       3556       3557       3568       3567  
      3436       3437       3448       3447       3557       3558       3569       3568  
      3437       3438       3449       3448       3558       3559       3570       3569  
      3438       3439       3450       3449       3559       3560       3571       3570  
      3439       3440       3451       3450       3560       3561       3572       3571  
      3440       3441       3452       3451       3561       3562       3573       3572  
      3441       3442       3453       3452       3562       3563       3574       3573  
      3442       3443       3454       3453       3563       3564       3575       3574  
      3444       3445       3456       3455       3565       3566       3577       3576  
      3445       3446       3457       3456       3566       3567       3578       3577  
      3446       3447       3458       3457       3567       3568       3579       3578  
      3447       3448       3459       3458       3568       3569       3580       3579  
      3448       3449       3460       3459       3569       3570       3581       3580  
      3449       3450       3461       3460       3570       3571       3582       3581  
      3450       3451       3462       3461       3571       3572       3583       3582  
      3451       3452       3463       3462       3572       3573       3584       3583  
      3452       3453       3464       3463       3573       3574       3585       3584  
      3453       3454       3465       3464       3574       3575       3586       3585  
      3455       3456       3467       3466       3576       3577       3588       3587  
      3456       3457       3468       3467       3577       3578       3589       3588  
      3457       3458       3469       3468       3578       3579       3590       3589  
      3458       3459       3470       3469       3579       3580       3591       3590  
      3459       3460       3471       3470       3580       3581       3592       3591  
      3460       3461       3472       3471       3581       3582       3593       3592  
      3461       3462       3473       3472       3582       3583       3594       3593  
      3462       3463       3474       3473       3583       3584       3595       3594  
      3463       3464       3475       3474       3584       3585       3596       3595  
      3464       3465       3476       3475       3585       3586       3597       3596  
      3466       3467       3478       3477       3587       3588       3599       3598  
      3467       3468       3479       3478       3588       3589       3600       3599  
      3468       3469       3480       3479       3589       3590       3601       3600  
      3469       3470       3481       3480       3590       3591       3602       3601  
      3470       3471       3482       3481       3591       3592       3603       3602  
      3471       3472       3483       3482       3592       3593       3604       3603  
      3472       3473       3484       3483       3593       3594       3605       3604  
      3473       3474       3485       3484       3594       3595       3606       3605  
      3474       3475       3486       3485       3595       3596       3607       3606  
      3475       3476       3487       3486       3596       3597       3608       3607  
      3477       3478       3489       3488       3598       3599       3610       3609  
      3478       3479       3490       3489       3599       3600       3611       3610  
      3479       3480       3491       3490       3600       3601       3612       3611  
      3480       3481       3492       3491       3601       3602       3613       3612  
      3481       3482       3493       3492       3602       3603       3614       3613  
      3482       3483       3494       3493       3603       3604       3615       3614  
      3483       3484       3495       3494       3604       3605       3616       3615  
      3484       3485       3496       3495       3605       3606       3617       3616  
      3485       3486       3497       3496       3606       3607       3618       3617  
      3486       3487       3498       3497       3607       3608       3619       3618  
      3488       3489       3500       3499       3609       3610       3621       3620  
      3489       3490       3501       3500       3610       3611       3622       3621  
      3490       3491       3502       3501       3611       3612       3623       3622  
      3491       3492       3503       3502       3612       3613       3624       3623  
      3492       3493       3504       3503       3613       3614       3625       3624  
      3493       3494       3505       3504       3614       3615       3626       3625  
      3494       3495       3506       3505       3615       3616       3627       3626  
      3495       3496       3507       3506       3616       3617       3628       3627  
      3496       3497       3508       3507       3617       3618       3629       3628  
      3497       3498       3509       3508       3618       3619       3630       3629  
      3510       3511       3522       3521       3631       3632       3643       3642  
      3511       3512       3523       3522       3632       3633       3644       3643  
      3512       3513       3524       3523       3633       3634       3645       3644  
      3513       3514       3525       3524       3634       3635       3646       3645  
      3514       3515       3526       3525       3635       3636       3647       3646  
      3515       3516       3527       3526       3636       3637       3648       3647  
      3516       3517       3528       3527       3637       3638       3649       3648  
      3517       3518       3529       3528       3638       3639       3650       3649  
      3518       3519       3530       3529       3639       3640       3651       3650  
      3519       3520       3531       3530       3640       3641       3652       3651  
      3521       3522       3533       3532       3642       3643       3654       3653  
      3522       3523       3534       3533       3643       3644       3655       3654  
      3523       3524       3535       3534       3644       3645       3656       3655  
      3524       3525       3536       3535       3645       3646       3657       3656  
      3525       3526       3537       3536       3646       3647       3658       3657  
      3526       3527       3538       3537       3647       3648       3659       3658  
      3527       3528       3539       3538       3648       3649       3660       3659  
      3528       3529       3540       3539       3649       3650       3661       3660  
      3529       3530       3541       3540       3650       3651       3662       3661  
      3530       3531       3542       3541       3651       3652       3663       3662  
      3532       3533       3544       3543       3653       3654       3665       3664  
      3533       3534       3545       3544       3654       3655       3666       3665  
      3534       3535       3546       3545       3655       3656       3667       3666  
      3535       3536       3547       3546       3656       3657       3668       3667  
      3536       3537       3548       3547       3657       3658       3669       3668  
      3537       3538       3549       3548       3658       3659       3670       3669  
      3538       3539       3550       3549       3659       3660       3671       3670  
      3539       3540       3551       3550       3660       3661       3672       3671  
      3540       3541       3552       3551       3661       3662       3673       3672  
      3541       3542       3553       3552       3662       3663       3674       3673  
      3543       3544       3555       3554       3664       3665       3676       3675  
      3544       3545       3556       3555       3665       3666       3677       3676  
      3545       3546       3557       3556       3666       3667       3678       3677  
      3546       3547       3558       3557       3667       3668       3679       3678  
      3547       3548       3559       3558       3668       3669       3680       3679  
      3548       3549       3560       3559       3669       3670       3681       3680  
      3549       3550       3561       3560       3670       3671       3682       3681  
      3550       3551       3562       3561       3671       3672       3683       3682  
      3551       3552       3563       3562       3672       3673       3684       3683  
      3552       3553       3564       3563       3673       3674       3685       3684  
      3554       3555       3566       3565       3675       3676       3687       3686  
      3555       3556       3567       3566       3676       3677       3688       3687  
      3556       3557       3568       3567       3677       3678       3689       3688  
      3557       3558       3569       3568       3678       3679       3690       3689  
      3558       3559       3570       3569       3679       3680       3691       3690  
      3559       3560       3571       3570       3680       3681       3692       3691  
      3560       3561       3572       3571       3681       3682       3693       3692  
      3561       3562       3573       3572       3682       3683       3694       3693  
      3562       3563       3574       3573       3683       3684       3695       3694  
      3563       3564       3575       3574       3684       3685       3696       3695  
      3565       3566       3577       3576       3686       3687       3698       3697  
      3566       3567       3578       3577       3687       3688       3699       3698  
      3567       3568       3579       3578       3688       3689       3700       3699  
      3568       3569       3580       3579       3689       3690       3701       3700  
      3569       3570       3581       3580       3690       3691       3702       3701  
      3570       3571       3582       3581       3691       3692       3703       3702  
      3571       3572       3583       3582       3692       3693       3704       3703  
      3572       3573       3584       3583       3693       3694       3705       3704  
      3573       3574       3585       3584       3694       3695       3706       3705  
      3574       3575       3586       3585       3695       3696       3707       3706  
      3576       3577       3588       3587       3697       3698       3709       3708  
      3577       3578       3589       3588       3698       3699       3710       3709  
      3578       3579       3590       3589       3699       3700       3711       3710  
      3579       3580       3591       3590       3700       3701       3712       3711  
      3580       3581       3592       3591       3701       3702       3713       3712  
      3581       3582       3593       3592       3702       3703       3714       3713  
      3582       3583       3594       3593       3703       3704       3715       3714  
      3583       3584       3595       3594       3704       3705       3716       3715  
      3584       3585       3596       3595       3705       3706       3717       3716  
      3585       3586       3597       3596       3706       3707       3718       3717  
      3587       3588       3599       3598       3708       3709       3720       3719  
      3588       3589       3600       3599       3709       3710       3721       3720  
      3589       3590       3601       3600       3710       3711       3722       3721  
      3590       3591       3602       3601       3711       3712       3723       3722  
      3591       3592       3603       3602       3712       3713       3724       3723  
      3592       3593       3604       3603       3713       3714       3725       3724  
      3593       3594       3605       3604       3714       3715       3726       3725  
      3594       3595       3606       3605       3715       3716       3727       3726  
      3595       3596       3607       3606       3716       3717       3728       3727  
      3596       3597       3608       3607       3717       3718       3729       3728  
      3598       3599       3610       3609       3719       3720       3731       3730  
      3599       3600       3611       3610       3720       3721       3732       3731  
      3600       3601       3612       3611       3721       3722       3733       3732  
      3601       3602       3613       3612       3722       3723       3734       3733  
      3602       3603       3614       3613       3723       3724       3735       3734  
      3603       3604       3615       3614       3724       3725       3736       3735  
      3604       3605       3616       3615       3725       3726       3737       3736  
      3605       3606       3617       3616       3726       3727       3738       3737  
      3606       3607       3618       3617       3727       3728       3739       3738  
      3607       3608       3619       3618       3728       3729       3740       3739  
      3609       3610       3621       3620       3730       3731       3742       3741  
      3610       3611       3622       3621       3731       3732       3743       3742  
      3611       3612       3623       3622       3732       3733       3744       3743  
      3612       3613       3624       3623       3733       3734       3745       3744  
      3613       3614       3625       3624       3734       3735       3746       3745  
      3614       3615       3626       3625       3735       3736       3747       3746  
      3615       3616       3627       3626       3736       3737       3748       3747  
      3616       3617       3628       3627       3737       3738       3749       3748  
      3617       3618       3629       3628       3738       3739       3750       3749  
      3618       3619       3630       3629       3739       3740       3751       3750  
      3631       3632       3643       3642       3752       3753       3764       3763  
      3632       3633       3644       3643       3753       3754       3765       3764  
      3633       3634       3645       3644       3754       3755       3766       3765  
      3634       3635       3646       3645       3755       3756       3767       3766  
      3635       3636       3647       3646       3756       3757       3768       3767  
      3636       3637       3648       3647       3757       3758       3769       3768  
      3637       3638       3649       3648       3758       3759       3770       3769  
      3638       3639       3650       3649       3759       3760       3771       3770  
      3639       3640       3651       3650       3760       3761       3772       3771  
      3640       3641       3652       3651       3761       3762       3773       3772  
      3642       3643       3654       3653       3763       3764       3775       3774  
      3643       3644       3655       3654       3764       3765       3776       3775  
      3644       3645       3656       3655       3765       3766       3777       3776  
      3645       3646       3657       3656       3766       3767       3778       3777  
      3646       3647       3658       3657       3767       3768       3779       3778  
      3647       3648       3659       3658       3768       3769       3780       3779  
      3648       3649       3660       3659       3769       3770       3781       3780  
      3649       3650       3661       3660       3770       3771       3782       3781  
      3650       3651       3662       3661       3771       3772       3783       3782  
      3651       3652       3663       3662       3772       3773       3784       3783  
      3653       3654       3665       3664       3774       3775       3786       3785  
      3654       3655       3666       3665       3775       3776       3787       3786  
      3655       3656       3667       3666       3776       3777       3788       3787  
      3656       3657       3668       3667       3777       3778       3789       3788  
      3657       3658       3669       3668       3778       3779       3790       3789  
      3658       3659       3670       3669       3779       3780       3791       3790  
      3659       3660       3671       3670       3780       3781       3792       3791  
      3660       3661       3672       3671       3781       3782       3793       3792  
      3661       3662       3673       3672       3782       3783       3794       3793  
      3662       3663       3674       3673       3783       3784       3795       3794  
      3664       3665       3676       3675       3785       3786       3797       3796  
      3665       3666       3677       3676       3786       3787       3798       3797  
      3666       3667       3678       3677       3787       3788       3799       3798  
      3667       3668       3679       3678       3788       3789       3800       3799  
      3668       3669       3680       3679       3789       3790       3801       3800  
      3669       3670       3681       3680       3790       3791       3802       3801  
      3670       3671       3682       3681       3791       3792       3803       3802  
      3671       3672       3683       3682       3792       3793       3804       3803  
      3672       3673       3684       3683       3793       3794       3805       3804  
      3673       3674       3685       3684       3794       3795       3806       3805  
      3675       3676       3687       3686       3796       3797       3808       3807  
      3676       3677       3688       3687       3797       3798       3809       3808  
      3677       3678       3689       3688       3798       3799       3810       3809  
      3678       3679       3690       3689       3799       3800       3811       3810  
      3679       3680       3691       3690       3800       3801       3812       3811  
      3680       3681       3692       3691       3801       3802       3813       3812  
      3681       3682       3693       3692       3802       3803       3814       3813  
      3682       3683       3694       3693       3803       3804       3815       3814  
      3683       3684       3695       3694       3804       3805       3816       3815  
      3684       3685       3696       3695       3805       3806       3817       3816  
      3686       3687       3698       3697       3807       3808       3819       3818  
      3687       3688       3699       3698       3808       3809       3820       3819  
      3688       3689       3700       3699       3809       3810       3821       3820  
      3689       3690       3701       3700       3810       3811       3822       3821  
      3690       3691       3702       3701       3811       3812       3823       3822  
      3691       3692       3703       3702       3812       3813       3824       3823  
      3692       3693       3704       3703       3813       3814       3825       3824  
      3693       3694       3705       3704       3814       3815       3826       3825  
      3694       3695       3706       3705       3815       3816       3827       3826  
      3695       3696       3707       3706       3816       3817       3828       3827  
      3697       3698       3709       3708       3818       3819       3830       3829  
      3698       3699       3710       3709       3819       3820       3831       3830  
      3699       3700       3711       3710       3820       3821       3832       3831  
      3700       3701       3712       3711       3821       3822       3833       3832  
      3701       3702       3713       3712       3822       3823       3834       3833  
      3702       3703       3714       3713       3823       3824       3835       3834  
      3703       3704       3715       3714       3824       3825       3836       3835  
      3704       3705       3716       3715       3825       3826       3837       3836  
      3705       3706       3717       3716       3826       3827       3838       3837  
      3706       3707       3718       3717       3827       3828       3839       3838  
      3708       3709       3720       3719       3829       3830       3841       3840  
      3709       3710       3721       3720       3830       3831       3842       3841  
      3710       3711       3722       3721       3831       3832       3843       3842  
      3711       3712       3723       3722       3832       3833       3844       3843  
      3712       3713       3724       3723       3833       3834       3845       3844  
      3713       3714       3725       3724       3834       3835       3846       3845  
      3714       3715       3726       3725       3835       3836       3847       3846  
      3715       3716       3727       3726       3836       3837       3848       3847  
      3716       3717       3728       3727       3837       3838       3849       3848  
      3717       3718       3729       3728       3838       3839       3850       3849  
      3719       3720       3731       3730       3840       3841       3852       3851  
      3720       3721       3732       3731       3841       3842       3853       3852  
      3721       3722       3733       3732       3842       3843       3854       3853  
      3722       3723       3734       3733       3843       3844       3855       3854  
      3723       3724       3735       3734       3844       3845       3856       3855  
      3724       3725       3736       3735       3845       3846       3857       3856  
      3725       3726       3737       3736       3846       3847       3858       3857  
      3726       3727       3738       3737       3847       3848       3859       3858  
      3727       3728       3739       3738       3848       3849       3860       3859  
      3728       3729       3740       3739       3849       3850       3861       3860  
      3730       3731       3742       3741       3851       3852       3863       3862  
      3731       3732       3743       3742       3852       3853       3864       3863  
      3732       3733       3744       3743       3853       3854       3865       3864  
      3733       3734       3745       3744       3854       3855       3866       3865  
      3734       3735       3746       3745       3855       3856       3867       3866  
      3735       3736       3747       3746       3856       3857       3868       3867  
      3736       3737       3748       3747       3857       3858       3869       3868  
      3737       3738       3749       3748       3858       3859       3870       3869  
      3738       3739       3750       3749       3859       3860       3871       3870  
      3739       3740       3751       3750       3860       3861       3872       3871  
      3752       3753       3764       3763       3873       3874       3885       3884  
      3753       3754       3765       3764       3874       3875       3886       3885  
      3754       3755       3766       3765       3875       3876       3887       3886  
      3755       3756       3767       3766       3876       3877       3888       3887  
      3756       3757       3768       3767       3877       3878       3889       3888  
      3757       3758       3769       3768       3878       3879       3890       3889  
      3758       3759       3770       3769       3879       3880       3891       3890  
      3759       3760       3771       3770       3880       3881       3892       3891  
      3760       3761       3772       3771       3881       3882       3893       3892  
      3761       3762       3773       3772       3882       3883       3894       3893  
      3763       3764       3775       3774       3884       3885       3896       3895  
      3764       3765       3776       3775       3885       3886       3897       3896  
      3765       3766       3777       3776       3886       3887       3898       3897  
      3766       3767       3778       3777       3887       3888       3899       3898  
      3767       3768       3779       3778       3888       3889       3900       3899  
      3768       3769       3780       3779       3889       3890       3901       3900  
      3769       3770       3781       3780       3890       3891       3902       3901  
      3770       3771       3782       3781       3891       3892       3903       3902  
      3771       3772       3783       3782       3892       3893       3904       3903  
      3772       3773       3784       3783       3893       3894       3905       3904  
      3774       3775       3786       3785       3895       3896       3907       3906  
      3775       3776       3787       3786       3896       3897       3908       3907  
      3776       3777       3788       3787       3897       3898       3909       3908  
      3777       3778       3789       3788       3898       3899       3910       3909  
      3778       3779       3790       3789       3899       3900       3911       3910  
      3779       3780       3791       3790       3900       3901       3912       3911  
      3780       3781       3792       3791       3901       3902       3913       3912  
      3781       3782       3793       3792       3902       3903       3914       3913  
      3782       3783       3794       3793       3903       3904       3915       3914  
      3783       3784       3795       3794       3904       3905       3916       3915  
      3785       3786       3797       3796       3906       3907       3918       3917  
      3786       3787       3798       3797       3907       3908       3919       3918  
      3787       3788       3799       3798       3908       3909       3920       3919  
      3788       3789       3800       3799       3909       3910       3921       3920  
      3789       3790       3801       3800       3910       3911       3922       3921  
      3790       3791       3802       3801       3911       3912       3923       3922  
      3791       3792       3803       3802       3912       3913       3924       3923  
      3792       3793       3804       3803       3913       3914       3925       3924  
      3793       3794       3805       3804       3914       3915       3926       3925  
      3794       3795       3806       3805       3915       3916       3927       3926  
      3796       3797       3808       3807       3917       3918       3929       3928  
      3797       3798       3809       3808       3918       3919       3930       3929  
      3798       3799       3810       3809       3919       3920       3931       3930  
      3799       3800       3811       3810       3920       3921       3932       3931  
      3800       3801       3812       3811       3921       3922       3933       3932  
      3801       3802       3813       3812       3922       3923       3934       3933  
      3802       3803       3814       3813       3923       3924       3935       3934  
      3803       3804       3815       3814       3924       3925       3936       3935  
      3804       3805       3816       3815       3925       3926       3937       3936  
      3805       3806       3817       3816       3926       3927       3938       3937  
      3807       3808       3819       3818       3928       3929       3940       3939  
      3808       3809       3820       3819       3929       3930       3941       3940  
      3809       3810       3821       3820       3930       3931       3942       3941  
      3810       3811       3822       3821       3931       3932       3943       3942  
      3811       3812       3823       3822       3932       3933       3944       3943  
      3812       3813       3824       3823       3933       3934       3945       3944  
      3813       3814       3825       3824       3934       3935       3946       3945  
      3814       3815       3826       3825       3935       3936       3947       3946  
      3815       3816       3827       3826       3936       3937       3948       3947  
      3816       3817       3828       3827       3937       3938       3949       3948  
      3818       3819       3830       3829       3939       3940       3951       3950  
      3819       3820       3831       3830       3940       3941       3952       3951  
      3820       3821       3832       3831       3941       3942       3953       3952  
      3821       3822       3833       3832       3942       3943       3954       3953  
      3822       3823       3834       3833       3943       3944       3955       3954  
      3823       3824       3835       3834       3944       3945       3956       3955  
      3824       3825       3836       3835       3945       3946       3957       3956  
      3825       3826       3837       3836       3946       3947       3958       3957  
      3826       3827       3838       3837       3947       3948       3959       3958  
      3827       3828       3839       3838       3948       3949       3960       3959  
      3829       3830       3841       3840       3950       3951       3962       3961  
      3830       3831       3842       3841       3951       3952       3963       3962  
      3831       3832       3843       3842       3952       3953       3964       3963  
      3832       3833       3844       3843       3953       3954       3965       3964  
      3833       3834       3845       3844       3954       3955       3966       3965  
      3834       3835       3846       3845       3955       3956       3967       3966  
      3835       3836       3847       3846       3956       3957       3968       3967  
      3836       3837       3848       3847       3957       3958       3969       3968  
      3837       3838       3849       3848       3958       3959       3970       3969  
      3838       3839       3850       3849       3959       3960       3971       3970  
      3840       3841       3852       3851       3961       3962       3973       3972  
      3841       3842       3853       3852       3962       3963       3974       3973  
      3842       3843       3854       3853       3963       3964       3975       3974  
      3843       3844       3855       3854       3964       3965       3976       3975  
      3844       3845       3856       3855       3965       3966       3977       3976  
      3845       3846       3857       3856       3966       3967       3978       3977  
      3846       3847       3858       3857       3967       3968       3979       3978  
      3847       3848       3859       3858       3968       3969       3980       3979  
      3848       3849       3860       3859       3969       3970       3981       3980  
      3849       3850       3861       3860       3970       3971       3982       3981  
      3851       3852       3863       3862       3972       3973       3984       3983  
      3852       3853       3864       3863       3973       3974       3985       3984  
      3853       3854       3865       3864       3974       3975       3986       3985  
      3854       3855       3866       3865       3975       3976       3987       3986  
      3855       3856       3867       3866       3976       3977       3988       3987  
      3856       3857       3868       3867       3977       3978       3989       3988  
      3857       3858       3869       3868       3978       3979       3990       3989  
      3858       3859       3870       3869       3979       3980       3991       3990  
      3859       3860       3871       3870       3980       3981       3992       3991  
      3860       3861       3872       3871       3981       3982       3993       3992  
      3873       3874       3885       3884       3994       3995       4006       4005  
      3874       3875       3886       3885       3995       3996       4007       4006  
      3875       3876       3887       3886       3996       3997       4008       4007  
      3876       3877       3888       3887       3997       3998       4009       4008  
      3877       3878       3889       3888       3998       3999       4010       4009  
      3878       3879       3890       3889       3999       4000       4011       4010  
      3879       3880       3891       3890       4000       4001       4012       4011  
      3880       3881       3892       3891       4001       4002       4013       4012  
      3881       3882       3893       3892       4002       4003       4014       4013  
      3882       3883       3894       3893       4003       4004       4015       4014  
      3884       3885       3896       3895       4005       4006       4017       4016  
      3885       3886       3897       3896       4006       4007       4018       4017  
      3886       3887       3898       3897       4007       4008       4019       4018  
      3887       3888       3899       3898       4008       4009       4020       4019  
      3888       3889       3900       3899       4009       4010       4021       4020  
      3889       3890       3901       3900       4010       4011       4022       4021  
      3890       3891       3902       3901       4011       4012       4023       4022  
      3891       3892       3903       3902       4012       4013       4024       4023  
      3892       3893       3904       3903       4013       4014       4025       4024  
      3893       3894       3905       3904       4014       4015       4026       4025  
      3895       3896       3907       3906       4016       4017       4028       4027  
      3896       3897       3908       3907       4017       4018       4029       4028  
      3897       3898       3909       3908       4018       4019       4030       4029  
      3898       3899       3910       3909       4019       4020       4031       4030  
      3899       3900       3911       3910       4020       4021       4032       4031  
      3900       3901       3912       3911       4021       4022       4033       4032  
      3901       3902       3913       3912       4022       4023       4034       4033  
      3902       3903       3914       3913       4023       4024       4035       4034  
      3903       3904       3915       3914       4024       4025       4036       4035  
      3904       3905       3916       3915       4025       4026       4037       4036  
      3906       3907       3918       3917       4027       4028       4039       4038  
      3907       3908       3919       3918       4028       4029       4040       4039  
      3908       3909       3920       3919       4029       4030       4041       4040  
      3909       3910       3921       3920       4030       4031       4042       4041  
      3910       3911       3922       3921       4031       4032       4043       4042  
      3911       3912       3923       3922       4032       4033       4044       4043  
      3912       3913       3924       3923       4033       4034       4045       4044  
      3913       3914       3925       3924       4034       4035       4046       4045  
      3914       3915       3926       3925       4035       4036       4047       4046  
      3915       3916       3927       3926       4036       4037       4048       4047  
      3917       3918       3929       3928       4038       4039       4050       4049  
      3918       3919       3930       3929       4039       4040       4051       4050  
      3919       3920       3931       3930       4040       4041       4052       4051  
      3920       3921       3932       3931       4041       4042       4053       4052  
      3921       3922       3933       3932       4042       4043       4054       4053  
      3922       3923       3934       3933       4043       4044       4055       4054  
      3923       3924       3935       3934       4044       4045       4056       4055  
      3924       3925       3936       3935       4045       4046       4057       4056  
      3925       3926       3937       3936       4046       4047       4058       4057  
      3926       3927       3938       3937       4047       4048       4059       4058  
      3928       3929       3940       3939       4049       4050       4061       4060  
      3929       3930       3941       3940       4050       4051       4062       4061  
      3930       3931       3942       3941       4051       4052       4063       4062  
      3931       3932       3943       3942       4052       4053       4064       4063  
      3932       3933       3944       3943       4053       4054       4065       4064  
      3933       3934       3945       3944       4054       4055       4066       4065  
      3934       3935       3946       3945       4055       4056       4067       4066  
      3935       3936       3947       3946       4056       4057       4068       4067  
      3936       3937       3948       3947       4057       4058       4069       4068  
      3937       3938       3949       3948       4058       4059       4070       4069  
      3939       3940       3951       3950       4060       4061       4072       4071  
      3940       3941       3952       3951       4061       4062       4073       4072  
      3941       3942       3953       3952       4062       4063       4074       4073  
      3942       3943       3954       3953       4063       4064       4075       4074  
      3943       3944       3955       3954       4064       4065       4076       4075  
      3944       3945       3956       3955       4065       4066       4077       4076  
      3945       3946       3957       3956       4066       4067       4078       4077  
      3946       3947       3958       3957       4067       4068       4079       4078  
      3947       3948       3959       3958       4068       4069       4080       4079  
      3948       3949       3960       3959       4069       4070       4081       4080  
      3950       3951       3962       3961       4071       4072       4083       4082  
      3951       3952       3963       3962       4072       4073       4084       4083  
      3952       3953       3964       3963       4073       4074       4085       4084  
      3953       3954       3965       3964       4074       4075       4086       4085  
      3954       3955       3966       3965       4075       4076       4087       4086  
      3955       3956       3967       3966       4076       4077       4088       4087  
      3956       3957       3968       3967       4077       4078       4089       4088  
      3957       3958       3969       3968       4078       4079       4090       4089  
      3958       3959       3970       3969       4079       4080       4091       4090  
      3959       3960       3971       3970       4080       4081       4092       4091  
      3961       3962       3973       3972       4082       4083       4094       4093  
      3962       3963       3974       3973       4083       4084       4095       4094  
      3963       3964       3975       3974       4084       4085       4096       4095  
      3964       3965       3976       3975       4085       4086       4097       4096  
      3965       3966       3977       3976       4086       4087       4098       4097  
      3966       3967       3978       3977       4087       4088       4099       4098  
      3967       3968       3979       3978       4088       4089       4100       4099  
      3968       3969       3980       3979       4089       4090       4101       4100  
      3969       3970       3981       3980       4090       4091       4102       4101  
      3970       3971       3982       3981       4091       4092       4103       4102  
      3972       3973       3984       3983       4093       4094       4105       4104  
      3973       3974       3985       3984       4094       4095       4106       4105  
      3974       3975       3986       3985       4095       4096       4107       4106  
      3975       3976       3987       3986       4096       4097       4108       4107  
      3976       3977       3988       3987       4097       4098       4109       4108  
      3977       3978       3989       3988       4098       4099       4110       4109  
      3978       3979       3990       3989       4099       4100       4111       4110  
      3979       3980       3991       3990       4100       4101       4112       4111  
      3980       3981       3992       3991       4101       4102       4113       4112  
      3981       3982       3993       3992       4102       4103       4114       4113  
      3994       3995       4006       4005       4115       4116       4127       4126  
      3995       3996       4007       4006       4116       4117       4128       4127  
      3996       3997       4008       4007       4117       4118       4129       4128  
      3997       3998       4009       4008       4118       4119       4130       4129  
      3998       3999       4010       4009       4119       4120       4131       4130  
      3999       4000       4011       4010       4120       4121       4132       4131  
      4000       4001       4012       4011       4121       4122       4133       4132  
      4001       4002       4013       4012       4122       4123       4134       4133  
      4002       4003       4014       4013       4123       4124       4135       4134  
      4003       4004       4015       4014       4124       4125       4136       4135  
      4005       4006       4017       4016       4126       4127       4138       4137  
      4006       4007       4018       4017       4127       4128       4139       4138  
      4007       4008       4019       4018       4128       4129       4140       4139  
      4008       4009       4020       4019       4129       4130       4141       4140  
      4009       4010       4021       4020       4130       4131       4142       4141  
      4010       4011       4022       4021       4131       4132       4143       4142  
      4011       4012       4023       4022       4132       4133       4144       4143  
      4012       4013       4024       4023       4133       4134       4145       4144  
      4013       4014       4025       4024       4134       4135       4146       4145  
      4014       4015       4026       4025       4135       4136       4147       4146  
      4016       4017       4028       4027       4137       4138       4149       4148  
      4017       4018       4029       4028       4138       4139       4150       4149  
      4018       4019       4030       4029       4139       4140       4151       4150  
      4019       4020       4031       4030       4140       4141       4152       4151  
      4020       4021       4032       4031       4141       4142       4153       4152  
      4021       4022       4033       4032       4142       4143       4154       4153  
      4022       4023       4034       4033       4143       4144       4155       4154  
      4023       4024       4035       4034       4144       4145       4156       4155  
      4024       4025       4036       4035       4145       4146       4157       4156  
      4025       4026       4037       4036       4146       4147       4158       4157  
      4027       4028       4039       4038       4148       4149       4160       4159  
      4028       4029       4040       4039       4149       4150       4161       4160  
      4029       4030       4041       4040       4150       4151       4162       4161  
      4030       4031       4042       4041       4151       4152       4163       4162  
      4031       4032       4043       4042       4152       4153       4164       4163  
      4032       4033       4044       4043       4153       4154       4165       4164  
      4033       4034       4045       4044       4154       4155       4166       4165  
      4034       4035       4046       4045       4155       4156       4167       4166  
      4035       4036       4047       4046       4156       4157       4168       4167  
      4036       4037       4048       4047       4157       4158       4169       4168  
      4038       4039       4050       4049       4159       4160       4171       4170  
      4039       4040       4051       4050       4160       4161       4172       4171  
      4040       4041       4052       4051       4161       4162       4173       4172  
      4041       4042       4053       4052       4162       4163       4174       4173  
      4042       4043       4054       4053       4163       4164       4175       4174  
      4043       4044       4055       4054       4164       4165       4176       4175  
      4044       4045       4056       4055       4165       4166       4177       4176  
      4045       4046       4057       4056       4166       4167       4178       4177  
      4046       4047       4058       4057       4167       4168       4179       4178  
      4047       4048       4059       4058       4168       4169       4180       4179  
      4049       4050       4061       4060       4170       4171       4182       4181  
      4050       4051       4062       4061       4171       4172       4183       4182  
      4051       4052       4063       4062       4172       4173       4184       4183  
      4052       4053       4064       4063       4173       4174       4185       4184  
      4053       4054       4065       4064       4174       4175       4186       4185  
      4054       4055       4066       4065       4175       4176       4187       4186  
      4055       4056       4067       4066       4176       4177       4188       4187  
      4056       4057       4068       4067       4177       4178       4189       4188  
      4057       4058       4069       4068       4178       4179       4190       4189  
      4058       4059       4070       4069       4179       4180       4191       4190  
      4060       4061       4072       4071       4181       4182       4193       4192  
      4061       4062       4073       4072       4182       4183       4194       4193  
      4062       4063       4074       4073       4183       4184       4195       4194  
      4063       4064       4075       4074       4184       4185       4196       4195  
      4064       4065       4076       4075       4185       4186       4197       4196  
      4065       4066       4077       4076       4186       4187       4198       4197  
      4066       4067       4078       4077       4187       4188       4199       4198  
      4067       4068       4079       4078       4188       4189       4200       4199  
      4068       4069       4080       4079       4189       4190       4201       4200  
      4069       4070       4081       4080       4190       4191       4202       4201  
      4071       4072       4083       4082       4192       4193       4204       4203  
      4072       4073       4084       4083       4193       4194       4205       4204  
      4073       4074       4085       4084       4194       4195       4206       4205  
      4074       4075       4086       4085       4195       4196       4207       4206  
      4075       4076       4087       4086       4196       4197       4208       4207  
      4076       4077       4088       4087       4197       4198       4209       4208  
      4077       4078       4089       4088       4198       4199       4210       4209  
      4078       4079       4090       4089       4199       4200       4211       4210  
      4079       4080       4091       4090       4200       4201       4212       4211  
      4080       4081       4092       4091       4201       4202       4213       4212  
      4082       4083       4094       4093       4203       4204       4215       4214  
      4083       4084       4095       4094       4204       4205       4216       4215  
      4084       4085       4096       4095       4205       4206       4217       4216  
      4085       4086       4097       4096       4206       4207       4218       4217  
      4086       4087       4098       4097       4207       4208       4219       4218  
      4087       4088       4099       4098       4208       4209       4220       4219  
      4088       4089       4100       4099       4209       4210       4221       4220  
      4089       4090       4101       4100       4210       4211       4222       4221  
      4090       4091       4102       4101       4211       4212       4223       4222  
      4091       4092       4103       4102       4212       4213       4224       4223  
      4093       4094       4105       4104       4214       4215       4226       4225  
      4094       4095       4106       4105       4215       4216       4227       4226  
      4095       4096       4107       4106       4216       4217       4228       4227  
      4096       4097       4108       4107       4217       4218       4229       4228  
      4097       4098       4109       4108       4218       4219       4230       4229  
      4098       4099       4110       4109       4219       4220       4231       4230  
      4099       4100       4111       4110       4220       4221       4232       4231  
      4100       4101       4112       4111       4221       4222       4233       4232  
      4101       4102       4113       4112       4222       4223       4234       4233  
      4102       4103       4114       4113       4223       4224       4235       4234  
      4115       4116       4127       4126       4236       4237       4248       4247  
      4116       4117       4128       4127       4237       4238       4249       4248  
      4117       4118       4129       4128       4238       4239       4250       4249  
      4118       4119       4130       4129       4239       4240       4251       4250  
      4119       4120       4131       4130       4240       4241       4252       4251  
      4120       4121       4132       4131       4241       4242       4253       4252  
      4121       4122       4133       4132       4242       4243       4254       4253  
      4122       4123       4134       4133       4243       4244       4255       4254  
      4123       4124       4135       4134       4244       4245       4256       4255  
      4124       4125       4136       4135       4245       4246       4257       4256  
      4126       4127       4138       4137       4247       4248       4259       4258  
      4127       4128       4139       4138       4248       4249       4260       4259  
      4128       4129       4140       4139       4249       4250       4261       4260  
      4129       4130       4141       4140       4250       4251       4262       4261  
      4130       4131       4142       4141       4251       4252       4263       4262  
      4131       4132       4143       4142       4252       4253       4264       4263  
      4132       4133       4144       4143       4253       4254       4265       4264  
      4133       4134       4145       4144       4254       4255       4266       4265  
      4134       4135       4146       4145       4255       4256       4267       4266  
      4135       4136       4147       4146       4256       4257       4268       4267  
      4137       4138       4149       4148       4258       4259       4270       4269  
      4138       4139       4150       4149       4259       4260       4271       4270  
      4139       4140       4151       4150       4260       4261       4272       4271  
      4140       4141       4152       4151       4261       4262       4273       4272  
      4141       4142       4153       4152       4262       4263       4274       4273  
      4142       4143       4154       4153       4263       4264       4275       4274  
      4143       4144       4155       4154       4264       4265       4276       4275  
      4144       4145       4156       4155       4265       4266       4277       4276  
      4145       4146       4157       4156       4266       4267       4278       4277  
      4146       4147       4158       4157       4267       4268       4279       4278  
      4148       4149       4160       4159       4269       4270       4281       4280  
      4149       4150       4161       4160       4270       4271       4282       4281  
      4150       4151       4162       4161       4271       4272       4283       4282  
      4151       4152       4163       4162       4272       4273       4284       4283  
      4152       4153       4164       4163       4273       4274       4285       4284  
      4153       4154       4165       4164       4274       4275       4286       4285  
      4154       4155       4166       4165       4275       4276       4287       4286  
      4155       4156       4167       4166       4276       4277       4288       4287  
      4156       4157       4168       4167       4277       4278       4289       4288  
      4157       4158       4169       4168       4278       4279       4290       4289  
      4159       4160       4171       4170       4280       4281       4292       4291  
      4160       4161       4172       4171       4281       4282       4293       4292  
      4161       4162       4173       4172       4282       4283       4294       4293  
      4162       4163       4174       4173       4283       4284       4295       4294  
      4163       4164       4175       4174       4284       4285       4296       4295  
      4164       4165       4176       4175       4285       4286       4297       4296  
      4165       4166       4177       4176       4286       4287       4298       4297  
      4166       4167       4178       4177       4287       4288       4299       4298  
      4167       4168       4179       4178       4288       4289       4300       4299  
      4168       4169       4180       4179       4289       4290       4301       4300  
      4170       4171       4182       4181       4291       4292       4303       4302  
      4171       4172       4183       4182       4292       4293       4304       4303  
      4172       4173       4184       4183       4293       4294       4305       4304  
      4173       4174       4185       4184       4294       4295       4306       4305  
      4174       4175       4186       4185       4295       4296       4307       4306  
      4175       4176       4187       4186       4296       4297       4308       4307  
      4176       4177       4188       4187       4297       4298       4309       4308  
      4177       4178       4189       4188       4298       4299       4310       4309  
      4178       4179       4190       4189       4299       4300       4311       4310  
      4179       4180       4191       4190       4300       4301       4312       4311  
      4181       4182       4193       4192       4302       4303       4314       4313  
      4182       4183       4194       4193       4303       4304       4315       4314  
      4183       4184       4195       4194       4304       4305       4316       4315  
      4184       4185       4196       4195       4305       4306       4317       4316  
      4185       4186       4197       4196       4306       4307       4318       4317  
      4186       4187       4198       4197       4307       4308       4319       4318  
      4187       4188       4199       4198       4308       4309       4320       4319  
      4188       4189       4200       4199       4309       4310       4321       4320  
      4189       4190       4201       4200       4310       4311       4322       4321  
      4190       4191       4202       4201       4311       4312       4323       4322  
      4192       4193       4204       4203       4313       4314       4325       4324  
      4193       4194       4205       4204       4314       4315       4326       4325  
      4194       4195       4206       4205       4315       4316       4327       4326  
      4195       4196       4207       4206       4316       4317       4328       4327  
      4196       4197       4208       4207       4317       4318       4329       4328  
      4197       4198       4209       4208       4318       4319       4330       4329  
      4198       4199       4210       4209       4319       4320       4331       4330  
      4199       4200       4211       4210       4320       4321       4332       4331  
      4200       4201       4212       4211       4321       4322       4333       4332  
      4201       4202       4213       4212       4322       4323       4334       4333  
      4203       4204       4215       4214       4324       4325       4336       4335  
      4204       4205       4216       4215       4325       4326       4337       4336  
      4205       4206       4217       4216       4326       4327       4338       4337  
      4206       4207       4218       4217       4327       4328       4339       4338  
      4207       4208       4219       4218       4328       4329       4340       4339  
      4208       4209       4220       4219       4329       4330       4341       4340  
      4209       4210       4221       4220       4330       4331       4342       4341  
      4210       4211       4222       4221       4331       4332       4343       4342  
      4211       4212       4223       4222       4332       4333       4344       4343  
      4212       4213       4224       4223       4333       4334       4345       4344  
      4214       4215       4226       4225       4335       4336       4347       4346  
      4215       4216       4227       4226       4336       4337       4348       4347  
      4216       4217       4228       4227       4337       4338       4349       4348  
      4217       4218       4229       4228       4338       4339       4350       4349  
      4218       4219       4230       4229       4339       4340       4351       4350  
      4219       4220       4231       4230       4340       4341       4352       4351  
      4220       4221       4232       4231       4341       4342       4353       4352  
      4221       4222       4233       4232       4342       4343       4354       4353  
      4222       4223       4234       4233       4343       4344       4355       4354  
      4223       4224       4235       4234       4344       4345       4356       4355  
      4236       4237       4248       4247       4357       4358       4369       4368  
      4237       4238       4249       4248       4358       4359       4370       4369  
      4238       4239       4250       4249       4359       4360       4371       4370  
      4239       4240       4251       4250       4360       4361       4372       4371  
      4240       4241       4252       4251       4361       4362       4373       4372  
      4241       4242       4253       4252       4362       4363       4374       4373  
      4242       4243       4254       4253       4363       4364       4375       4374  
      4243       4244       4255       4254       4364       4365       4376       4375  
      4244       4245       4256       4255       4365       4366       4377       4376  
      4245       4246       4257       4256       4366       4367       4378       4377  
      4247       4248       4259       4258       4368       4369       4380       4379  
      4248       4249       4260       4259       4369       4370       4381       4380  
      4249       4250       4261       4260       4370       4371       4382       4381  
      4250       4251       4262       4261       4371       4372       4383       4382  
      4251       4252       4263       4262       4372       4373       4384       4383  
      4252       4253       4264       4263       4373       4374       4385       4384  
      4253       4254       4265       4264       4374       4375       4386       4385  
      4254       4255       4266       4265       4375       4376       4387       4386  
      4255       4256       4267       4266       4376       4377       4388       4387  
      4256       4257       4268       4267       4377       4378       4389       4388  
      4258       4259       4270       4269       4379       4380       4391       4390  
      4259       4260       4271       4270       4380       4381       4392       4391  
      4260       4261       4272       4271       4381       4382       4393       4392  
      4261       4262       4273       4272       4382       4383       4394       4393  
      4262       4263       4274       4273       4383       4384       4395       4394  
      4263       4264       4275       4274       4384       4385       4396       4395  
      4264       4265       4276       4275       4385       4386       4397       4396  
      4265       4266       4277       4276       4386       4387       4398       4397  
      4266       4267       4278       4277       4387       4388       4399       4398  
      4267       4268       4279       4278       4388       4389       4400       4399  
      4269       4270       4281       4280       4390       4391       4402       4401  
      4270       4271       4282       4281       4391       4392       4403       4402  
      4271       4272       4283       4282       4392       4393       4404       4403  
      4272       4273       4284       4283       4393       4394       4405       4404  
      4273       4274       4285       4284       4394       4395       4406       4405  
      4274       4275       4286       4285       4395       4396       4407       4406  
      4275       4276       4287       4286       4396       4397       4408       4407  
      4276       4277       4288       4287       4397       4398       4409       4408  
      4277       4278       4289       4288       4398       4399       4410       4409  
      4278       4279       4290       4289       4399       4400       4411       4410  
      4280       4281       4292       4291       4401       4402       4413       4412  
      4281       4282       4293       4292       4402       4403       4414       4413  
      4282       4283       4294       4293       4403       4404       4415       4414  
      4283       4284       4295       4294       4404       4405       4416       4415  
      4284       4285       4296       4295       4405       4406       4417       4416  
      4285       4286       4297       4296       4406       4407       4418       4417  
      4286       4287       4298       4297       4407       4408       4419       4418  
      4287       4288       4299       4298       4408       4409       4420       4419  
      4288       4289       4300       4299       4409       4410       4421       4420  
      4289       4290       4301       4300       4410       4411       4422       4421  
      4291       4292       4303       4302       4412       4413       4424       4423  
      4292       4293       4304       4303       4413       4414       4425       4424  
      4293       4294       4305       4304       4414       4415       4426       4425  
      4294       4295       4306       4305       4415       4416       4427       4426  
      4295       4296       4307       4306       4416       4417       4428       4427  
      4296       4297       4308       4307       4417       4418       4429       4428  
      4297       4298       4309       4308       4418       4419       4430       4429  
      4298       4299       4310       4309       4419       4420       4431       4430  
      4299       4300       4311       4310       4420       4421       4432       4431  
      4300       4301       4312       4311       4421       4422       4433       4432  
      4302       4303       4314       4313       4423       4424       4435       4434  
      4303       4304       4315       4314       4424       4425       4436       4435  
      4304       4305       4316       4315       4425       4426       4437       4436  
      4305       4306       4317       4316       4426       4427       4438       4437  
      4306       4307       4318       4317       4427       4428       4439       4438  
      4307       4308       4319       4318       4428       4429       4440       4439  
      4308       4309       4320       4319       4429       4430       4441       4440  
      4309       4310       4321       4320       4430       4431       4442       4441  
      4310       4311       4322       4321       4431       4432       4443       4442  
      4311       4312       4323       4322       4432       4433       4444       4443  
      4313       4314       4325       4324       4434       4435       4446       4445  
      4314       4315       4326       4325       4435       4436       4447       4446  
      4315       4316       4327       4326       4436       4437       4448       4447  
      4316       4317       4328       4327       4437       4438       4449       4448  
      4317       4318       4329       4328       4438       4439       4450       4449  
      4318       4319       4330       4329       4439       4440       4451       4450  
      4319       4320       4331       4330       4440       4441       4452       4451  
      4320       4321       4332       4331       4441       4442       4453       4452  
      4321       4322       4333       4332       4442       4443       4454       4453  
      4322       4323       4334       4333       4443       4444       4455       4454  
      4324       4325       4336       4335       4445       4446       4457       4456  
      4325       4326       4337       4336       4446       4447       4458       4457  
      4326       4327       4338       4337       4447       4448       4459       4458  
      4327       4328       4339       4338       4448       4449       4460       4459  
      4328       4329       4340       4339       4449       4450       4461       4460  
      4329       4330       4341       4340       4450       4451       4462       4461  
      4330       4331       4342       4341       4451       4452       4463       4462  
      4331       4332       4343       4342       4452       4453       4464       4463  
      4332       4333       4344       4343       4453       4454       4465       4464  
      4333       4334       4345       4344       4454       4455       4466       4465  
      4335       4336       4347       4346       4456       4457       4468       4467  
      4336       4337       4348       4347       4457       4458       4469       4468  
      4337       4338       4349       4348       4458       4459       4470       4469  
      4338       4339       4350       4349       4459       4460       4471       4470  
      4339       4340       4351       4350       4460       4461       4472       4471  
      4340       4341       4352       4351       4461       4462       4473       4472  
      4341       4342       4353       4352       4462       4463       4474       4473  
      4342       4343       4354       4353       4463       4464       4475       4474  
      4343       4344       4355       4354       4464       4465       4476       4475  
      4344       4345       4356       4355       4465       4466       4477       4476  
      4357       4358       4369       4368       4478       4479       4490       4489  
      4358       4359       4370       4369       4479       4480       4491       4490  
      4359       4360       4371       4370       4480       4481       4492       4491  
      4360       4361       4372       4371       4481       4482       4493       4492  
      4361       4362       4373       4372       4482       4483       4494       4493  
      4362       4363       4374       4373       4483       4484       4495       4494  
      4363       4364       4375       4374       4484       4485       4496       4495  
      4364       4365       4376       4375       4485       4486       4497       4496  
      4365       4366       4377       4376       4486       4487       4498       4497  
      4366       4367       4378       4377       4487       4488       4499       4498  
      4368       4369       4380       4379       4489       4490       4501       4500  
      4369       4370       4381       4380       4490       4491       4502       4501  
      4370       4371       4382       4381       4491       4492       4503       4502  
      4371       4372       4383       4382       4492       4493       4504       4503  
      4372       4373       4384       4383       4493       4494       4505       4504  
      4373       4374       4385       4384       4494       4495       4506       4505  
      4374       4375       4386       4385       4495       4496       4507       4506  
      4375       4376       4387       4386       4496       4497       4508       4507  
      4376       4377       4388       4387       4497       4498       4509       4508  
      4377       4378       4389       4388       4498       4499       4510       4509  
      4379       4380       4391       4390       4500       4501       4512       4511  
      4380       4381       4392       4391       4501       4502       4513       4512  
      4381       4382       4393       4392       4502       4503       4514       4513  
      4382       4383       4394       4393       4503       4504       4515       4514  
      4383       4384       4395       4394       4504       4505       4516       4515  
      4384       4385       4396       4395       4505       4506       4517       4516  
      4385       4386       4397       4396       4506       4507       4518       4517  
      4386       4387       4398       4397       4507       4508       4519       4518  
      4387       4388       4399       4398       4508       4509       4520       4519  
      4388       4389       4400       4399       4509       4510       4521       4520  
      4390       4391       4402       4401       4511       4512       4523       4522  
      4391       4392       4403       4402       4512       4513       4524       4523  
      4392       4393       4404       4403       4513       4514       4525       4524  
      4393       4394       4405       4404       4514       4515       4526       4525  
      4394       4395       4406       4405       4515       4516       4527       4526  
      4395       4396       4407       4406       4516       4517       4528       4527  
      4396       4397       4408       4407       4517       4518       4529       4528  
      4397       4398       4409       4408       4518       4519       4530       4529  
      4398       4399       4410       4409       4519       4520       4531       4530  
      4399       4400       4411       4410       4520       4521       4532       4531  
      4401       4402       4413       4412       4522       4523       4534       4533  
      4402       4403       4414       4413       4523       4524       4535       4534  
      4403       4404       4415       4414       4524       4525       4536       4535  
      4404       4405       4416       4415       4525       4526       4537       4536  
      4405       4406       4417       4416       4526       4527       4538       4537  
      4406       4407       4418       4417       4527       4528       4539       4538  
      4407       4408       4419       4418       4528       4529       4540       4539  
      4408       4409       4420       4419       4529       4530       4541       4540  
      4409       4410       4421       4420       4530       4531       4542       4541  
      4410       4411       4422       4421       4531       4532       4543       4542  
      4412       4413       4424       4423       4533       4534       4545       4544  
      4413       4414       4425       4424       4534       4535       4546       4545  
      4414       4415       4426       4425       4535       4536       4547       4546  
      4415       4416       4427       4426       4536       4537       4548       4547  
      4416       4417       4428       4427       4537       4538       4549       4548  
      4417       4418       4429       4428       4538       4539       4550       4549  
      4418       4419       4430       4429       4539       4540       4551       4550  
      4419       4420       4431       4430       4540       4541       4552       4551  
      4420       4421       4432       4431       4541       4542       4553       4552  
      4421       4422       4433       4432       4542       4543       4554       4553  
      4423       4424       4435       4434       4544       4545       4556       4555  
      4424       4425       4436       4435       4545       4546       4557       4556  
      4425       4426       4437       4436       4546       4547       4558       4557  
      4426       4427       4438       4437       4547       4548       4559       4558  
      4427       4428       4439       4438       4548       4549       4560       4559  
      4428       4429       4440       4439       4549       4550       4561       4560  
      4429       4430       4441       4440       4550       4551       4562       4561  
      4430       4431       4442       4441       4551       4552       4563       4562  
      4431       4432       4443       4442       4552       4553       4564       4563  
      4432       4433       4444       4443       4553       4554       4565       4564  
      4434       4435       4446       4445       4555       4556       4567       4566  
      4435       4436       4447       4446       4556       4557       4568       4567  
      4436       4437       4448       4447       4557       4558       4569       4568  
      4437       4438       4449       4448       4558       4559       4570       4569  
      4438       4439       4450       4449       4559       4560       4571       4570  
      4439       4440       4451       4450       4560       4561       4572       4571  
      4440       4441       4452       4451       4561       4562       4573       4572  
      4441       4442       4453       4452       4562       4563       4574       4573  
      4442       4443       4454       4453       4563       4564       4575       4574  
      4443       4444       4455       4454       4564       4565       4576       4575  
      4445       4446       4457       4456       4566       4567       4578       4577  
      4446       4447       4458       4457       4567       4568       4579       4578  
      4447       4448       4459       4458       4568       4569       4580       4579  
      4448       4449       4460       4459       4569       4570       4581       4580  
      4449       4450       4461       4460       4570       4571       4582       4581  
      4450       4451       4462       4461       4571       4572       4583       4582  
      4451       4452       4463       4462       4572       4573       4584       4583  
      4452       4453       4464       4463       4573       4574       4585       4584  
      4453       4454       4465       4464       4574       4575       4586       4585  
      4454       4455       4466       4465       4575       4576       4587       4586  
      4456       4457       4468       4467       4577       4578       4589       4588  
      4457       4458       4469       4468       4578       4579       4590       4589  
      4458       4459       4470       4469       4579       4580       4591       4590  
      4459       4460       4471       4470       4580       4581       4592       4591  
      4460       4461       4472       4471       4581       4582       4593       4592  
      4461       4462       4473       4472       4582       4583       4594       4593  
      4462       4463       4474       4473       4583       4584       4595       4594  
      4463       4464       4475       4474       4584       4585       4596       4595  
      4464       4465       4476       4475       4585       4586       4597       4596  
      4465       4466       4477       4476       4586       4587       4598       4597  
      4478       4479       4490       4489       4599       4600       4611       4610  
      4479       4480       4491       4490       4600       4601       4612       4611  
      4480       4481       4492       4491       4601       4602       4613       4612  
      4481       4482       4493       4492       4602       4603       4614       4613  
      4482       4483       4494       4493       4603       4604       4615       4614  
      4483       4484       4495       4494       4604       4605       4616       4615  
      4484       4485       4496       4495       4605       4606       4617       4616  
      4485       4486       4497       4496       4606       4607       4618       4617  
      4486       4487       4498       4497       4607       4608       4619       4618  
      4487       4488       4499       4498       4608       4609       4620       4619  
      4489       4490       4501       4500       4610       4611       4622       4621  
      4490       4491       4502       4501       4611       4612       4623       4622  
      4491       4492       4503       4502       4612       4613       4624       4623  
      4492       4493       4504       4503       4613       4614       4625       4624  
      4493       4494       4505       4504       4614       4615       4626       4625  
      4494       4495       4506       4505       4615       4616       4627       4626  
      4495       4496       4507       4506       4616       4617       4628       4627  
      4496       4497       4508       4507       4617       4618       4629       4628  
      4497       4498       4509       4508       4618       4619       4630       4629  
      4498       4499       4510       4509       4619       4620       4631       4630  
      4500       4501       4512       4511       4621       4622       4633       4632  
      4501       4502       4513       4512       4622       4623       4634       4633  
      4502       4503       4514       4513       4623       4624       4635       4634  
      4503       4504       4515       4514       4624       4625       4636       4635  
      4504       4505       4516       4515       4625       4626       4637       4636  
      4505       4506       4517       4516       4626       4627       4638       4637  
      4506       4507       4518       4517       4627       4628       4639       4638  
      4507       4508       4519       4518       4628       4629       4640       4639  
      4508       4509       4520       4519       4629       4630       4641       4640  
      4509       4510       4521       4520       4630       4631       4642       4641  
      4511       4512       4523       4522       4632       4633       4644       4643  
      4512       4513       4524       4523       4633       4634       4645       4644  
      4513       4514       4525       4524       4634       4635       4646       4645  
      4514       4515       4526       4525       4635       4636       4647       4646  
      4515       4516       4527       4526       4636       4637       4648       4647  
      4516       4517       4528       4527       4637       4638       4649       4648  
      4517       4518       4529       4528       4638       4639       4650       4649  
      4518       4519       4530       4529       4639       4640       4651       4650  
      4519       4520       4531       4530       4640       4641       4652       4651  
      4520       4521       4532       4531       4641       4642       4653       4652  
      4522       4523       4534       4533       4643       4644       4655       4654  
      4523       4524       4535       4534       4644       4645       4656       4655  
      4524       4525       4536       4535       4645       4646       4657       4656  
      4525       4526       4537       4536       4646       4647       4658       4657  
      4526       4527       4538       4537       4647       4648       4659       4658  
      4527       4528       4539       4538       4648       4649       4660       4659  
      4528       4529       4540       4539       4649       4650       4661       4660  
      4529       4530       4541       4540       4650       4651       4662       4661  
      4530       4531       4542       4541       4651       4652       4663       4662  
      4531       4532       4543       4542       4652       4653       4664       4663  
      4533       4534       4545       4544       4654       4655       4666       4665  
      4534       4535       4546       4545       4655       4656       4667       4666  
      4535       4536       4547       4546       4656       4657       4668       4667  
      4536       4537       4548       4547       4657       4658       4669       4668  
      4537       4538       4549       4548       4658       4659       4670       4669  
      4538       4539       4550       4549       4659       4660       4671       4670  
      4539       4540       4551       4550       4660       4661       4672       4671  
      4540       4541       4552       4551       4661       4662       4673       4672  
      4541       4542       4553       4552       4662       4663       4674       4673  
      4542       4543       4554       4553       4663       4664       4675       4674  
      4544       4545       4556       4555       4665       4666       4677       4676  
      4545       4546       4557       4556       4666       4667       4678       4677  
      4546       4547       4558       4557       4667       4668       4679       4678  
      4547       4548       4559       4558       4668       4669       4680       4679  
      4548       4549       4560       4559       4669       4670       4681       4680  
      4549       4550       4561       4560       4670       4671       4682       4681  
      4550       4551       4562       4561       4671       4672       4683       4682  
      4551       4552       4563       4562       4672       4673       4684       4683  
      4552       4553       4564       4563       4673       4674       4685       4684  
      4553       4554       4565       4564       4674       4675       4686       4685  
      4555       4556       4567       4566       4676       4677       4688       4687  
      4556       4557       4568       4567       4677       4678       4689       4688  
      4557       4558       4569       4568       4678       4679       4690       4689  
      4558       4559       4570       4569       4679       4680       4691       4690  
      4559       4560       4571       4570       4680       4681       4692       4691  
      4560       4561       4572       4571       4681       4682       4693       4692  
      4561       4562       4573       4572       4682       4683       4694       4693  
      4562       4563       4574       4573       4683       4684       4695       4694  
      4563       4564       4575       4574       4684       4685       4696       4695  
      4564       4565       4576       4575       4685       4686       4697       4696  
      4566       4567       4578       4577       4687       4688       4699       4698  
      4567       4568       4579       4578       4688       4689       4700       4699  
      4568       4569       4580       4579       4689       4690       4701       4700  
      4569       4570       4581       4580       4690       4691       4702       4701  
      4570       4571       4582       4581       4691       4692       4703       4702  
      4571       4572       4583       4582       4692       4693       4704       4703  
      4572       4573       4584       4583       4693       4694       4705       4704  
      4573       4574       4585       4584       4694       4695       4706       4705  
      4574       4575       4586       4585       4695       4696       4707       4706  
      4575       4576       4587       4586       4696       4697       4708       4707  
      4577       4578       4589       4588       4698       4699       4710       4709  
      4578       4579       4590       4589       4699       4700       4711       4710  
      4579       4580       4591       4590       4700       4701       4712       4711  
      4580       4581       4592       4591       4701       4702       4713       4712  
      4581       4582       4593       4592       4702       4703       4714       4713  
      4582       4583       4594       4593       4703       4704       4715       4714  
      4583       4584       4595       4594       4704       4705       4716       4715  
      4584       4585       4596       4595       4705       4706       4717       4716  
      4585       4586       4597       4596       4706       4707       4718       4717  
      4586       4587       4598       4597       4707       4708       4719       4718  
      4599       4600       4611       4610       4720       4721       4732       4731  
      4600       4601       4612       4611       4721       4722       4733       4732  
      4601       4602       4613       4612       4722       4723       4734       4733  
      4602       4603       4614       4613       4723       4724       4735       4734  
      4603       4604       4615       4614       4724       4725       4736       4735  
      4604       4605       4616       4615       4725       4726       4737       4736  
      4605       4606       4617       4616       4726       4727       4738       4737  
      4606       4607       4618       4617       4727       4728       4739       4738  
      4607       4608       4619       4618       4728       4729       4740       4739  
      4608       4609       4620       4619       4729       4730       4741       4740  
      4610       4611       4622       4621       4731       4732       4743       4742  
      4611       4612       4623       4622       4732       4733       4744       4743  
      4612       4613       4624       4623       4733       4734       4745       4744  
      4613       4614       4625       4624       4734       4735       4746       4745  
      4614       4615       4626       4625       4735       4736       4747       4746  
      4615       4616       4627       4626       4736       4737       4748       4747  
      4616       4617       4628       4627       4737       4738       4749       4748  
      4617       4618       4629       4628       4738       4739       4750       4749  
      4618       4619       4630       4629       4739       4740       4751       4750  
      4619       4620       4631       4630       4740       4741       4752       4751  
      4621       4622       4633       4632       4742       4743       4754       4753  
      4622       4623       4634       4633       4743       4744       4755       4754  
      4623       4624       4635       4634       4744       4745       4756       4755  
      4624       4625       4636       4635       4745       4746       4757       4756  
      4625       4626       4637       4636       4746       4747       4758       4757  
      4626       4627       4638       4637       4747       4748       4759       4758  
      4627       4628       4639       4638       4748       4749       4760       4759  
      4628       4629       4640       4639       4749       4750       4761       4760  
      4629       4630       4641       4640       4750       4751       4762       4761  
      4630       4631       4642       4641       4751       4752       4763       4762  
      4632       4633       4644       4643       4753       4754       4765       4764  
      4633       4634       4645       4644       4754       4755       4766       4765  
      4634       4635       4646       4645       4755       4756       4767       4766  
      4635       4636       4647       4646       4756       4757       4768       4767  
      4636       4637       4648       4647       4757       4758       4769       4768  
      4637       4638       4649       4648       4758       4759       4770       4769  
      4638       4639       4650       4649       4759       4760       4771       4770  
      4639       4640       4651       4650       4760       4761       4772       4771  
      4640       4641       4652       4651       4761       4762       4773       4772  
      4641       4642       4653       4652       4762       4763       4774       4773  
      4643       4644       4655       4654       4764       4765       4776       4775  
      4644       4645       4656       4655       4765       4766       4777       4776  
      4645       4646       4657       4656       4766       4767       4778       4777  
      4646       4647       4658       4657       4767       4768       4779       4778  
      4647       4648       4659       4658       4768       4769       4780       4779  
      4648       4649       4660       4659       4769       4770       4781       4780  
      4649       4650       4661       4660       4770       4771       4782       4781  
      4650       4651       4662       4661       4771       4772       4783       4782  
      4651       4652       4663       4662       4772       4773       4784       4783  
      4652       4653       4664       4663       4773       4774       4785       4784  
      4654       4655       4666       4665       4775       4776       4787       4786  
      4655       4656       4667       4666       4776       4777       4788       4787  
      4656       4657       4668       4667       4777       4778       4789       4788  
      4657       4658       4669       4668       4778       4779       4790       4789  
      4658       4659       4670       4669       4779       4780       4791       4790  
      4659       4660       4671       4670       4780       4781       4792       4791  
      4660       4661       4672       4671       4781       4782       4793       4792  
      4661       4662       4673       4672       4782       4783       4794       4793  
      4662       4663       4674       4673       4783       4784       4795       4794  
      4663       4664       4675       4674       4784       4785       4796       4795  
      4665       4666       4677       4676       4786       4787       4798       4797  
      4666       4667       4678       4677       4787       4788       4799       4798  
      4667       4668       4679       4678       4788       4789       4800       4799  
      4668       4669       4680       4679       4789       4790       4801       4800  
      4669       4670       4681       4680       4790       4791       4802       4801  
      4670       4671       4682       4681       4791       4792       4803       4802  
      4671       4672       4683       4682       4792       4793       4804       4803  
      4672       4673       4684       4683       4793       4794       4805       4804  
      4673       4674       4685       4684       4794       4795       4806       4805  
      4674       4675       4686       4685       4795       4796       4807       4806  
      4676       4677       4688       4687       4797       4798       4809       4808  
      4677       4678       4689       4688       4798       4799       4810       4809  
      4678       4679       4690       4689       4799       4800       4811       4810  
      4679       4680       4691       4690       4800       4801       4812       4811  
      4680       4681       4692       4691       4801       4802       4813       4812  
      4681       4682       4693       4692       4802       4803       4814       4813  
      4682       4683       4694       4693       4803       4804       4815       4814  
      4683       4684       4695       4694       4804       4805       4816       4815  
      4684       4685       4696       4695       4805       4806       4817       4816  
      4685       4686       4697       4696       4806       4807       4818       4817  
      4687       4688       4699       4698       4808       4809       4820       4819  
      4688       4689       4700       4699       4809       4810       4821       4820  
      4689       4690       4701       4700       4810       4811       4822       4821  
      4690       4691       4702       4701       4811       4812       4823       4822  
      4691       4692       4703       4702       4812       4813       4824       4823  
      4692       4693       4704       4703       4813       4814       4825       4824  
      4693       4694       4705       4704       4814       4815       4826       4825  
      4694       4695       4706       4705       4815       4816       4827       4826  
      4695       4696       4707       4706       4816       4817       4828       4827  
      4696       4697       4708       4707       4817       4818       4829       4828  
      4698       4699       4710       4709       4819       4820       4831       4830  
      4699       4700       4711       4710       4820       4821       4832       4831  
      4700       4701       4712       4711       4821       4822       4833       4832  
      4701       4702       4713       4712       4822       4823       4834       4833  
      4702       4703       4714       4713       4823       4824       4835       4834  
      4703       4704       4715       4714       4824       4825       4836       4835  
      4704       4705       4716       4715       4825       4826       4837       4836  
      4705       4706       4717       4716       4826       4827       4838       4837  
      4706       4707       4718       4717       4827       4828       4839       4838  
      4707       4708       4719       4718       4828       4829       4840       4839  
      4720       4721       4732       4731       4841       4842       4853       4852  
      4721       4722       4733       4732       4842       4843       4854       4853  
      4722       4723       4734       4733       4843       4844       4855       4854  
      4723       4724       4735       4734       4844       4845       4856       4855  
      4724       4725       4736       4735       4845       4846       4857       4856  
      4725       4726       4737       4736       4846       4847       4858       4857  
      4726       4727       4738       4737       4847       4848       4859       4858  
      4727       4728       4739       4738       4848       4849       4860       4859  
      4728       4729       4740       4739       4849       4850       4861       4860  
      4729       4730       4741       4740       4850       4851       4862       4861  
      4731       4732       4743       4742       4852       4853       4864       4863  
      4732       4733       4744       4743       4853       4854       4865       4864  
      4733       4734       4745       4744       4854       4855       4866       4865  
      4734       4735       4746       4745       4855       4856       4867       4866  
      4735       4736       4747       4746       4856       4857       4868       4867  
      4736       4737       4748       4747       4857       4858       4869       4868  
      4737       4738       4749       4748       4858       4859       4870       4869  
      4738       4739       4750       4749       4859       4860       4871       4870  
      4739       4740       4751       4750       4860       4861       4872       4871  
      4740       4741       4752       4751       4861       4862       4873       4872  
      4742       4743       4754       4753       4863       4864       4875       4874  
      4743       4744       4755       4754       4864       4865       4876       4875  
      4744       4745       4756       4755       4865       4866       4877       4876  
      4745       4746       4757       4756       4866       4867       4878       4877  
      4746       4747       4758       4757       4867       4868       4879       4878  
      4747       4748       4759       4758       4868       4869       4880       4879  
      4748       4749       4760       4759       4869       4870       4881       4880  
      4749       4750       4761       4760       4870       4871       4882       4881  
      4750       4751       4762       4761       4871       4872       4883       4882  
      4751       4752       4763       4762       4872       4873       4884       4883  
      4753       4754       4765       4764       4874       4875       4886       4885  
      4754       4755       4766       4765       4875       4876       4887       4886  
      4755       4756       4767       4766       4876       4877       4888       4887  
      4756       4757       4768       4767       4877       4878       4889       4888  
      4757       4758       4769       4768       4878       4879       4890       4889  
      4758       4759       4770       4769       4879       4880       4891       4890  
      4759       4760       4771       4770       4880       4881       4892       4891  
      4760       4761       4772       4771       4881       4882       4893       4892  
      4761       4762       4773       4772       4882       4883       4894       4893  
      4762       4763       4774       4773       4883       4884       4895       4894  
      4764       4765       4776       4775       4885       4886       4897       4896  
      4765       4766       4777       4776       4886       4887       4898       4897  
      4766       4767       4778       4777       4887       4888       4899       4898  
      4767       4768       4779       4778       4888       4889       4900       4899  
      4768       4769       4780       4779       4889       4890       4901       4900  
      4769       4770       4781       4780       4890       4891       4902       4901  
      4770       4771       4782       4781       4891       4892       4903       4902  
      4771       4772       4783       4782       4892       4893       4904       4903  
      4772       4773       4784       4783       4893       4894       4905       4904  
      4773       4774       4785       4784       4894       4895       4906       4905  
      4775       4776       4787       4786       4896       4897       4908       4907  
      4776       4777       4788       4787       4897       4898       4909       4908  
      4777       4778       4789       4788       4898       4899       4910       4909  
      4778       4779       4790       4789       4899       4900       4911       4910  
      4779       4780       4791       4790       4900       4901       4912       4911  
      4780       4781       4792       4791       4901       4902       4913       4912  
      4781       4782       4793       4792       4902       4903       4914       4913  
      4782       4783       4794       4793       4903       4904       4915       4914  
      4783       4784       4795       4794       4904       4905       4916       4915  
      4784       4785       4796       4795       4905       4906       4917       4916  
      4786       4787       4798       4797       4907       4908       4919       4918  
      4787       4788       4799       4798       4908       4909       4920       4919  
      4788       4789       4800       4799       4909       4910       4921       4920  
      4789       4790       4801       4800       4910       4911       4922       4921  
      4790       4791       4802       4801       4911       4912       4923       4922  
      4791       4792       4803       4802       4912       4913       4924       4923  
      4792       4793       4804       4803       4913       4914       4925       4924  
      4793       4794       4805       4804       4914       4915       4926       4925  
      4794       4795       4806       4805       4915       4916       4927       4926  
      4795       4796       4807       4806       4916       4917       4928       4927  
      4797       4798       4809       4808       4918       4919       4930       4929  
      4798       4799       4810       4809       4919       4920       4931       4930  
      4799       4800       4811       4810       4920       4921       4932       4931  
      4800       4801       4812       4811       4921       4922       4933       4932  
      4801       4802       4813       4812       4922       4923       4934       4933  
      4802       4803       4814       4813       4923       4924       4935       4934  
      4803       4804       4815       4814       4924       4925       4936       4935  
      4804       4805       4816       4815       4925       4926       4937       4936  
      4805       4806       4817       4816       4926       4927       4938       4937  
      4806       4807       4818       4817       4927       4928       4939       4938  
      4808       4809       4820       4819       4929       4930       4941       4940  
      4809       4810       4821       4820       4930       4931       4942       4941  
      4810       4811       4822       4821       4931       4932       4943       4942  
      4811       4812       4823       4822       4932       4933       4944       4943  
      4812       4813       4824       4823       4933       4934       4945       4944  
      4813       4814       4825       4824       4934       4935       4946       4945  
      4814       4815       4826       4825       4935       4936       4947       4946  
      4815       4816       4827       4826       4936       4937       4948       4947  
      4816       4817       4828       4827       4937       4938       4949       4948  
      4817       4818       4829       4828       4938       4939       4950       4949  
      4819       4820       4831       4830       4940       4941       4952       4951  
      4820       4821       4832       4831       4941       4942       4953       4952  
      4821       4822       4833       4832       4942       4943       4954       4953  
      4822       4823       4834       4833       4943       4944       4955       4954  
      4823       4824       4835       4834       4944       4945       4956       4955  
      4824       4825       4836       4835       4945       4946       4957       4956  
      4825       4826       4837       4836       4946       4947       4958       4957  
      4826       4827       4838       4837       4947       4948       4959       4958  
      4827       4828       4839       4838       4948       4949       4960       4959  
      4828       4829       4840       4839       4949       4950       4961       4960  
      4841       4842       4853       4852       4962       4963       4974       4973  
      4842       4843       4854       4853       4963       4964       4975       4974  
      4843       4844       4855       4854       4964       4965       4976       4975  
      4844       4845       4856       4855       4965       4966       4977       4976  
      4845       4846       4857       4856       4966       4967       4978       4977  
      4846       4847       4858       4857       4967       4968       4979       4978  
      4847       4848       4859       4858       4968       4969       4980       4979  
      4848       4849       4860       4859       4969       4970       4981       4980  
      4849       4850       4861       4860       4970       4971       4982       4981  
      4850       4851       4862       4861       4971       4972       4983       4982  
      4852       4853       4864       4863       4973       4974       4985       4984  
      4853       4854       4865       4864       4974       4975       4986       4985  
      4854       4855       4866       4865       4975       4976       4987       4986  
      4855       4856       4867       4866       4976       4977       4988       4987  
      4856       4857       4868       4867       4977       4978       4989       4988  
      4857       4858       4869       4868       4978       4979       4990       4989  
      4858       4859       4870       4869       4979       4980       4991       4990  
      4859       4860       4871       4870       4980       4981       4992       4991  
      4860       4861       4872       4871       4981       4982       4993       4992  
      4861       4862       4873       4872       4982       4983       4994       4993  
      4863       4864       4875       4874       4984       4985       4996       4995  
      4864       4865       4876       4875       4985       4986       4997       4996  
      4865       4866       4877       4876       4986       4987       4998       4997  
      4866       4867       4878       4877       4987       4988       4999       4998  
      4867       4868       4879       4878       4988       4989       5000       4999  
      4868       4869       4880       4879       4989       4990       5001       5000  
      4869       4870       4881       4880       4990       4991       5002       5001  
      4870       4871       4882       4881       4991       4992       5003       5002  
      4871       4872       4883       4882       4992       4993       5004       5003  
      4872       4873       4884       4883       4993       4994       5005       5004  
      4874       4875       4886       4885       4995       4996       5007       5006  
      4875       4876       4887       4886       4996       4997       5008       5007  
      4876       4877       4888       4887       4997       4998       5009       5008  
      4877       4878       4889       4888       4998       4999       5010       5009  
      4878       4879       4890       4889       4999       5000       5011       5010  
      4879       4880       4891       4890       5000       5001       5012       5011  
      4880       4881       4892       4891       5001       5002       5013       5012  
      4881       4882       4893       4892       5002       5003       5014       5013  
      4882       4883       4894       4893       5003       5004       5015       5014  
      4883       4884       4895       4894       5004       5005       5016       5015  
      4885       4886       4897       4896       5006       5007       5018       5017  
      4886       4887       4898       4897       5007       5008       5019       5018  
      4887       4888       4899       4898       5008       5009       5020       5019  
      4888       4889       4900       4899       5009       5010       5021       5020  
      4889       4890       4901       4900       5010       5011       5022       5021  
      4890       4891       4902       4901       5011       5012       5023       5022  
      4891       4892       4903       4902       5012       5013       5024       5023  
      4892       4893       4904       4903       5013       5014       5025       5024  
      4893       4894       4905       4904       5014       5015       5026       5025  
      4894       4895       4906       4905       5015       5016       5027       5026  
      4896       4897       4908       4907       5017       5018       5029       5028  
      4897       4898       4909       4908       5018       5019       5030       5029  
      4898       4899       4910       4909       5019       5020       5031       5030  
      4899       4900       4911       4910       5020       5021       5032       5031  
      4900       4901       4912       4911       5021       5022       5033       5032  
      4901       4902       4913       4912       5022       5023       5034       5033  
      4902       4903       4914       4913       5023       5024       5035       5034  
      4903       4904       4915       4914       5024       5025       5036       5035  
      4904       4905       4916       4915       5025       5026       5037       5036  
      4905       4906       4917       4916       5026       5027       5038       5037  
      4907       4908       4919       4918       5028       5029       5040       5039  
      4908       4909       4920       4919       5029       5030       5041       5040  
      4909       4910       4921       4920       5030       5031       5042       5041  
      4910       4911       4922       4921       5031       5032       5043       5042  
      4911       4912       4923       4922       5032       5033       5044       5043  
      4912       4913       4924       4923       5033       5034       5045       5044  
      4913       4914       4925       4924       5034       5035       5046       5045  
      4914       4915       4926       4925       5035       5036       5047       5046  
      4915       4916       4927       4926       5036       5037       5048       5047  
      4916       4917       4928       4927       5037       5038       5049       5048  
      4918       4919       4930       4929       5039       5040       5051       5050  
      4919       4920       4931       4930       5040       5041       5052       5051  
      4920       4921       4932       4931       5041       5042       5053       5052  
      4921       4922       4933       4932       5042       5043       5054       5053  
      4922       4923       4934       4933       5043       5044       5055       5054  
      4923       4924       4935       4934       5044       5045       5056       5055  
      4924       4925       4936       4935       5045       5046       5057       5056  
      4925       4926       4937       4936       5046       5047       5058       5057  
      4926       4927       4938       4937       5047       5048       5059       5058  
      4927       4928       4939       4938       5048       5049       5060       5059  
      4929       4930       4941       4940       5050       5051       5062       5061  
      4930       4931       4942       4941       5051       5052       5063       5062  
      4931       4932       4943       4942       5052       5053       5064       5063  
      4932       4933       4944       4943       5053       5054       5065       5064  
      4933       4934       4945       4944       5054       5055       5066       5065  
      4934       4935       4946       4945       5055       5056       5067       5066  
      4935       4936       4947       4946       5056       5057       5068       5067  
      4936       4937       4948       4947       5057       5058       5069       5068  
      4937       4938       4949       4948       5058       5059       5070       5069  
      4938       4939       4950       4949       5059       5060       5071       5070  
      4940       4941       4952       4951       5061       5062       5073       5072  
      4941       4942       4953       4952       5062       5063       5074       5073  
      4942       4943       4954       4953       5063       5064       5075       5074  
      4943       4944       4955       4954       5064       5065       5076       5075  
      4944       4945       4956       4955       5065       5066       5077       5076  
      4945       4946       4957       4956       5066       5067       5078       5077  
      4946       4947       4958       4957       5067       5068       5079       5078  
      4947       4948       4959       4958       5068       5069       5080       5079  
      4948       4949       4960       4959       5069       5070       5081       5080  
      4949       4950       4961       4960       5070       5071       5082       5081  
      4962       4963       4974       4973       5083       5084       5095       5094  
      4963       4964       4975       4974       5084       5085       5096       5095  
      4964       4965       4976       4975       5085       5086       5097       5096  
      4965       4966       4977       4976       5086       5087       5098       5097  
      4966       4967       4978       4977       5087       5088       5099       5098  
      4967       4968       4979       4978       5088       5089       5100       5099  
      4968       4969       4980       4979       5089       5090       5101       5100  
      4969       4970       4981       4980       5090       5091       5102       5101  
      4970       4971       4982       4981       5091       5092       5103       5102  
      4971       4972       4983       4982       5092       5093       5104       5103  
      4973       4974       4985       4984       5094       5095       5106       5105  
      4974       4975       4986       4985       5095       5096       5107       5106  
      4975       4976       4987       4986       5096       5097       5108       5107  
      4976       4977       4988       4987       5097       5098       5109       5108  
      4977       4978       4989       4988       5098       5099       5110       5109  
      4978       4979       4990       4989       5099       5100       5111       5110  
      4979       4980       4991       4990       5100       5101       5112       5111  
      4980       4981       4992       4991       5101       5102       5113       5112  
      4981       4982       4993       4992       5102       5103       5114       5113  
      4982       4983       4994       4993       5103       5104       5115       5114  
      4984       4985       4996       4995       5105       5106       5117       5116  
      4985       4986       4997       4996       5106       5107       5118       5117  
      4986       4987       4998       4997       5107       5108       5119       5118  
      4987       4988       4999       4998       5108       5109       5120       5119  
      4988       4989       5000       4999       5109       5110       5121       5120  
      4989       4990       5001       5000       5110       5111       5122       5121  
      4990       4991       5002       5001       5111       5112       5123       5122  
      4991       4992       5003       5002       5112       5113       5124       5123  
      4992       4993       5004       5003       5113       5114       5125       5124  
      4993       4994       5005       5004       5114       5115       5126       5125  
      4995       4996       5007       5006       5116       5117       5128       5127  
      4996       4997       5008       5007       5117       5118       5129       5128  
      4997       4998       5009       5008       5118       5119       5130       5129  
      4998       4999       5010       5009       5119       5120       5131       5130  
      4999       5000       5011       5010       5120       5121       5132       5131  
      5000       5001       5012       5011       5121       5122       5133       5132  
      5001       5002       5013       5012       5122       5123       5134       5133  
      5002       5003       5014       5013       5123       5124       5135       5134  
      5003       5004       5015       5014       5124       5125       5136       5135  
      5004       5005       5016       5015       5125       5126       5137       5136  
      5006       5007       5018       5017       5127       5128       5139       5138  
      5007       5008       5019       5018       5128       5129       5140       5139  
      5008       5009       5020       5019       5129       5130       5141       5140  
      5009       5010       5021       5020       5130       5131       5142       5141  
      5010       5011       5022       5021       5131       5132       5143       5142  
      5011       5012       5023       5022       5132       5133       5144       5143  
      5012       5013       5024       5023       5133       5134       5145       5144  
      5013       5014       5025       5024       5134       5135       5146       5145  
      5014       5015       5026       5025       5135       5136       5147       5146  
      5015       5016       5027       5026       5136       5137       5148       5147  
      5017       5018       5029       5028       5138       5139       5150       5149  
      5018       5019       5030       5029       5139       5140       5151       5150  
      5019       5020       5031       5030       5140       5141       5152       5151  
      5020       5021       5032       5031       5141       5142       5153       5152  
      5021       5022       5033       5032       5142       5143       5154       5153  
      5022       5023       5034       5033       5143       5144       5155       5154  
      5023       5024       5035       5034       5144       5145       5156       5155  
      5024       5025       5036       5035       5145       5146       5157       5156  
      5025       5026       5037       5036       5146       5147       5158       5157  
      5026       5027       5038       5037       5147       5148       5159       5158  
      5028       5029       5040       5039       5149       5150       5161       5160  
      5029       5030       5041       5040       5150       5151       5162       5161  
      5030       5031       5042       5041       5151       5152       5163       5162  
      5031       5032       5043       5042       5152       5153       5164       5163  
      5032       5033       5044       5043       5153       5154       5165       5164  
      5033       5034       5045       5044       5154       5155       5166       5165  
      5034       5035       5046       5045       5155       5156       5167       5166  
      5035       5036       5047       5046       5156       5157       5168       5167  
      5036       5037       5048       5047       5157       5158       5169       5168  
      5037       5038       5049       5048       5158       5159       5170       5169  
      5039       5040       5051       5050       5160       5161       5172       5171  
      5040       5041       5052       5051       5161       5162       5173       5172  
      5041       5042       5053       5052       5162       5163       5174       5173  
      5042       5043       5054       5053       5163       5164       5175       5174  
      5043       5044       5055       5054       5164       5165       5176       5175  
      5044       5045       5056       5055       5165       5166       5177       5176  
      5045       5046       5057       5056       5166       5167       5178       5177  
      5046       5047       5058       5057       5167       5168       5179       5178  
      5047       5048       5059       5058       5168       5169       5180       5179  
      5048       5049       5060       5059       5169       5170       5181       5180  
      5050       5051       5062       5061       5171       5172       5183       5182  
      5051       5052       5063       5062       5172       5173       5184       5183  
      5052       5053       5064       5063       5173       5174       5185       5184  
      5053       5054       5065       5064       5174       5175       5186       5185  
      5054       5055       5066       5065       5175       5176       5187       5186  
      5055       5056       5067       5066       5176       5177       5188       5187  
      5056       5057       5068       5067       5177       5178       5189       5188  
      5057       5058       5069       5068       5178       5179       5190       5189  
      5058       5059       5070       5069       5179       5180       5191       5190  
      5059       5060       5071       5070       5180       5181       5192       5191  
      5061       5062       5073       5072       5182       5183       5194       5193  
      5062       5063       5074       5073       5183       5184       5195       5194  
      5063       5064       5075       5074       5184       5185       5196       5195  
      5064       5065       5076       5075       5185       5186       5197       5196  
      5065       5066       5077       5076       5186       5187       5198       5197  
      5066       5067       5078       5077       5187       5188       5199       5198  
      5067       5068       5079       5078       5188       5189       5200       5199  
      5068       5069       5080       5079       5189       5190       5201       5200  
      5069       5070       5081       5080       5190       5191       5202       5201  
      5070       5071       5082       5081       5191       5192       5203       5202  
      5083       5084       5095       5094       5204       5205       5216       5215  
      5084       5085       5096       5095       5205       5206       5217       5216  
      5085       5086       5097       5096       5206       5207       5218       5217  
      5086       5087       5098       5097       5207       5208       5219       5218  
      5087       5088       5099       5098       5208       5209       5220       5219  
      5088       5089       5100       5099       5209       5210       5221       5220  
      5089       5090       5101       5100       5210       5211       5222       5221  
      5090       5091       5102       5101       5211       5212       5223       5222  
      5091       5092       5103       5102       5212       5213       5224       5223  
      5092       5093       5104       5103       5213       5214       5225       5224  
      5094       5095       5106       5105       5215       5216       5227       5226  
      5095       5096       5107       5106       5216       5217       5228       5227  
      5096       5097       5108       5107       5217       5218       5229       5228  
      5097       5098       5109       5108       5218       5219       5230       5229  
      5098       5099       5110       5109       5219       5220       5231       5230  
      5099       5100       5111       5110       5220       5221       5232       5231  
      5100       5101       5112       5111       5221       5222       5233       5232  
      5101       5102       5113       5112       5222       5223       5234       5233  
      5102       5103       5114       5113       5223       5224       5235       5234  
      5103       5104       5115       5114       5224       5225       5236       5235  
      5105       5106       5117       5116       5226       5227       5238       5237  
      5106       5107       5118       5117       5227       5228       5239       5238  
      5107       5108       5119       5118       5228       5229       5240       5239  
      5108       5109       5120       5119       5229       5230       5241       5240  
      5109       5110       5121       5120       5230       5231       5242       5241  
      5110       5111       5122       5121       5231       5232       5243       5242  
      5111       5112       5123       5122       5232       5233       5244       5243  
      5112       5113       5124       5123       5233       5234       5245       5244  
      5113       5114       5125       5124       5234       5235       5246       5245  
      5114       5115       5126       5125       5235       5236       5247       5246  
      5116       5117       5128       5127       5237       5238       5249       5248  
      5117       5118       5129       5128       5238       5239       5250       5249  
      5118       5119       5130       5129       5239       5240       5251       5250  
      5119       5120       5131       5130       5240       5241       5252       5251  
      5120       5121       5132       5131       5241       5242       5253       5252  
      5121       5122       5133       5132       5242       5243       5254       5253  
      5122       5123       5134       5133       5243       5244       5255       5254  
      5123       5124       5135       5134       5244       5245       5256       5255  
      5124       5125       5136       5135       5245       5246       5257       5256  
      5125       5126       5137       5136       5246       5247       5258       5257  
      5127       5128       5139       5138       5248       5249       5260       5259  
      5128       5129       5140       5139       5249       5250       5261       5260  
      5129       5130       5141       5140       5250       5251       5262       5261  
      5130       5131       5142       5141       5251       5252       5263       5262  
      5131       5132       5143       5142       5252       5253       5264       5263  
      5132       5133       5144       5143       5253       5254       5265       5264  
      5133       5134       5145       5144       5254       5255       5266       5265  
      5134       5135       5146       5145       5255       5256       5267       5266  
      5135       5136       5147       5146       5256       5257       5268       5267  
      5136       5137       5148       5147       5257       5258       5269       5268  
      5138       5139       5150       5149       5259       5260       5271       5270  
      5139       5140       5151       5150       5260       5261       5272       5271  
      5140       5141       5152       5151       5261       5262       5273       5272  
      5141       5142       5153       5152       5262       5263       5274       5273  
      5142       5143       5154       5153       5263       5264       5275       5274  
      5143       5144       5155       5154       5264       5265       5276       5275  
      5144       5145       5156       5155       5265       5266       5277       5276  
      5145       5146       5157       5156       5266       5267       5278       5277  
      5146       5147       5158       5157       5267       5268       5279       5278  
      5147       5148       5159       5158       5268       5269       5280       5279  
      5149       5150       5161       5160       5270       5271       5282       5281  
      5150       5151       5162       5161       5271       5272       5283       5282  
      5151       5152       5163       5162       5272       5273       5284       5283  
      5152       5153       5164       5163       5273       5274       5285       5284  
      5153       5154       5165       5164       5274       5275       5286       5285  
      5154       5155       5166       5165       5275       5276       5287       5286  
      5155       5156       5167       5166       5276       5277       5288       5287  
      5156       5157       5168       5167       5277       5278       5289       5288  
      5157       5158       5169       5168       5278       5279       5290       5289  
      5158       5159       5170       5169       5279       5280       5291       5290  
      5160       5161       5172       5171       5281       5282       5293       5292  
      5161       5162       5173       5172       5282       5283       5294       5293  
      5162       5163       5174       5173       5283       5284       5295       5294  
      5163       5164       5175       5174       5284       5285       5296       5295  
      5164       5165       5176       5175       5285       5286       5297       5296  
      5165       5166       5177       5176       5286       5287       5298       5297  
      5166       5167       5178       5177       5287       5288       5299       5298  
      5167       5168       5179       5178       5288       5289       5300       5299  
      5168       5169       5180       5179       5289       5290       5301       5300  
      5169       5170       5181       5180       5290       5291       5302       5301  
      5171       5172       5183       5182       5292       5293       5304       5303  
      5172       5173       5184       5183       5293       5294       5305       5304  
      5173       5174       5185       5184       5294       5295       5306       5305  
      5174       5175       5186       5185       5295       5296       5307       5306  
      5175       5176       5187       5186       5296       5297       5308       5307  
      5176       5177       5188       5187       5297       5298       5309       5308  
      5177       5178       5189       5188       5298       5299       5310       5309  
      5178       5179       5190       5189       5299       5300       5311       5310  
      5179       5180       5191       5190       5300       5301       5312       5311  
      5180       5181       5192       5191       5301       5302       5313       5312  
      5182       5183       5194       5193       5303       5304       5315       5314  
      5183       5184       5195       5194       5304       5305       5316       5315  
      5184       5185       5196       5195       5305       5306       5317       5316  
      5185       5186       5197       5196       5306       5307       5318       5317  
      5186       5187       5198       5197       5307       5308       5319       5318  
      5187       5188       5199       5198       5308       5309       5320       5319  
      5188       5189       5200       5199       5309       5310       5321       5320  
      5189       5190       5201       5200       5310       5311       5322       5321  
      5190       5191       5202       5201       5311       5312       5323       5322  
      5191       5192       5203       5202       5312       5313       5324       5323  
      5204       5205       5216       5215       5325       5326       5337       5336  
      5205       5206       5217       5216       5326       5327       5338       5337  
      5206       5207       5218       5217       5327       5328       5339       5338  
      5207       5208       5219       5218       5328       5329       5340       5339  
      5208       5209       5220       5219       5329       5330       5341       5340  
      5209       5210       5221       5220       5330       5331       5342       5341  
      5210       5211       5222       5221       5331       5332       5343       5342  
      5211       5212       5223       5222       5332       5333       5344       5343  
      5212       5213       5224       5223       5333       5334       5345       5344  
      5213       5214       5225       5224       5334       5335       5346       5345  
      5215       5216       5227       5226       5336       5337       5348       5347  
      5216       5217       5228       5227       5337       5338       5349       5348  
      5217       5218       5229       5228       5338       5339       5350       5349  
      5218       5219       5230       5229       5339       5340       5351       5350  
      5219       5220       5231       5230       5340       5341       5352       5351  
      5220       5221       5232       5231       5341       5342       5353       5352  
      5221       5222       5233       5232       5342       5343       5354       5353  
      5222       5223       5234       5233       5343       5344       5355       5354  
      5223       5224       5235       5234       5344       5345       5356       5355  
      5224       5225       5236       5235       5345       5346       5357       5356  
      5226       5227       5238       5237       5347       5348       5359       5358  
      5227       5228       5239       5238       5348       5349       5360       5359  
      5228       5229       5240       5239       5349       5350       5361       5360  
      5229       5230       5241       5240       5350       5351       5362       5361  
      5230       5231       5242       5241       5351       5352       5363       5362  
      5231       5232       5243       5242       5352       5353       5364       5363  
      5232       5233       5244       5243       5353       5354       5365       5364  
      5233       5234       5245       5244       5354       5355       5366       5365  
      5234       5235       5246       5245       5355       5356       5367       5366  
      5235       5236       5247       5246       5356       5357       5368       5367  
      5237       5238       5249       5248       5358       5359       5370       5369  
      5238       5239       5250       5249       5359       5360       5371       5370  
      5239       5240       5251       5250       5360       5361       5372       5371  
      5240       5241       5252       5251       5361       5362       5373       5372  
      5241       5242       5253       5252       5362       5363       5374       5373  
      5242       5243       5254       5253       5363       5364       5375       5374  
      5243       5244       5255       5254       5364       5365       5376       5375  
      5244       5245       5256       5255       5365       5366       5377       5376  
      5245       5246       5257       5256       5366       5367       5378       5377  
      5246       5247       5258       5257       5367       5368       5379       5378  
      5248       5249       5260       5259       5369       5370       5381       5380  
      5249       5250       5261       5260       5370       5371       5382       5381  
      5250       5251       5262       5261       5371       5372       5383       5382  
      5251       5252       5263       5262       5372       5373       5384       5383  
      5252       5253       5264       5263       5373       5374       5385       5384  
      5253       5254       5265       5264       5374       5375       5386       5385  
      5254       5255       5266       5265       5375       5376       5387       5386  
      5255       5256       5267       5266       5376       5377       5388       5387  
      5256       5257       5268       5267       5377       5378       5389       5388  
      5257       5258       5269       5268       5378       5379       5390       5389  
      5259       5260       5271       5270       5380       5381       5392       5391  
      5260       5261       5272       5271       5381       5382       5393       5392  
      5261       5262       5273       5272       5382       5383       5394       5393  
      5262       5263       5274       5273       5383       5384       5395       5394  
      5263       5264       5275       5274       5384       5385       5396       5395  
      5264       5265       5276       5275       5385       5386       5397       5396  
      5265       5266       5277       5276       5386       5387       5398       5397  
      5266       5267       5278       5277       5387       5388       5399       5398  
      5267       5268       5279       5278       5388       5389       5400       5399  
      5268       5269       5280       5279       5389       5390       5401       5400  
      5270       5271       5282       5281       5391       5392       5403       5402  
      5271       5272       5283       5282       5392       5393       5404       5403  
      5272       5273       5284       5283       5393       5394       5405       5404  
      5273       5274       5285       5284       5394       5395       5406       5405  
      5274       5275       5286       5285       5395       5396       5407       5406  
      5275       5276       5287       5286       5396       5397       5408       5407  
      5276       5277       5288       5287       5397       5398       5409       5408  
      5277       5278       5289       5288       5398       5399       5410       5409  
      5278       5279       5290       5289       5399       5400       5411       5410  
      5279       5280       5291       5290       5400       5401       5412       5411  
      5281       5282       5293       5292       5402       5403       5414       5413  
      5282       5283       5294       5293       5403       5404       5415       5414  
      5283       5284       5295       5294       5404       5405       5416       5415  
      5284       5285       5296       5295       5405       5406       5417       5416  
      5285       5286       5297       5296       5406       5407       5418       5417  
      5286       5287       5298       5297       5407       5408       5419       5418  
      5287       5288       5299       5298       5408       5409       5420       5419  
      5288       5289       5300       5299       5409       5410       5421       5420  
      5289       5290       5301       5300       5410       5411       5422       5421  
      5290       5291       5302       5301       5411       5412       5423       5422  
      5292       5293       5304       5303       5413       5414       5425       5424  
      5293       5294       5305       5304       5414       5415       5426       5425  
      5294       5295       5306       5305       5415       5416       5427       5426  
      5295       5296       5307       5306       5416       5417       5428       5427  
      5296       5297       5308       5307       5417       5418       5429       5428  
      5297       5298       5309       5308       5418       5419       5430       5429  
      5298       5299       5310       5309       5419       5420       5431       5430  
      5299       5300       5311       5310       5420       5421       5432       5431  
      5300       5301       5312       5311       5421       5422       5433       5432  
      5301       5302       5313       5312       5422       5423       5434       5433  
      5303       5304       5315       5314       5424       5425       5436       5435  
      5304       5305       5316       5315       5425       5426       5437       5436  
      5305       5306       5317       5316       5426       5427       5438       5437  
      5306       5307       5318       5317       5427       5428       5439       5438  
      5307       5308       5319       5318       5428       5429       5440       5439  
      5308       5309       5320       5319       5429       5430       5441       5440  
      5309       5310       5321       5320       5430       5431       5442       5441  
      5310       5311       5322       5321       5431       5432       5443       5442  
      5311       5312       5323       5322       5432       5433       5444       5443  
      5312       5313       5324       5323       5433       5434       5445       5444  
      5325       5326       5337       5336       5446       5447       5458       5457  
      5326       5327       5338       5337       5447       5448       5459       5458  
      5327       5328       5339       5338       5448       5449       5460       5459  
      5328       5329       5340       5339       5449       5450       5461       5460  
      5329       5330       5341       5340       5450       5451       5462       5461  
      5330       5331       5342       5341       5451       5452       5463       5462  
      5331       5332       5343       5342       5452       5453       5464       5463  
      5332       5333       5344       5343       5453       5454       5465       5464  
      5333       5334       5345       5344       5454       5455       5466       5465  
      5334       5335       5346       5345       5455       5456       5467       5466  
      5336       5337       5348       5347       5457       5458       5469       5468  
      5337       5338       5349       5348       5458       5459       5470       5469  
      5338       5339       5350       5349       5459       5460       5471       5470  
      5339       5340       5351       5350       5460       5461       5472       5471  
      5340       5341       5352       5351       5461       5462       5473       5472  
      5341       5342       5353       5352       5462       5463       5474       5473  
      5342       5343       5354       5353       5463       5464       5475       5474  
      5343       5344       5355       5354       5464       5465       5476       5475  
      5344       5345       5356       5355       5465       5466       5477       5476  
      5345       5346       5357       5356       5466       5467       5478       5477  
      5347       5348       5359       5358       5468       5469       5480       5479  
      5348       5349       5360       5359       5469       5470       5481       5480  
      5349       5350       5361       5360       5470       5471       5482       5481  
      5350       5351       5362       5361       5471       5472       5483       5482  
      5351       5352       5363       5362       5472       5473       5484       5483  
      5352       5353       5364       5363       5473       5474       5485       5484  
      5353       5354       5365       5364       5474       5475       5486       5485  
      5354       5355       5366       5365       5475       5476       5487       5486  
      5355       5356       5367       5366       5476       5477       5488       5487  
      5356       5357       5368       5367       5477       5478       5489       5488  
      5358       5359       5370       5369       5479       5480       5491       5490  
      5359       5360       5371       5370       5480       5481       5492       5491  
      5360       5361       5372       5371       5481       5482       5493       5492  
      5361       5362       5373       5372       5482       5483       5494       5493  
      5362       5363       5374       5373       5483       5484       5495       5494  
      5363       5364       5375       5374       5484       5485       5496       5495  
      5364       5365       5376       5375       5485       5486       5497       5496  
      5365       5366       5377       5376       5486       5487       5498       5497  
      5366       5367       5378       5377       5487       5488       5499       5498  
      5367       5368       5379       5378       5488       5489       5500       5499  
      5369       5370       5381       5380       5490       5491       5502       5501  
      5370       5371       5382       5381       5491       5492       5503       5502  
      5371       5372       5383       5382       5492       5493       5504       5503  
      5372       5373       5384       5383       5493       5494       5505       5504  
      5373       5374       5385       5384       5494       5495       5506       5505  
      5374       5375       5386       5385       5495       5496       5507       5506  
      5375       5376       5387       5386       5496       5497       5508       5507  
      5376       5377       5388       5387       5497       5498       5509       5508  
      5377       5378       5389       5388       5498       5499       5510       5509  
      5378       5379       5390       5389       5499       5500       5511       5510  
      5380       5381       5392       5391       5501       5502       5513       5512  
      5381       5382       5393       5392       5502       5503       5514       5513  
      5382       5383       5394       5393       5503       5504       5515       5514  
      5383       5384       5395       5394       5504       5505       5516       5515  
      5384       5385       5396       5395       5505       5506       5517       5516  
      5385       5386       5397       5396       5506       5507       5518       5517  
      5386       5387       5398       5397       5507       5508       5519       5518  
      5387       5388       5399       5398       5508       5509       5520       5519  
      5388       5389       5400       5399       5509       5510       5521       5520  
      5389       5390       5401       5400       5510       5511       5522       5521  
      5391       5392       5403       5402       5512       5513       5524       5523  
      5392       5393       5404       5403       5513       5514       5525       5524  
      5393       5394       5405       5404       5514       5515       5526       5525  
      5394       5395       5406       5405       5515       5516       5527       5526  
      5395       5396       5407       5406       5516       5517       5528       5527  
      5396       5397       5408       5407       5517       5518       5529       5528  
      5397       5398       5409       5408       5518       5519       5530       5529  
      5398       5399       5410       5409       5519       5520       5531       5530  
      5399       5400       5411       5410       5520       5521       5532       5531  
      5400       5401       5412       5411       5521       5522       5533       5532  
      5402       5403       5414       5413       5523       5524       5535       5534  
      5403       5404       5415       5414       5524       5525       5536       5535  
      5404       5405       5416       5415       5525       5526       5537       5536  
      5405       5406       5417       5416       5526       5527       5538       5537  
      5406       5407       5418       5417       5527       5528       5539       5538  
      5407       5408       5419       5418       5528       5529       5540       5539  
      5408       5409       5420       5419       5529       5530       5541       5540  
      5409       5410       5421       5420       5530       5531       5542       5541  
      5410       5411       5422       5421       5531       5532       5543       5542  
      5411       5412       5423       5422       5532       5533       5544       5543  
      5413       5414       5425       5424       5534       5535       5546       5545  
      5414       5415       5426       5425       5535       5536       5547       5546  
      5415       5416       5427       5426       5536       5537       5548       5547  
      5416       5417       5428       5427       5537       5538       5549       5548  
      5417       5418       5429       5428       5538       5539       5550       5549  
      5418       5419       5430       5429       5539       5540       5551       5550  
      5419       5420       5431       5430       5540       5541       5552       5551  
      5420       5421       5432       5431       5541       5542       5553       5552  
      5421       5422       5433       5432       5542       5543       5554       5553  
      5422       5423       5434       5433       5543       5544       5555       5554  
      5424       5425       5436       5435       5545       5546       5557       5556  
      5425       5426       5437       5436       5546       5547       5558       5557  
      5426       5427       5438       5437       5547       5548       5559       5558  
      5427       5428       5439       5438       5548       5549       5560       5559  
      5428       5429       5440       5439       5549       5550       5561       5560  
      5429       5430       5441       5440       5550       5551       5562       5561  
      5430       5431       5442       5441       5551       5552       5563       5562  
      5431       5432       5443       5442       5552       5553       5564       5563  
      5432       5433       5444       5443       5553       5554       5565       5564  
      5433       5434       5445       5444       5554       5555       5566       5565  
      5446       5447       5458       5457       5567       5568       5579       5578  
      5447       5448       5459       5458       5568       5569       5580       5579  
      5448       5449       5460       5459       5569       5570       5581       5580  
      5449       5450       5461       5460       5570       5571       5582       5581  
      5450       5451       5462       5461       5571       5572       5583       5582  
      5451       5452       5463       5462       5572       5573       5584       5583  
      5452       5453       5464       5463       5573       5574       5585       5584  
      5453       5454       5465       5464       5574       5575       5586       5585  
      5454       5455       5466       5465       5575       5576       5587       5586  
      5455       5456       5467       5466       5576       5577       5588       5587  
      5457       5458       5469       5468       5578       5579       5590       5589  
      5458       5459       5470       5469       5579       5580       5591       5590  
      5459       5460       5471       5470       5580       5581       5592       5591  
      5460       5461       5472       5471       5581       5582       5593       5592  
      5461       5462       5473       5472       5582       5583       5594       5593  
      5462       5463       5474       5473       5583       5584       5595       5594  
      5463       5464       5475       5474       5584       5585       5596       5595  
      5464       5465       5476       5475       5585       5586       5597       5596  
      5465       5466       5477       5476       5586       5587       5598       5597  
      5466       5467       5478       5477       5587       5588       5599       5598  
      5468       5469       5480       5479       5589       5590       5601       5600  
      5469       5470       5481       5480       5590       5591       5602       5601  
      5470       5471       5482       5481       5591       5592       5603       5602  
      5471       5472       5483       5482       5592       5593       5604       5603  
      5472       5473       5484       5483       5593       5594       5605       5604  
      5473       5474       5485       5484       5594       5595       5606       5605  
      5474       5475       5486       5485       5595       5596       5607       5606  
      5475       5476       5487       5486       5596       5597       5608       5607  
      5476       5477       5488       5487       5597       5598       5609       5608  
      5477       5478       5489       5488       5598       5599       5610       5609  
      5479       5480       5491       5490       5600       5601       5612       5611  
      5480       5481       5492       5491       5601       5602       5613       5612  
      5481       5482       5493       5492       5602       5603       5614       5613  
      5482       5483       5494       5493       5603       5604       5615       5614  
      5483       5484       5495       5494       5604       5605       5616       5615  
      5484       5485       5496       5495       5605       5606       5617       5616  
      5485       5486       5497       5496       5606       5607       5618       5617  
      5486       5487       5498       5497       5607       5608       5619       5618  
      5487       5488       5499       5498       5608       5609       5620       5619  
      5488       5489       5500       5499       5609       5610       5621       5620  
      5490       5491       5502       5501       5611       5612       5623       5622  
      5491       5492       5503       5502       5612       5613       5624       5623  
      5492       5493       5504       5503       5613       5614       5625       5624  
      5493       5494       5505       5504       5614       5615       5626       5625  
      5494       5495       5506       5505       5615       5616       5627       5626  
      5495       5496       5507       5506       5616       5617       5628       5627  
      5496       5497       5508       5507       5617       5618       5629       5628  
      5497       5498       5509       5508       5618       5619       5630       5629  
      5498       5499       5510       5509       5619       5620       5631       5630  
      5499       5500       5511       5510       5620       5621       5632       5631  
      5501       5502       5513       5512       5622       5623       5634       5633  
      5502       5503       5514       5513       5623       5624       5635       5634  
      5503       5504       5515       5514       5624       5625       5636       5635  
      5504       5505       5516       5515       5625       5626       5637       5636  
      5505       5506       5517       5516       5626       5627       5638       5637  
      5506       5507       5518       5517       5627       5628       5639       5638  
      5507       5508       5519       5518       5628       5629       5640       5639  
      5508       5509       5520       5519       5629       5630       5641       5640  
      5509       5510       5521       5520       5630       5631       5642       5641  
      5510       5511       5522       5521       5631       5632       5643       5642  
      5512       5513       5524       5523       5633       5634       5645       5644  
      5513       5514       5525       5524       5634       5635       5646       5645  
      5514       5515       5526       5525       5635       5636       5647       5646  
      5515       5516       5527       5526       5636       5637       5648       5647  
      5516       5517       5528       5527       5637       5638       5649       5648  
      5517       5518       5529       5528       5638       5639       5650       5649  
      5518       5519       5530       5529       5639       5640       5651       5650  
      5519       5520       5531       5530       5640       5641       5652       5651  
      5520       5521       5532       5531       5641       5642       5653       5652  
      5521       5522       5533       5532       5642       5643       5654       5653  
      5523       5524       5535       5534       5644       5645       5656       5655  
      5524       5525       5536       5535       5645       5646       5657       5656  
      5525       5526       5537       5536       5646       5647       5658       5657  
      5526       5527       5538       5537       5647       5648       5659       5658  
      5527       5528       5539       5538       5648       5649       5660       5659  
      5528       5529       5540       5539       5649       5650       5661       5660  
      5529       5530       5541       5540       5650       5651       5662       5661  
      5530       5531       5542       5541       5651       5652       5663       5662  
      5531       5532       5543       5542       5652       5653       5664       5663  
      5532       5533       5544       5543       5653       5654       5665       5664  
      5534       5535       5546       5545       5655       5656       5667       5666  
      5535       5536       5547       5546       5656       5657       5668       5667  
      5536       5537       5548       5547       5657       5658       5669       5668  
      5537       5538       5549       5548       5658       5659       5670       5669  
      5538       5539       5550       5549       5659       5660       5671       5670  
      5539       5540       5551       5550       5660       5661       5672       5671  
      5540       5541       5552       5551       5661       5662       5673       5672  
      5541       5542       5553       5552       5662       5663       5674       5673  
      5542       5543       5554       5553       5663       5664       5675       5674  
      5543       5544       5555       5554       5664       5665       5676       5675  
      5545       5546       5557       5556       5666       5667       5678       5677  
      5546       5547       5558       5557       5667       5668       5679       5678  
      5547       5548       5559       5558       5668       5669       5680       5679  
      5548       5549       5560       5559       5669       5670       5681       5680  
      5549       5550       5561       5560       5670       5671       5682       5681  
      5550       5551       5562       5561       5671       5672       5683       5682  
      5551       5552       5563       5562       5672       5673       5684       5683  
      5552       5553       5564       5563       5673       5674       5685       5684  
      5553       5554       5565       5564       5674       5675       5686       5685  
      5554       5555       5566       5565       5675       5676       5687       5686  
      5567       5568       5579       5578       5688       5689       5700       5699  
      5568       5569       5580       5579       5689       5690       5701       5700  
      5569       5570       5581       5580       5690       5691       5702       5701  
      5570       5571       5582       5581       5691       5692       5703       5702  
      5571       5572       5583       5582       5692       5693       5704       5703  
      5572       5573       5584       5583       5693       5694       5705       5704  
      5573       5574       5585       5584       5694       5695       5706       5705  
      5574       5575       5586       5585       5695       5696       5707       5706  
      5575       5576       5587       5586       5696       5697       5708       5707  
      5576       5577       5588       5587       5697       5698       5709       5708  
      5578       5579       5590       5589       5699       5700       5711       5710  
      5579       5580       5591       5590       5700       5701       5712       5711  
      5580       5581       5592       5591       5701       5702       5713       5712  
      5581       5582       5593       5592       5702       5703       5714       5713  
      5582       5583       5594       5593       5703       5704       5715       5714  
      5583       5584       5595       5594       5704       5705       5716       5715  
      5584       5585       5596       5595       5705       5706       5717       5716  
      5585       5586       5597       5596       5706       5707       5718       5717  
      5586       5587       5598       5597       5707       5708       5719       5718  
      5587       5588       5599       5598       5708       5709       5720       5719  
      5589       5590       5601       5600       5710       5711       5722       5721  
      5590       5591       5602       5601       5711       5712       5723       5722  
      5591       5592       5603       5602       5712       5713       5724       5723  
      5592       5593       5604       5603       5713       5714       5725       5724  
      5593       5594       5605       5604       5714       5715       5726       5725  
      5594       5595       5606       5605       5715       5716       5727       5726  
      5595       5596       5607       5606       5716       5717       5728       5727  
      5596       5597       5608       5607       5717       5718       5729       5728  
      5597       5598       5609       5608       5718       5719       5730       5729  
      5598       5599       5610       5609       5719       5720       5731       5730  
      5600       5601       5612       5611       5721       5722       5733       5732  
      5601       5602       5613       5612       5722       5723       5734       5733  
      5602       5603       5614       5613       5723       5724       5735       5734  
      5603       5604       5615       5614       5724       5725       5736       5735  
      5604       5605       5616       5615       5725       5726       5737       5736  
      5605       5606       5617       5616       5726       5727       5738       5737  
      5606       5607       5618       5617       5727       5728       5739       5738  
      5607       5608       5619       5618       5728       5729       5740       5739  
      5608       5609       5620       5619       5729       5730       5741       5740  
      5609       5610       5621       5620       5730       5731       5742       5741  
      5611       5612       5623       5622       5732       5733       5744       5743  
      5612       5613       5624       5623       5733       5734       5745       5744  
      5613       5614       5625       5624       5734       5735       5746       5745  
      5614       5615       5626       5625       5735       5736       5747       5746  
      5615       5616       5627       5626       5736       5737       5748       5747  
      5616       5617       5628       5627       5737       5738       5749       5748  
      5617       5618       5629       5628       5738       5739       5750       5749  
      5618       5619       5630       5629       5739       5740       5751       5750  
      5619       5620       5631       5630       5740       5741       5752       5751  
      5620       5621       5632       5631       5741       5742       5753       5752  
      5622       5623       5634       5633       5743       5744       5755       5754  
      5623       5624       5635       5634       5744       5745       5756       5755  
      5624       5625       5636       5635       5745       5746       5757       5756  
      5625       5626       5637       5636       5746       5747       5758       5757  
      5626       5627       5638       5637       5747       5748       5759       5758  
      5627       5628       5639       5638       5748       5749       5760       5759  
      5628       5629       5640       5639       5749       5750       5761       5760  
      5629       5630       5641       5640       5750       5751       5762       5761  
      5630       5631       5642       5641       5751       5752       5763       5762  
      5631       5632       5643       5642       5752       5753       5764       5763  
      5633       5634       5645       5644       5754       5755       5766       5765  
      5634       5635       5646       5645       5755       5756       5767       5766  
      5635       5636       5647       5646       5756       5757       5768       5767  
      5636       5637       5648       5647       5757       5758       5769       5768  
      5637       5638       5649       5648       5758       5759       5770       5769  
      5638       5639       5650       5649       5759       5760       5771       5770  
      5639       5640       5651       5650       5760       5761       5772       5771  
      5640       5641       5652       5651       5761       5762       5773       5772  
      5641       5642       5653       5652       5762       5763       5774       5773  
      5642       5643       5654       5653       5763       5764       5775       5774  
      5644       5645       5656       5655       5765       5766       5777       5776  
      5645       5646       5657       5656       5766       5767       5778       5777  
      5646       5647       5658       5657       5767       5768       5779       5778  
      5647       5648       5659       5658       5768       5769       5780       5779  
      5648       5649       5660       5659       5769       5770       5781       5780  
      5649       5650       5661       5660       5770       5771       5782       5781  
      5650       5651       5662       5661       5771       5772       5783       5782  
      5651       5652       5663       5662       5772       5773       5784       5783  
      5652       5653       5664       5663       5773       5774       5785       5784  
      5653       5654       5665       5664       5774       5775       5786       5785  
      5655       5656       5667       5666       5776       5777       5788       5787  
      5656       5657       5668       5667       5777       5778       5789       5788  
      5657       5658       5669       5668       5778       5779       5790       5789  
      5658       5659       5670       5669       5779       5780       5791       5790  
      5659       5660       5671       5670       5780       5781       5792       5791  
      5660       5661       5672       5671       5781       5782       5793       5792  
      5661       5662       5673       5672       5782       5783       5794       5793  
      5662       5663       5674       5673       5783       5784       5795       5794  
      5663       5664       5675       5674       5784       5785       5796       5795  
      5664       5665       5676       5675       5785       5786       5797       5796  
      5666       5667       5678       5677       5787       5788       5799       5798  
      5667       5668       5679       5678       5788       5789       5800       5799  
      5668       5669       5680       5679       5789       5790       5801       5800  
      5669       5670       5681       5680       5790       5791       5802       5801  
      5670       5671       5682       5681       5791       5792       5803       5802  
      5671       5672       5683       5682       5792       5793       5804       5803  
      5672       5673       5684       5683       5793       5794       5805       5804  
      5673       5674       5685       5684       5794       5795       5806       5805  
      5674       5675       5686       5685       5795       5796       5807       5806  
      5675       5676       5687       5686       5796       5797       5808       5807  
      5688       5689       5700       5699       5809       5810       5821       5820  
      5689       5690       5701       5700       5810       5811       5822       5821  
      5690       5691       5702       5701       5811       5812       5823       5822  
      5691       5692       5703       5702       5812       5813       5824       5823  
      5692       5693       5704       5703       5813       5814       5825       5824  
      5693       5694       5705       5704       5814       5815       5826       5825  
      5694       5695       5706       5705       5815       5816       5827       5826  
      5695       5696       5707       5706       5816       5817       5828       5827  
      5696       5697       5708       5707       5817       5818       5829       5828  
      5697       5698       5709       5708       5818       5819       5830       5829  
      5699       5700       5711       5710       5820       5821       5832       5831  
      5700       5701       5712       5711       5821       5822       5833       5832  
      5701       5702       5713       5712       5822       5823       5834       5833  
      5702       5703       5714       5713       5823       5824       5835       5834  
      5703       5704       5715       5714       5824       5825       5836       5835  
      5704       5705       5716       5715       5825       5826       5837       5836  
      5705       5706       5717       5716       5826       5827       5838       5837  
      5706       5707       5718       5717       5827       5828       5839       5838  
      5707       5708       5719       5718       5828       5829       5840       5839  
      5708       5709       5720       5719       5829       5830       5841       5840  
      5710       5711       5722       5721       5831       5832       5843       5842  
      5711       5712       5723       5722       5832       5833       5844       5843  
      5712       5713       5724       5723       5833       5834       5845       5844  
      5713       5714       5725       5724       5834       5835       5846       5845  
      5714       5715       5726       5725       5835       5836       5847       5846  
      5715       5716       5727       5726       5836       5837       5848       5847  
      5716       5717       5728       5727       5837       5838       5849       5848  
      5717       5718       5729       5728       5838       5839       5850       5849  
      5718       5719       5730       5729       5839       5840       5851       5850  
      5719       5720       5731       5730       5840       5841       5852       5851  
      5721       5722       5733       5732       5842       5843       5854       5853  
      5722       5723       5734       5733       5843       5844       5855       5854  
      5723       5724       5735       5734       5844       5845       5856       5855  
      5724       5725       5736       5735       5845       5846       5857       5856  
      5725       5726       5737       5736       5846       5847       5858       5857  
      5726       5727       5738       5737       5847       5848       5859       5858  
      5727       5728       5739       5738       5848       5849       5860       5859  
      5728       5729       5740       5739       5849       5850       5861       5860  
      5729       5730       5741       5740       5850       5851       5862       5861  
      5730       5731       5742       5741       5851       5852       5863       5862  
      5732       5733       5744       5743       5853       5854       5865       5864  
      5733       5734       5745       5744       5854       5855       5866       5865  
      5734       5735       5746       5745       5855       5856       5867       5866  
      5735       5736       5747       5746       5856       5857       5868       5867  
      5736       5737       5748       5747       5857       5858       5869       5868  
      5737       5738       5749       5748       5858       5859       5870       5869  
      5738       5739       5750       5749       5859       5860       5871       5870  
      5739       5740       5751       5750       5860       5861       5872       5871  
      5740       5741       5752       5751       5861       5862       5873       5872  
      5741       5742       5753       5752       5862       5863       5874       5873  
      5743       5744       5755       5754       5864       5865       5876       5875  
      5744       5745       5756       5755       5865       5866       5877       5876  
      5745       5746       5757       5756       5866       5867       5878       5877  
      5746       5747       5758       5757       5867       5868       5879       5878  
      5747       5748       5759       5758       5868       5869       5880       5879  
      5748       5749       5760       5759       5869       5870       5881       5880  
      5749       5750       5761       5760       5870       5871       5882       5881  
      5750       5751       5762       5761       5871       5872       5883       5882  
      5751       5752       5763       5762       5872       5873       5884       5883  
      5752       5753       5764       5763       5873       5874       5885       5884  
      5754       5755       5766       5765       5875       5876       5887       5886  
      5755       5756       5767       5766       5876       5877       5888       5887  
      5756       5757       5768       5767       5877       5878       5889       5888  
      5757       5758       5769       5768       5878       5879       5890       5889  
      5758       5759       5770       5769       5879       5880       5891       5890  
      5759       5760       5771       5770       5880       5881       5892       5891  
      5760       5761       5772       5771       5881       5882       5893       5892  
      5761       5762       5773       5772       5882       5883       5894       5893  
      5762       5763       5774       5773       5883       5884       5895       5894  
      5763       5764       5775       5774       5884       5885       5896       5895  
      5765       5766       5777       5776       5886       5887       5898       5897  
      5766       5767       5778       5777       5887       5888       5899       5898  
      5767       5768       5779       5778       5888       5889       5900       5899  
      5768       5769       5780       5779       5889       5890       5901       5900  
      5769       5770       5781       5780       5890       5891       5902       5901  
      5770       5771       5782       5781       5891       5892       5903       5902  
      5771       5772       5783       5782       5892       5893       5904       5903  
      5772       5773       5784       5783       5893       5894       5905       5904  
      5773       5774       5785       5784       5894       5895       5906       5905  
      5774       5775       5786       5785       5895       5896       5907       5906  
      5776       5777       5788       5787       5897       5898       5909       5908  
      5777       5778       5789       5788       5898       5899       5910       5909  
      5778       5779       5790       5789       5899       5900       5911       5910  
      5779       5780       5791       5790       5900       5901       5912       5911  
      5780       5781       5792       5791       5901       5902       5913       5912  
      5781       5782       5793       5792       5902       5903       5914       5913  
      5782       5783       5794       5793       5903       5904       5915       5914  
      5783       5784       5795       5794       5904       5905       5916       5915  
      5784       5785       5796       5795       5905       5906       5917       5916  
      5785       5786       5797       5796       5906       5907       5918       5917  
      5787       5788       5799       5798       5908       5909       5920       5919  
      5788       5789       5800       5799       5909       5910       5921       5920  
      5789       5790       5801       5800       5910       5911       5922       5921  
      5790       5791       5802       5801       5911       5912       5923       5922  
      5791       5792       5803       5802       5912       5913       5924       5923  
      5792       5793       5804       5803       5913       5914       5925       5924  
      5793       5794       5805       5804       5914       5915       5926       5925  
      5794       5795       5806       5805       5915       5916       5927       5926  
      5795       5796       5807       5806       5916       5917       5928       5927  
      5796       5797       5808       5807       5917       5918       5929       5928  
      5809       5810       5821       5820       5930       5931       5942       5941  
      5810       5811       5822       5821       5931       5932       5943       5942  
      5811       5812       5823       5822       5932       5933       5944       5943  
      5812       5813       5824       5823       5933       5934       5945       5944  
      5813       5814       5825       5824       5934       5935       5946       5945  
      5814       5815       5826       5825       5935       5936       5947       5946  
      5815       5816       5827       5826       5936       5937       5948       5947  
      5816       5817       5828       5827       5937       5938       5949       5948  
      5817       5818       5829       5828       5938       5939       5950       5949  
      5818       5819       5830       5829       5939       5940       5951       5950  
      5820       5821       5832       5831       5941       5942       5953       5952  
      5821       5822       5833       5832       5942       5943       5954       5953  
      5822       5823       5834       5833       5943       5944       5955       5954  
      5823       5824       5835       5834       5944       5945       5956       5955  
      5824       5825       5836       5835       5945       5946       5957       5956  
      5825       5826       5837       5836       5946       5947       5958       5957  
      5826       5827       5838       5837       5947       5948       5959       5958  
      5827       5828       5839       5838       5948       5949       5960       5959  
      5828       5829       5840       5839       5949       5950       5961       5960  
      5829       5830       5841       5840       5950       5951       5962       5961  
      5831       5832       5843       5842       5952       5953       5964       5963  
      5832       5833       5844       5843       5953       5954       5965       5964  
      5833       5834       5845       5844       5954       5955       5966       5965  
      5834       5835       5846       5845       5955       5956       5967       5966  
      5835       5836       5847       5846       5956       5957       5968       5967  
      5836       5837       5848       5847       5957       5958       5969       5968  
      5837       5838       5849       5848       5958       5959       5970       5969  
      5838       5839       5850       5849       5959       5960       5971       5970  
      5839       5840       5851       5850       5960       5961       5972       5971  
      5840       5841       5852       5851       5961       5962       5973       5972  
      5842       5843       5854       5853       5963       5964       5975       5974  
      5843       5844       5855       5854       5964       5965       5976       5975  
      5844       5845       5856       5855       5965       5966       5977       5976  
      5845       5846       5857       5856       5966       5967       5978       5977  
      5846       5847       5858       5857       5967       5968       5979       5978  
      5847       5848       5859       5858       5968       5969       5980       5979  
      5848       5849       5860       5859       5969       5970       5981       5980  
      5849       5850       5861       5860       5970       5971       5982       5981  
      5850       5851       5862       5861       5971       5972       5983       5982  
      5851       5852       5863       5862       5972       5973       5984       5983  
      5853       5854       5865       5864       5974       5975       5986       5985  
      5854       5855       5866       5865       5975       5976       5987       5986  
      5855       5856       5867       5866       5976       5977       5988       5987  
      5856       5857       5868       5867       5977       5978       5989       5988  
      5857       5858       5869       5868       5978       5979       5990       5989  
      5858       5859       5870       5869       5979       5980       5991       5990  
      5859       5860       5871       5870       5980       5981       5992       5991  
      5860       5861       5872       5871       5981       5982       5993       5992  
      5861       5862       5873       5872       5982       5983       5994       5993  
      5862       5863       5874       5873       5983       5984       5995       5994  
      5864       5865       5876       5875       5985       5986       5997       5996  
      5865       5866       5877       5876       5986       5987       5998       5997  
      5866       5867       5878       5877       5987       5988       5999       5998  
      5867       5868       5879       5878       5988       5989       6000       5999  
      5868       5869       5880       5879       5989       5990       6001       6000  
      5869       5870       5881       5880       5990       5991       6002       6001  
      5870       5871       5882       5881       5991       5992       6003       6002  
      5871       5872       5883       5882       5992       5993       6004       6003  
      5872       5873       5884       5883       5993       5994       6005       6004  
      5873       5874       5885       5884       5994       5995       6006       6005  
      5875       5876       5887       5886       5996       5997       6008       6007  
      5876       5877       5888       5887       5997       5998       6009       6008  
      5877       5878       5889       5888       5998       5999       6010       6009  
      5878       5879       5890       5889       5999       6000       6011       6010  
      5879       5880       5891       5890       6000       6001       6012       6011  
      5880       5881       5892       5891       6001       6002       6013       6012  
      5881       5882       5893       5892       6002       6003       6014       6013  
      5882       5883       5894       5893       6003       6004       6015       6014  
      5883       5884       5895       5894       6004       6005       6016       6015  
      5884       5885       5896       5895       6005       6006       6017       6016  
      5886       5887       5898       5897       6007       6008       6019       6018  
      5887       5888       5899       5898       6008       6009       6020       6019  
      5888       5889       5900       5899       6009       6010       6021       6020  
      5889       5890       5901       5900       6010       6011       6022       6021  
      5890       5891       5902       5901       6011       6012       6023       6022  
      5891       5892       5903       5902       6012       6013       6024       6023  
      5892       5893       5904       5903       6013       6014       6025       6024  
      5893       5894       5905       5904       6014       6015       6026       6025  
      5894       5895       5906       5905       6015       6016       6027       6026  
      5895       5896       5907       5906       6016       6017       6028       6027  
      5897       5898       5909       5908       6018       6019       6030       6029  
      5898       5899       5910       5909       6019       6020       6031       6030  
      5899       5900       5911       5910       6020       6021       6032       6031  
      5900       5901       5912       5911       6021       6022       6033       6032  
      5901       5902       5913       5912       6022       6023       6034       6033  
      5902       5903       5914       5913       6023       6024       6035       6034  
      5903       5904       5915       5914       6024       6025       6036       6035  
      5904       5905       5916       5915       6025       6026       6037       6036  
      5905       5906       5917       5916       6026       6027       6038       6037  
      5906       5907       5918       5917       6027       6028       6039       6038  
      5908       5909       5920       5919       6029       6030       6041       6040  
      5909       5910       5921       5920       6030       6031       6042       6041  
      5910       5911       5922       5921       6031       6032       6043       6042  
      5911       5912       5923       5922       6032       6033       6044       6043  
      5912       5913       5924       5923       6033       6034       6045       6044  
      5913       5914       5925       5924       6034       6035       6046       6045  
      5914       5915       5926       5925       6035       6036       6047       6046  
      5915       5916       5927       5926       6036       6037       6048       6047  
      5916       5917       5928       5927       6037       6038       6049       6048  
      5917       5918       5929       5928       6038       6039       6050       6049  
      5930       5931       5942       5941       6051       6052       6063       6062  
      5931       5932       5943       5942       6052       6053       6064       6063  
      5932       5933       5944       5943       6053       6054       6065       6064  
      5933       5934       5945       5944       6054       6055       6066       6065  
      5934       5935       5946       5945       6055       6056       6067       6066  
      5935       5936       5947       5946       6056       6057       6068       6067  
      5936       5937       5948       5947       6057       6058       6069       6068  
      5937       5938       5949       5948       6058       6059       6070       6069  
      5938       5939       5950       5949       6059       6060       6071       6070  
      5939       5940       5951       5950       6060       6061       6072       6071  
      5941       5942       5953       5952       6062       6063       6074       6073  
      5942       5943       5954       5953       6063       6064       6075       6074  
      5943       5944       5955       5954       6064       6065       6076       6075  
      5944       5945       5956       5955       6065       6066       6077       6076  
      5945       5946       5957       5956       6066       6067       6078       6077  
      5946       5947       5958       5957       6067       6068       6079       6078  
      5947       5948       5959       5958       6068       6069       6080       6079  
      5948       5949       5960       5959       6069       6070       6081       6080  
      5949       5950       5961       5960       6070       6071       6082       6081  
      5950       5951       5962       5961       6071       6072       6083       6082  
      5952       5953       5964       5963       6073       6074       6085       6084  
      5953       5954       5965       5964       6074       6075       6086       6085  
      5954       5955       5966       5965       6075       6076       6087       6086  
      5955       5956       5967       5966       6076       6077       6088       6087  
      5956       5957       5968       5967       6077       6078       6089       6088  
      5957       5958       5969       5968       6078       6079       6090       6089  
      5958       5959       5970       5969       6079       6080       6091       6090  
      5959       5960       5971       5970       6080       6081       6092       6091  
      5960       5961       5972       5971       6081       6082       6093       6092  
      5961       5962       5973       5972       6082       6083       6094       6093  
      5963       5964       5975       5974       6084       6085       6096       6095  
      5964       5965       5976       5975       6085       6086       6097       6096  
      5965       5966       5977       5976       6086       6087       6098       6097  
      5966       5967       5978       5977       6087       6088       6099       6098  
      5967       5968       5979       5978       6088       6089       6100       6099  
      5968       5969       5980       5979       6089       6090       6101       6100  
      5969       5970       5981       5980       6090       6091       6102       6101  
      5970       5971       5982       5981       6091       6092       6103       6102  
      5971       5972       5983       5982       6092       6093       6104       6103  
      5972       5973       5984       5983       6093       6094       6105       6104  
      5974       5975       5986       5985       6095       6096       6107       6106  
      5975       5976       5987       5986       6096       6097       6108       6107  
      5976       5977       5988       5987       6097       6098       6109       6108  
      5977       5978       5989       5988       6098       6099       6110       6109  
      5978       5979       5990       5989       6099       6100       6111       6110  
      5979       5980       5991       5990       6100       6101       6112       6111  
      5980       5981       5992       5991       6101       6102       6113       6112  
      5981       5982       5993       5992       6102       6103       6114       6113  
      5982       5983       5994       5993       6103       6104       6115       6114  
      5983       5984       5995       5994       6104       6105       6116       6115  
      5985       5986       5997       5996       6106       6107       6118       6117  
      5986       5987       5998       5997       6107       6108       6119       6118  
      5987       5988       5999       5998       6108       6109       6120       6119  
      5988       5989       6000       5999       6109       6110       6121       6120  
      5989       5990       6001       6000       6110       6111       6122       6121  
      5990       5991       6002       6001       6111       6112       6123       6122  
      5991       5992       6003       6002       6112       6113       6124       6123  
      5992       5993       6004       6003       6113       6114       6125       6124  
      5993       5994       6005       6004       6114       6115       6126       6125  
      5994       5995       6006       6005       6115       6116       6127       6126  
      5996       5997       6008       6007       6117       6118       6129       6128  
      5997       5998       6009       6008       6118       6119       6130       6129  
      5998       5999       6010       6009       6119       6120       6131       6130  
      5999       6000       6011       6010       6120       6121       6132       6131  
      6000       6001       6012       6011       6121       6122       6133       6132  
      6001       6002       6013       6012       6122       6123       6134       6133  
      6002       6003       6014       6013       6123       6124       6135       6134  
      6003       6004       6015       6014       6124       6125       6136       6135  
      6004       6005       6016       6015       6125       6126       6137       6136  
      6005       6006       6017       6016       6126       6127       6138       6137  
      6007       6008       6019       6018       6128       6129       6140       6139  
      6008       6009       6020       6019       6129       6130       6141       6140  
      6009       6010       6021       6020       6130       6131       6142       6141  
      6010       6011       6022       6021       6131       6132       6143       6142  
      6011       6012       6023       6022       6132       6133       6144       6143  
      6012       6013       6024       6023       6133       6134       6145       6144  
      6013       6014       6025       6024       6134       6135       6146       6145  
      6014       6015       6026       6025       6135       6136       6147       6146  
      6015       6016       6027       6026       6136       6137       6148       6147  
      6016       6017       6028       6027       6137       6138       6149       6148  
      6018       6019       6030       6029       6139       6140       6151       6150  
      6019       6020       6031       6030       6140       6141       6152       6151  
      6020       6021       6032       6031       6141       6142       6153       6152  
      6021       6022       6033       6032       6142       6143       6154       6153  
      6022       6023       6034       6033       6143       6144       6155       6154  
      6023       6024       6035       6034       6144       6145       6156       6155  
      6024       6025       6036       6035       6145       6146       6157       6156  
      6025       6026       6037       6036       6146       6147       6158       6157  
      6026       6027       6038       6037       6147       6148       6159       6158  
      6027       6028       6039       6038       6148       6149       6160       6159  
      6029       6030       6041       6040       6150       6151       6162       6161  
      6030       6031       6042       6041       6151       6152       6163       6162  
      6031       6032       6043       6042       6152       6153       6164       6163  
      6032       6033       6044       6043       6153       6154       6165       6164  
      6033       6034       6045       6044       6154       6155       6166       6165  
      6034       6035       6046       6045       6155       6156       6167       6166  
      6035       6036       6047       6046       6156       6157       6168       6167  
      6036       6037       6048       6047       6157       6158       6169       6168  
      6037       6038       6049       6048       6158       6159       6170       6169  
      6038       6039       6050       6049       6159       6160       6171       6170  
      6051       6052       6063       6062       6172       6173       6184       6183  
      6052       6053       6064       6063       6173       6174       6185       6184  
      6053       6054       6065       6064       6174       6175       6186       6185  
      6054       6055       6066       6065       6175       6176       6187       6186  
      6055       6056       6067       6066       6176       6177       6188       6187  
      6056       6057       6068       6067       6177       6178       6189       6188  
      6057       6058       6069       6068       6178       6179       6190       6189  
      6058       6059       6070       6069       6179       6180       6191       6190  
      6059       6060       6071       6070       6180       6181       6192       6191  
      6060       6061       6072       6071       6181       6182       6193       6192  
      6062       6063       6074       6073       6183       6184       6195       6194  
      6063       6064       6075       6074       6184       6185       6196       6195  
      6064       6065       6076       6075       6185       6186       6197       6196  
      6065       6066       6077       6076       6186       6187       6198       6197  
      6066       6067       6078       6077       6187       6188       6199       6198  
      6067       6068       6079       6078       6188       6189       6200       6199  
      6068       6069       6080       6079       6189       6190       6201       6200  
      6069       6070       6081       6080       6190       6191       6202       6201  
      6070       6071       6082       6081       6191       6192       6203       6202  
      6071       6072       6083       6082       6192       6193       6204       6203  
      6073       6074       6085       6084       6194       6195       6206       6205  
      6074       6075       6086       6085       6195       6196       6207       6206  
      6075       6076       6087       6086       6196       6197       6208       6207  
      6076       6077       6088       6087       6197       6198       6209       6208  
      6077       6078       6089       6088       6198       6199       6210       6209  
      6078       6079       6090       6089       6199       6200       6211       6210  
      6079       6080       6091       6090       6200       6201       6212       6211  
      6080       6081       6092       6091       6201       6202       6213       6212  
      6081       6082       6093       6092       6202       6203       6214       6213  
      6082       6083       6094       6093       6203       6204       6215       6214  
      6084       6085       6096       6095       6205       6206       6217       6216  
      6085       6086       6097       6096       6206       6207       6218       6217  
      6086       6087       6098       6097       6207       6208       6219       6218  
      6087       6088       6099       6098       6208       6209       6220       6219  
      6088       6089       6100       6099       6209       6210       6221       6220  
      6089       6090       6101       6100       6210       6211       6222       6221  
      6090       6091       6102       6101       6211       6212       6223       6222  
      6091       6092       6103       6102       6212       6213       6224       6223  
      6092       6093       6104       6103       6213       6214       6225       6224  
      6093       6094       6105       6104       6214       6215       6226       6225  
      6095       6096       6107       6106       6216       6217       6228       6227  
      6096       6097       6108       6107       6217       6218       6229       6228  
      6097       6098       6109       6108       6218       6219       6230       6229  
      6098       6099       6110       6109       6219       6220       6231       6230  
      6099       6100       6111       6110       6220       6221       6232       6231  
      6100       6101       6112       6111       6221       6222       6233       6232  
      6101       6102       6113       6112       6222       6223       6234       6233  
      6102       6103       6114       6113       6223       6224       6235       6234  
      6103       6104       6115       6114       6224       6225       6236       6235  
      6104       6105       6116       6115       6225       6226       6237       6236  
      6106       6107       6118       6117       6227       6228       6239       6238  
      6107       6108       6119       6118       6228       6229       6240       6239  
      6108       6109       6120       6119       6229       6230       6241       6240  
      6109       6110       6121       6120       6230       6231       6242       6241  
      6110       6111       6122       6121       6231       6232       6243       6242  
      6111       6112       6123       6122       6232       6233       6244       6243  
      6112       6113       6124       6123       6233       6234       6245       6244  
      6113       6114       6125       6124       6234       6235       6246       6245  
      6114       6115       6126       6125       6235       6236       6247       6246  
      6115       6116       6127       6126       6236       6237       6248       6247  
      6117       6118       6129       6128       6238       6239       6250       6249  
      6118       6119       6130       6129       6239       6240       6251       6250  
      6119       6120       6131       6130       6240       6241       6252       6251  
      6120       6121       6132       6131       6241       6242       6253       6252  
      6121       6122       6133       6132       6242       6243       6254       6253  
      6122       6123       6134       6133       6243       6244       6255       6254  
      6123       6124       6135       6134       6244       6245       6256       6255  
      6124       6125       6136       6135       6245       6246       6257       6256  
      6125       6126       6137       6136       6246       6247       6258       6257  
      6126       6127       6138       6137       6247       6248       6259       6258  
      6128       6129       6140       6139       6249       6250       6261       6260  
      6129       6130       6141       6140       6250       6251       6262       6261  
      6130       6131       6142       6141       6251       6252       6263       6262  
      6131       6132       6143       6142       6252       6253       6264       6263  
      6132       6133       6144       6143       6253       6254       6265       6264  
      6133       6134       6145       6144       6254       6255       6266       6265  
      6134       6135       6146       6145       6255       6256       6267       6266  
      6135       6136       6147       6146       6256       6257       6268       6267  
      6136       6137       6148       6147       6257       6258       6269       6268  
      6137       6138       6149       6148       6258       6259       6270       6269  
      6139       6140       6151       6150       6260       6261       6272       6271  
      6140       6141       6152       6151       6261       6262       6273       6272  
      6141       6142       6153       6152       6262       6263       6274       6273  
      6142       6143       6154       6153       6263       6264       6275       6274  
      6143       6144       6155       6154       6264       6265       6276       6275  
      6144       6145       6156       6155       6265       6266       6277       6276  
      6145       6146       6157       6156       6266       6267       6278       6277  
      6146       6147       6158       6157       6267       6268       6279       6278  
      6147       6148       6159       6158       6268       6269       6280       6279  
      6148       6149       6160       6159       6269       6270       6281       6280  
      6150       6151       6162       6161       6271       6272       6283       6282  
      6151       6152       6163       6162       6272       6273       6284       6283  
      6152       6153       6164       6163       6273       6274       6285       6284  
      6153       6154       6165       6164       6274       6275       6286       6285  
      6154       6155       6166       6165       6275       6276       6287       6286  
      6155       6156       6167       6166       6276       6277       6288       6287  
      6156       6157       6168       6167       6277       6278       6289       6288  
      6157       6158       6169       6168       6278       6279       6290       6289  
      6158       6159       6170       6169       6279       6280       6291       6290  
      6159       6160       6171       6170       6280       6281       6292       6291  
      6172       6173       6184       6183       6293       6294       6305       6304  
      6173       6174       6185       6184       6294       6295       6306       6305  
      6174       6175       6186       6185       6295       6296       6307       6306  
      6175       6176       6187       6186       6296       6297       6308       6307  
      6176       6177       6188       6187       6297       6298       6309       6308  
      6177       6178       6189       6188       6298       6299       6310       6309  
      6178       6179       6190       6189       6299       6300       6311       6310  
      6179       6180       6191       6190       6300       6301       6312       6311  
      6180       6181       6192       6191       6301       6302       6313       6312  
      6181       6182       6193       6192       6302       6303       6314       6313  
      6183       6184       6195       6194       6304       6305       6316       6315  
      6184       6185       6196       6195       6305       6306       6317       6316  
      6185       6186       6197       6196       6306       6307       6318       6317  
      6186       6187       6198       6197       6307       6308       6319       6318  
      6187       6188       6199       6198       6308       6309       6320       6319  
      6188       6189       6200       6199       6309       6310       6321       6320  
      6189       6190       6201       6200       6310       6311       6322       6321  
      6190       6191       6202       6201       6311       6312       6323       6322  
      6191       6192       6203       6202       6312       6313       6324       6323  
      6192       6193       6204       6203       6313       6314       6325       6324  
      6194       6195       6206       6205       6315       6316       6327       6326  
      6195       6196       6207       6206       6316       6317       6328       6327  
      6196       6197       6208       6207       6317       6318       6329       6328  
      6197       6198       6209       6208       6318       6319       6330       6329  
      6198       6199       6210       6209       6319       6320       6331       6330  
      6199       6200       6211       6210       6320       6321       6332       6331  
      6200       6201       6212       6211       6321       6322       6333       6332  
      6201       6202       6213       6212       6322       6323       6334       6333  
      6202       6203       6214       6213       6323       6324       6335       6334  
      6203       6204       6215       6214       6324       6325       6336       6335  
      6205       6206       6217       6216       6326       6327       6338       6337  
      6206       6207       6218       6217       6327       6328       6339       6338  
      6207       6208       6219       6218       6328       6329       6340       6339  
      6208       6209       6220       6219       6329       6330       6341       6340  
      6209       6210       6221       6220       6330       6331       6342       6341  
      6210       6211       6222       6221       6331       6332       6343       6342  
      6211       6212       6223       6222       6332       6333       6344       6343  
      6212       6213       6224       6223       6333       6334       6345       6344  
      6213       6214       6225       6224       6334       6335       6346       6345  
      6214       6215       6226       6225       6335       6336       6347       6346  
      6216       6217       6228       6227       6337       6338       6349       6348  
      6217       6218       6229       6228       6338       6339       6350       6349  
      6218       6219       6230       6229       6339       6340       6351       6350  
      6219       6220       6231       6230       6340       6341       6352       6351  
      6220       6221       6232       6231       6341       6342       6353       6352  
      6221       6222       6233       6232       6342       6343       6354       6353  
      6222       6223       6234       6233       6343       6344       6355       6354  
      6223       6224       6235       6234       6344       6345       6356       6355  
      6224       6225       6236       6235       6345       6346       6357       6356  
      6225       6226       6237       6236       6346       6347       6358       6357  
      6227       6228       6239       6238       6348       6349       6360       6359  
      6228       6229       6240       6239       6349       6350       6361       6360  
      6229       6230       6241       6240       6350       6351       6362       6361  
      6230       6231       6242       6241       6351       6352       6363       6362  
      6231       6232       6243       6242       6352       6353       6364       6363  
      6232       6233       6244       6243       6353       6354       6365       6364  
      6233       6234       6245       6244       6354       6355       6366       6365  
      6234       6235       6246       6245       6355       6356       6367       6366  
      6235       6236       6247       6246       6356       6357       6368       6367  
      6236       6237       6248       6247       6357       6358       6369       6368  
      6238       6239       6250       6249       6359       6360       6371       6370  
      6239       6240       6251       6250       6360       6361       6372       6371  
      6240       6241       6252       6251       6361       6362       6373       6372  
      6241       6242       6253       6252       6362       6363       6374       6373  
      6242       6243       6254       6253       6363       6364       6375       6374  
      6243       6244       6255       6254       6364       6365       6376       6375  
      6244       6245       6256       6255       6365       6366       6377       6376  
      6245       6246       6257       6256       6366       6367       6378       6377  
      6246       6247       6258       6257       6367       6368       6379       6378  
      6247       6248       6259       6258       6368       6369       6380       6379  
      6249       6250       6261       6260       6370       6371       6382       6381  
      6250       6251       6262       6261       6371       6372       6383       6382  
      6251       6252       6263       6262       6372       6373       6384       6383  
      6252       6253       6264       6263       6373       6374       6385       6384  
      6253       6254       6265       6264       6374       6375       6386       6385  
      6254       6255       6266       6265       6375       6376       6387       6386  
      6255       6256       6267       6266       6376       6377       6388       6387  
      6256       6257       6268       6267       6377       6378       6389       6388  
      6257       6258       6269       6268       6378       6379       6390       6389  
      6258       6259       6270       6269       6379       6380       6391       6390  
      6260       6261       6272       6271       6381       6382       6393       6392  
      6261       6262       6273       6272       6382       6383       6394       6393  
      6262       6263       6274       6273       6383       6384       6395       6394  
      6263       6264       6275       6274       6384       6385       6396       6395  
      6264       6265       6276       6275       6385       6386       6397       6396  
      6265       6266       6277       6276       6386       6387       6398       6397  
      6266       6267       6278       6277       6387       6388       6399       6398  
      6267       6268       6279       6278       6388       6389       6400       6399  
      6268       6269       6280       6279       6389       6390       6401       6400  
      6269       6270       6281       6280       6390       6391       6402       6401  
      6271       6272       6283       6282       6392       6393       6404       6403  
      6272       6273       6284       6283       6393       6394       6405       6404  
      6273       6274       6285       6284       6394       6395       6406       6405  
      6274       6275       6286       6285       6395       6396       6407       6406  
      6275       6276       6287       6286       6396       6397       6408       6407  
      6276       6277       6288       6287       6397       6398       6409       6408  
      6277       6278       6289       6288       6398       6399       6410       6409  
      6278       6279       6290       6289       6399       6400       6411       6410  
      6279       6280       6291       6290       6400       6401       6412       6411  
      6280       6281       6292       6291       6401       6402       6413       6412  
      6293       6294       6305       6304       6414       6415       6426       6425  
      6294       6295       6306       6305       6415       6416       6427       6426  
      6295       6296       6307       6306       6416       6417       6428       6427  
      6296       6297       6308       6307       6417       6418       6429       6428  
      6297       6298       6309       6308       6418       6419       6430       6429  
      6298       6299       6310       6309       6419       6420       6431       6430  
      6299       6300       6311       6310       6420       6421       6432       6431  
      6300       6301       6312       6311       6421       6422       6433       6432  
      6301       6302       6313       6312       6422       6423       6434       6433  
      6302       6303       6314       6313       6423       6424       6435       6434  
      6304       6305       6316       6315       6425       6426       6437       6436  
      6305       6306       6317       6316       6426       6427       6438       6437  
      6306       6307       6318       6317       6427       6428       6439       6438  
      6307       6308       6319       6318       6428       6429       6440       6439  
      6308       6309       6320       6319       6429       6430       6441       6440  
      6309       6310       6321       6320       6430       6431       6442       6441  
      6310       6311       6322       6321       6431       6432       6443       6442  
      6311       6312       6323       6322       6432       6433       6444       6443  
      6312       6313       6324       6323       6433       6434       6445       6444  
      6313       6314       6325       6324       6434       6435       6446       6445  
      6315       6316       6327       6326       6436       6437       6448       6447  
      6316       6317       6328       6327       6437       6438       6449       6448  
      6317       6318       6329       6328       6438       6439       6450       6449  
      6318       6319       6330       6329       6439       6440       6451       6450  
      6319       6320       6331       6330       6440       6441       6452       6451  
      6320       6321       6332       6331       6441       6442       6453       6452  
      6321       6322       6333       6332       6442       6443       6454       6453  
      6322       6323       6334       6333       6443       6444       6455       6454  
      6323       6324       6335       6334       6444       6445       6456       6455  
      6324       6325       6336       6335       6445       6446       6457       6456  
      6326       6327       6338       6337       6447       6448       6459       6458  
      6327       6328       6339       6338       6448       6449       6460       6459  
      6328       6329       6340       6339       6449       6450       6461       6460  
      6329       6330       6341       6340       6450       6451       6462       6461  
      6330       6331       6342       6341       6451       6452       6463       6462  
      6331       6332       6343       6342       6452       6453       6464       6463  
      6332       6333       6344       6343       6453       6454       6465       6464  
      6333       6334       6345       6344       6454       6455       6466       6465  
      6334       6335       6346       6345       6455       6456       6467       6466  
      6335       6336       6347       6346       6456       6457       6468       6467  
      6337       6338       6349       6348       6458       6459       6470       6469  
      6338       6339       6350       6349       6459       6460       6471       6470  
      6339       6340       6351       6350       6460       6461       6472       6471  
      6340       6341       6352       6351       6461       6462       6473       6472  
      6341       6342       6353       6352       6462       6463       6474       6473  
      6342       6343       6354       6353       6463       6464       6475       6474  
      6343       6344       6355       6354       6464       6465       6476       6475  
      6344       6345       6356       6355       6465       6466       6477       6476  
      6345       6346       6357       6356       6466       6467       6478       6477  
      6346       6347       6358       6357       6467       6468       6479       6478  
      6348       6349       6360       6359       6469       6470       6481       6480  
      6349       6350       6361       6360       6470       6471       6482       6481  
      6350       6351       6362       6361       6471       6472       6483       6482  
      6351       6352       6363       6362       6472       6473       6484       6483  
      6352       6353       6364       6363       6473       6474       6485       6484  
      6353       6354       6365       6364       6474       6475       6486       6485  
      6354       6355       6366       6365       6475       6476       6487       6486  
      6355       6356       6367       6366       6476       6477       6488       6487  
      6356       6357       6368       6367       6477       6478       6489       6488  
      6357       6358       6369       6368       6478       6479       6490       6489  
      6359       6360       6371       6370       6480       6481       6492       6491  
      6360       6361       6372       6371       6481       6482       6493       6492  
      6361       6362       6373       6372       6482       6483       6494       6493  
      6362       6363       6374       6373       6483       6484       6495       6494  
      6363       6364       6375       6374       6484       6485       6496       6495  
      6364       6365       6376       6375       6485       6486       6497       6496  
      6365       6366       6377       6376       6486       6487       6498       6497  
      6366       6367       6378       6377       6487       6488       6499       6498  
      6367       6368       6379       6378       6488       6489       6500       6499  
      6368       6369       6380       6379       6489       6490       6501       6500  
      6370       6371       6382       6381       6491       6492       6503       6502  
      6371       6372       6383       6382       6492       6493       6504       6503  
      6372       6373       6384       6383       6493       6494       6505       6504  
      6373       6374       6385       6384       6494       6495       6506       6505  
      6374       6375       6386       6385       6495       6496       6507       6506  
      6375       6376       6387       6386       6496       6497       6508       6507  
      6376       6377       6388       6387       6497       6498       6509       6508  
      6377       6378       6389       6388       6498       6499       6510       6509  
      6378       6379       6390       6389       6499       6500       6511       6510  
      6379       6380       6391       6390       6500       6501       6512       6511  
      6381       6382       6393       6392       6502       6503       6514       6513  
      6382       6383       6394       6393       6503       6504       6515       6514  
      6383       6384       6395       6394       6504       6505       6516       6515  
      6384       6385       6396       6395       6505       6506       6517       6516  
      6385       6386       6397       6396       6506       6507       6518       6517  
      6386       6387       6398       6397       6507       6508       6519       6518  
      6387       6388       6399       6398       6508       6509       6520       6519  
      6388       6389       6400       6399       6509       6510       6521       6520  
      6389       6390       6401       6400       6510       6511       6522       6521  
      6390       6391       6402       6401       6511       6512       6523       6522  
      6392       6393       6404       6403       6513       6514       6525       6524  
      6393       6394       6405       6404       6514       6515       6526       6525  
      6394       6395       6406       6405       6515       6516       6527       6526  
      6395       6396       6407       6406       6516       6517       6528       6527  
      6396       6397       6408       6407       6517       6518       6529       6528  
      6397       6398       6409       6408       6518       6519       6530       6529  
      6398       6399       6410       6409       6519       6520       6531       6530  
      6399       6400       6411       6410       6520       6521       6532       6531  
      6400       6401       6412       6411       6521       6522       6533       6532  
      6401       6402       6413       6412       6522       6523       6534       6533  
      6414       6415       6426       6425       6535       6536       6547       6546  
      6415       6416       6427       6426       6536       6537       6548       6547  
      6416       6417       6428       6427       6537       6538       6549       6548  
      6417       6418       6429       6428       6538       6539       6550       6549  
      6418       6419       6430       6429       6539       6540       6551       6550  
      6419       6420       6431       6430       6540       6541       6552       6551  
      6420       6421       6432       6431       6541       6542       6553       6552  
      6421       6422       6433       6432       6542       6543       6554       6553  
      6422       6423       6434       6433       6543       6544       6555       6554  
      6423       6424       6435       6434       6544       6545       6556       6555  
      6425       6426       6437       6436       6546       6547       6558       6557  
      6426       6427       6438       6437       6547       6548       6559       6558  
      6427       6428       6439       6438       6548       6549       6560       6559  
      6428       6429       6440       6439       6549       6550       6561       6560  
      6429       6430       6441       6440       6550       6551       6562       6561  
      6430       6431       6442       6441       6551       6552       6563       6562  
      6431       6432       6443       6442       6552       6553       6564       6563  
      6432       6433       6444       6443       6553       6554       6565       6564  
      6433       6434       6445       6444       6554       6555       6566       6565  
      6434       6435       6446       6445       6555       6556       6567       6566  
      6436       6437       6448       6447       6557       6558       6569       6568  
      6437       6438       6449       6448       6558       6559       6570       6569  
      6438       6439       6450       6449       6559       6560       6571       6570  
      6439       6440       6451       6450       6560       6561       6572       6571  
      6440       6441       6452       6451       6561       6562       6573       6572  
      6441       6442       6453       6452       6562       6563       6574       6573  
      6442       6443       6454       6453       6563       6564       6575       6574  
      6443       6444       6455       6454       6564       6565       6576       6575  
      6444       6445       6456       6455       6565       6566       6577       6576  
      6445       6446       6457       6456       6566       6567       6578       6577  
      6447       6448       6459       6458       6568       6569       6580       6579  
      6448       6449       6460       6459       6569       6570       6581       6580  
      6449       6450       6461       6460       6570       6571       6582       6581  
      6450       6451       6462       6461       6571       6572       6583       6582  
      6451       6452       6463       6462       6572       6573       6584       6583  
      6452       6453       6464       6463       6573       6574       6585       6584  
      6453       6454       6465       6464       6574       6575       6586       6585  
      6454       6455       6466       6465       6575       6576       6587       6586  
      6455       6456       6467       6466       6576       6577       6588       6587  
      6456       6457       6468       6467       6577       6578       6589       6588  
      6458       6459       6470       6469       6579       6580       6591       6590  
      6459       6460       6471       6470       6580       6581       6592       6591  
      6460       6461       6472       6471       6581       6582       6593       6592  
      6461       6462       6473       6472       6582       6583       6594       6593  
      6462       6463       6474       6473       6583       6584       6595       6594  
      6463       6464       6475       6474       6584       6585       6596       6595  
      6464       6465       6476       6475       6585       6586       6597       6596  
      6465       6466       6477       6476       6586       6587       6598       6597  
      6466       6467       6478       6477       6587       6588       6599       6598  
      6467       6468       6479       6478       6588       6589       6600       6599  
      6469       6470       6481       6480       6590       6591       6602       6601  
      6470       6471       6482       6481       6591       6592       6603       6602  
      6471       6472       6483       6482       6592       6593       6604       6603  
      6472       6473       6484       6483       6593       6594       6605       6604  
      6473       6474       6485       6484       6594       6595       6606       6605  
      6474       6475       6486       6485       6595       6596       6607       6606  
      6475       6476       6487       6486       6596       6597       6608       6607  
      6476       6477       6488       6487       6597       6598       6609       6608  
      6477       6478       6489       6488       6598       6599       6610       6609  
      6478       6479       6490       6489       6599       6600       6611       6610  
      6480       6481       6492       6491       6601       6602       6613       6612  
      6481       6482       6493       6492       6602       6603       6614       6613  
      6482       6483       6494       6493       6603       6604       6615       6614  
      6483       6484       6495       6494       6604       6605       6616       6615  
      6484       6485       6496       6495       6605       6606       6617       6616  
      6485       6486       6497       6496       6606       6607       6618       6617  
      6486       6487       6498       6497       6607       6608       6619       6618  
      6487       6488       6499       6498       6608       6609       6620       6619  
      6488       6489       6500       6499       6609       6610       6621       6620  
      6489       6490       6501       6500       6610       6611       6622       6621  
      6491       6492       6503       6502       6612       6613       6624       6623  
      6492       6493       6504       6503       6613       6614       6625       6624  
      6493       6494       6505       6504       6614       6615       6626       6625  
      6494       6495       6506       6505       6615       6616       6627       6626  
      6495       6496       6507       6506       6616       6617       6628       6627  
      6496       6497       6508       6507       6617       6618       6629       6628  
      6497       6498       6509       6508       6618       6619       6630       6629  
      6498       6499       6510       6509       6619       6620       6631       6630  
      6499       6500       6511       6510       6620       6621       6632       6631  
      6500       6501       6512       6511       6621       6622       6633       6632  
      6502       6503       6514       6513       6623       6624       6635       6634  
      6503       6504       6515       6514       6624       6625       6636       6635  
      6504       6505       6516       6515       6625       6626       6637       6636  
      6505       6506       6517       6516       6626       6627       6638       6637  
      6506       6507       6518       6517       6627       6628       6639       6638  
      6507       6508       6519       6518       6628       6629       6640       6639  
      6508       6509       6520       6519       6629       6630       6641       6640  
      6509       6510       6521       6520       6630       6631       6642       6641  
      6510       6511       6522       6521       6631       6632       6643       6642  
      6511       6512       6523       6522       6632       6633       6644       6643  
      6513       6514       6525       6524       6634       6635       6646       6645  
      6514       6515       6526       6525       6635       6636       6647       6646  
      6515       6516       6527       6526       6636       6637       6648       6647  
      6516       6517       6528       6527       6637       6638       6649       6648  
      6517       6518       6529       6528       6638       6639       6650       6649  
      6518       6519       6530       6529       6639       6640       6651       6650  
      6519       6520       6531       6530       6640       6641       6652       6651  
      6520       6521       6532       6531       6641       6642       6653       6652  
      6521       6522       6533       6532       6642       6643       6654       6653  
      6522       6523       6534       6533       6643       6644       6655       6654  
      6535       6536       6547       6546       6656       6657       6668       6667  
      6536       6537       6548       6547       6657       6658       6669       6668  
      6537       6538       6549       6548       6658       6659       6670       6669  
      6538       6539       6550       6549       6659       6660       6671       6670  
      6539       6540       6551       6550       6660       6661       6672       6671  
      6540       6541       6552       6551       6661       6662       6673       6672  
      6541       6542       6553       6552       6662       6663       6674       6673  
      6542       6543       6554       6553       6663       6664       6675       6674  
      6543       6544       6555       6554       6664       6665       6676       6675  
      6544       6545       6556       6555       6665       6666       6677       6676  
      6546       6547       6558       6557       6667       6668       6679       6678  
      6547       6548       6559       6558       6668       6669       6680       6679  
      6548       6549       6560       6559       6669       6670       6681       6680  
      6549       6550       6561       6560       6670       6671       6682       6681  
      6550       6551       6562       6561       6671       6672       6683       6682  
      6551       6552       6563       6562       6672       6673       6684       6683  
      6552       6553       6564       6563       6673       6674       6685       6684  
      6553       6554       6565       6564       6674       6675       6686       6685  
      6554       6555       6566       6565       6675       6676       6687       6686  
      6555       6556       6567       6566       6676       6677       6688       6687  
      6557       6558       6569       6568       6678       6679       6690       6689  
      6558       6559       6570       6569       6679       6680       6691       6690  
      6559       6560       6571       6570       6680       6681       6692       6691  
      6560       6561       6572       6571       6681       6682       6693       6692  
      6561       6562       6573       6572       6682       6683       6694       6693  
      6562       6563       6574       6573       6683       6684       6695       6694  
      6563       6564       6575       6574       6684       6685       6696       6695  
      6564       6565       6576       6575       6685       6686       6697       6696  
      6565       6566       6577       6576       6686       6687       6698       6697  
      6566       6567       6578       6577       6687       6688       6699       6698  
      6568       6569       6580       6579       6689       6690       6701       6700  
      6569       6570       6581       6580       6690       6691       6702       6701  
      6570       6571       6582       6581       6691       6692       6703       6702  
      6571       6572       6583       6582       6692       6693       6704       6703  
      6572       6573       6584       6583       6693       6694       6705       6704  
      6573       6574       6585       6584       6694       6695       6706       6705  
      6574       6575       6586       6585       6695       6696       6707       6706  
      6575       6576       6587       6586       6696       6697       6708       6707  
      6576       6577       6588       6587       6697       6698       6709       6708  
      6577       6578       6589       6588       6698       6699       6710       6709  
      6579       6580       6591       6590       6700       6701       6712       6711  
      6580       6581       6592       6591       6701       6702       6713       6712  
      6581       6582       6593       6592       6702       6703       6714       6713  
      6582       6583       6594       6593       6703       6704       6715       6714  
      6583       6584       6595       6594       6704       6705       6716       6715  
      6584       6585       6596       6595       6705       6706       6717       6716  
      6585       6586       6597       6596       6706       6707       6718       6717  
      6586       6587       6598       6597       6707       6708       6719       6718  
      6587       6588       6599       6598       6708       6709       6720       6719  
      6588       6589       6600       6599       6709       6710       6721       6720  
      6590       6591       6602       6601       6711       6712       6723       6722  
      6591       6592       6603       6602       6712       6713       6724       6723  
      6592       6593       6604       6603       6713       6714       6725       6724  
      6593       6594       6605       6604       6714       6715       6726       6725  
      6594       6595       6606       6605       6715       6716       6727       6726  
      6595       6596       6607       6606       6716       6717       6728       6727  
      6596       6597       6608       6607       6717       6718       6729       6728  
      6597       6598       6609       6608       6718       6719       6730       6729  
      6598       6599       6610       6609       6719       6720       6731       6730  
      6599       6600       6611       6610       6720       6721       6732       6731  
      6601       6602       6613       6612       6722       6723       6734       6733  
      6602       6603       6614       6613       6723       6724       6735       6734  
      6603       6604       6615       6614       6724       6725       6736       6735  
      6604       6605       6616       6615       6725       6726       6737       6736  
      6605       6606       6617       6616       6726       6727       6738       6737  
      6606       6607       6618       6617       6727       6728       6739       6738  
      6607       6608       6619       6618       6728       6729       6740       6739  
      6608       6609       6620       6619       6729       6730       6741       6740  
      6609       6610       6621       6620       6730       6731       6742       6741  
      6610       6611       6622       6621       6731       6732       6743       6742  
      6612       6613       6624       6623       6733       6734       6745       6744  
      6613       6614       6625       6624       6734       6735       6746       6745  
      6614       6615       6626       6625       6735       6736       6747       6746  
      6615       6616       6627       6626       6736       6737       6748       6747  
      6616       6617       6628       6627       6737       6738       6749       6748  
      6617       6618       6629       6628       6738       6739       6750       6749  
      6618       6619       6630       6629       6739       6740       6751       6750  
      6619       6620       6631       6630       6740       6741       6752       6751  
      6620       6621       6632       6631       6741       6742       6753       6752  
      6621       6622       6633       6632       6742       6743       6754       6753  
      6623       6624       6635       6634       6744       6745       6756       6755  
      6624       6625       6636       6635       6745       6746       6757       6756  
      6625       6626       6637       6636       6746       6747       6758       6757  
      6626       6627       6638       6637       6747       6748       6759       6758  
      6627       6628       6639       6638       6748       6749       6760       6759  
      6628       6629       6640       6639       6749       6750       6761       6760  
      6629       6630       6641       6640       6750       6751       6762       6761  
      6630       6631       6642       6641       6751       6752       6763       6762  
      6631       6632       6643       6642       6752       6753       6764       6763  
      6632       6633       6644       6643       6753       6754       6765       6764  
      6634       6635       6646       6645       6755       6756       6767       6766  
      6635       6636       6647       6646       6756       6757       6768       6767  
      6636       6637       6648       6647       6757       6758       6769       6768  
      6637       6638       6649       6648       6758       6759       6770       6769  
      6638       6639       6650       6649       6759       6760       6771       6770  
      6639       6640       6651       6650       6760       6761       6772       6771  
      6640       6641       6652       6651       6761       6762       6773       6772  
      6641       6642       6653       6652       6762       6763       6774       6773  
      6642       6643       6654       6653       6763       6764       6775       6774  
      6643       6644       6655       6654       6764       6765       6776       6775  
      6656       6657       6668       6667       6777       6778       6789       6788  
      6657       6658       6669       6668       6778       6779       6790       6789  
      6658       6659       6670       6669       6779       6780       6791       6790  
      6659       6660       6671       6670       6780       6781       6792       6791  
      6660       6661       6672       6671       6781       6782       6793       6792  
      6661       6662       6673       6672       6782       6783       6794       6793  
      6662       6663       6674       6673       6783       6784       6795       6794  
      6663       6664       6675       6674       6784       6785       6796       6795  
      6664       6665       6676       6675       6785       6786       6797       6796  
      6665       6666       6677       6676       6786       6787       6798       6797  
      6667       6668       6679       6678       6788       6789       6800       6799  
      6668       6669       6680       6679       6789       6790       6801       6800  
      6669       6670       6681       6680       6790       6791       6802       6801  
      6670       6671       6682       6681       6791       6792       6803       6802  
      6671       6672       6683       6682       6792       6793       6804       6803  
      6672       6673       6684       6683       6793       6794       6805       6804  
      6673       6674       6685       6684       6794       6795       6806       6805  
      6674       6675       6686       6685       6795       6796       6807       6806  
      6675       6676       6687       6686       6796       6797       6808       6807  
      6676       6677       6688       6687       6797       6798       6809       6808  
      6678       6679       6690       6689       6799       6800       6811       6810  
      6679       6680       6691       6690       6800       6801       6812       6811  
      6680       6681       6692       6691       6801       6802       6813       6812  
      6681       6682       6693       6692       6802       6803       6814       6813  
      6682       6683       6694       6693       6803       6804       6815       6814  
      6683       6684       6695       6694       6804       6805       6816       6815  
      6684       6685       6696       6695       6805       6806       6817       6816  
      6685       6686       6697       6696       6806       6807       6818       6817  
      6686       6687       6698       6697       6807       6808       6819       6818  
      6687       6688       6699       6698       6808       6809       6820       6819  
      6689       6690       6701       6700       6810       6811       6822       6821  
      6690       6691       6702       6701       6811       6812       6823       6822  
      6691       6692       6703       6702       6812       6813       6824       6823  
      6692       6693       6704       6703       6813       6814       6825       6824  
      6693       6694       6705       6704       6814       6815       6826       6825  
      6694       6695       6706       6705       6815       6816       6827       6826  
      6695       6696       6707       6706       6816       6817       6828       6827  
      6696       6697       6708       6707       6817       6818       6829       6828  
      6697       6698       6709       6708       6818       6819       6830       6829  
      6698       6699       6710       6709       6819       6820       6831       6830  
      6700       6701       6712       6711       6821       6822       6833       6832  
      6701       6702       6713       6712       6822       6823       6834       6833  
      6702       6703       6714       6713       6823       6824       6835       6834  
      6703       6704       6715       6714       6824       6825       6836       6835  
      6704       6705       6716       6715       6825       6826       6837       6836  
      6705       6706       6717       6716       6826       6827       6838       6837  
      6706       6707       6718       6717       6827       6828       6839       6838  
      6707       6708       6719       6718       6828       6829       6840       6839  
      6708       6709       6720       6719       6829       6830       6841       6840  
      6709       6710       6721       6720       6830       6831       6842       6841  
      6711       6712       6723       6722       6832       6833       6844       6843  
      6712       6713       6724       6723       6833       6834       6845       6844  
      6713       6714       6725       6724       6834       6835       6846       6845  
      6714       6715       6726       6725       6835       6836       6847       6846  
      6715       6716       6727       6726       6836       6837       6848       6847  
      6716       6717       6728       6727       6837       6838       6849       6848  
      6717       6718       6729       6728       6838       6839       6850       6849  
      6718       6719       6730       6729       6839       6840       6851       6850  
      6719       6720       6731       6730       6840       6841       6852       6851  
      6720       6721       6732       6731       6841       6842       6853       6852  
      6722       6723       6734       6733       6843       6844       6855       6854  
      6723       6724       6735       6734       6844       6845       6856       6855  
      6724       6725       6736       6735       6845       6846       6857       6856  
      6725       6726       6737       6736       6846       6847       6858       6857  
      6726       6727       6738       6737       6847       6848       6859       6858  
      6727       6728       6739       6738       6848       6849       6860       6859  
      6728       6729       6740       6739       6849       6850       6861       6860  
      6729       6730       6741       6740       6850       6851       6862       6861  
      6730       6731       6742       6741       6851       6852       6863       6862  
      6731       6732       6743       6742       6852       6853       6864       6863  
      6733       6734       6745       6744       6854       6855       6866       6865  
      6734       6735       6746       6745       6855       6856       6867       6866  
      6735       6736       6747       6746       6856       6857       6868       6867  
      6736       6737       6748       6747       6857       6858       6869       6868  
      6737       6738       6749       6748       6858       6859       6870       6869  
      6738       6739       6750       6749       6859       6860       6871       6870  
      6739       6740       6751       6750       6860       6861       6872       6871  
      6740       6741       6752       6751       6861       6862       6873       6872  
      6741       6742       6753       6752       6862       6863       6874       6873  
      6742       6743       6754       6753       6863       6864       6875       6874  
      6744       6745       6756       6755       6865       6866       6877       6876  
      6745       6746       6757       6756       6866       6867       6878       6877  
      6746       6747       6758       6757       6867       6868       6879       6878  
      6747       6748       6759       6758       6868       6869       6880       6879  
      6748       6749       6760       6759       6869       6870       6881       6880  
      6749       6750       6761       6760       6870       6871       6882       6881  
      6750       6751       6762       6761       6871       6872       6883       6882  
      6751       6752       6763       6762       6872       6873       6884       6883  
      6752       6753       6764       6763       6873       6874       6885       6884  
      6753       6754       6765       6764       6874       6875       6886       6885  
      6755       6756       6767       6766       6876       6877       6888       6887  
      6756       6757       6768       6767       6877       6878       6889       6888  
      6757       6758       6769       6768       6878       6879       6890       6889  
      6758       6759       6770       6769       6879       6880       6891       6890  
      6759       6760       6771       6770       6880       6881       6892       6891  
      6760       6761       6772       6771       6881       6882       6893       6892  
      6761       6762       6773       6772       6882       6883       6894       6893  
      6762       6763       6774       6773       6883       6884       6895       6894  
      6763       6764       6775       6774       6884       6885       6896       6895  
      6764       6765       6776       6775       6885       6886       6897       6896  
      6777       6778       6789       6788       6898       6899       6910       6909  
      6778       6779       6790       6789       6899       6900       6911       6910  
      6779       6780       6791       6790       6900       6901       6912       6911  
      6780       6781       6792       6791       6901       6902       6913       6912  
      6781       6782       6793       6792       6902       6903       6914       6913  
      6782       6783       6794       6793       6903       6904       6915       6914  
      6783       6784       6795       6794       6904       6905       6916       6915  
      6784       6785       6796       6795       6905       6906       6917       6916  
      6785       6786       6797       6796       6906       6907       6918       6917  
      6786       6787       6798       6797       6907       6908       6919       6918  
      6788       6789       6800       6799       6909       6910       6921       6920  
      6789       6790       6801       6800       6910       6911       6922       6921  
      6790       6791       6802       6801       6911       6912       6923       6922  
      6791       6792       6803       6802       6912       6913       6924       6923  
      6792       6793       6804       6803       6913       6914       6925       6924  
      6793       6794       6805       6804       6914       6915       6926       6925  
      6794       6795       6806       6805       6915       6916       6927       6926  
      6795       6796       6807       6806       6916       6917       6928       6927  
      6796       6797       6808       6807       6917       6918       6929       6928  
      6797       6798       6809       6808       6918       6919       6930       6929  
      6799       6800       6811       6810       6920       6921       6932       6931  
      6800       6801       6812       6811       6921       6922       6933       6932  
      6801       6802       6813       6812       6922       6923       6934       6933  
      6802       6803       6814       6813       6923       6924       6935       6934  
      6803       6804       6815       6814       6924       6925       6936       6935  
      6804       6805       6816       6815       6925       6926       6937       6936  
      6805       6806       6817       6816       6926       6927       6938       6937  
      6806       6807       6818       6817       6927       6928       6939       6938  
      6807       6808       6819       6818       6928       6929       6940       6939  
      6808       6809       6820       6819       6929       6930       6941       6940  
      6810       6811       6822       6821       6931       6932       6943       6942  
      6811       6812       6823       6822       6932       6933       6944       6943  
      6812       6813       6824       6823       6933       6934       6945       6944  
      6813       6814       6825       6824       6934       6935       6946       6945  
      6814       6815       6826       6825       6935       6936       6947       6946  
      6815       6816       6827       6826       6936       6937       6948       6947  
      6816       6817       6828       6827       6937       6938       6949       6948  
      6817       6818       6829       6828       6938       6939       6950       6949  
      6818       6819       6830       6829       6939       6940       6951       6950  
      6819       6820       6831       6830       6940       6941       6952       6951  
      6821       6822       6833       6832       6942       6943       6954       6953  
      6822       6823       6834       6833       6943       6944       6955       6954  
      6823       6824       6835       6834       6944       6945       6956       6955  
      6824       6825       6836       6835       6945       6946       6957       6956  
      6825       6826       6837       6836       6946       6947       6958       6957  
      6826       6827       6838       6837       6947       6948       6959       6958  
      6827       6828       6839       6838       6948       6949       6960       6959  
      6828       6829       6840       6839       6949       6950       6961       6960  
      6829       6830       6841       6840       6950       6951       6962       6961  
      6830       6831       6842       6841       6951       6952       6963       6962  
      6832       6833       6844       6843       6953       6954       6965       6964  
      6833       6834       6845       6844       6954       6955       6966       6965  
      6834       6835       6846       6845       6955       6956       6967       6966  
      6835       6836       6847       6846       6956       6957       6968       6967  
      6836       6837       6848       6847       6957       6958       6969       6968  
      6837       6838       6849       6848       6958       6959       6970       6969  
      6838       6839       6850       6849       6959       6960       6971       6970  
      6839       6840       6851       6850       6960       6961       6972       6971  
      6840       6841       6852       6851       6961       6962       6973       6972  
      6841       6842       6853       6852       6962       6963       6974       6973  
      6843       6844       6855       6854       6964       6965       6976       6975  
      6844       6845       6856       6855       6965       6966       6977       6976  
      6845       6846       6857       6856       6966       6967       6978       6977  
      6846       6847       6858       6857       6967       6968       6979       6978  
      6847       6848       6859       6858       6968       6969       6980       6979  
      6848       6849       6860       6859       6969       6970       6981       6980  
      6849       6850       6861       6860       6970       6971       6982       6981  
      6850       6851       6862       6861       6971       6972       6983       6982  
      6851       6852       6863       6862       6972       6973       6984       6983  
      6852       6853       6864       6863       6973       6974       6985       6984  
      6854       6855       6866       6865       6975       6976       6987       6986  
      6855       6856       6867       6866       6976       6977       6988       6987  
      6856       6857       6868       6867       6977       6978       6989       6988  
      6857       6858       6869       6868       6978       6979       6990       6989  
      6858       6859       6870       6869       6979       6980       6991       6990  
      6859       6860       6871       6870       6980       6981       6992       6991  
      6860       6861       6872       6871       6981       6982       6993       6992  
      6861       6862       6873       6872       6982       6983       6994       6993  
      6862       6863       6874       6873       6983       6984       6995       6994  
      6863       6864       6875       6874       6984       6985       6996       6995  
      6865       6866       6877       6876       6986       6987       6998       6997  
      6866       6867       6878       6877       6987       6988       6999       6998  
      6867       6868       6879       6878       6988       6989       7000       6999  
      6868       6869       6880       6879       6989       6990       7001       7000  
      6869       6870       6881       6880       6990       6991       7002       7001  
      6870       6871       6882       6881       6991       6992       7003       7002  
      6871       6872       6883       6882       6992       6993       7004       7003  
      6872       6873       6884       6883       6993       6994       7005       7004  
      6873       6874       6885       6884       6994       6995       7006       7005  
      6874       6875       6886       6885       6995       6996       7007       7006  
      6876       6877       6888       6887       6997       6998       7009       7008  
      6877       6878       6889       6888       6998       6999       7010       7009  
      6878       6879       6890       6889       6999       7000       7011       7010  
      6879       6880       6891       6890       7000       7001       7012       7011  
      6880       6881       6892       6891       7001       7002       7013       7012  
      6881       6882       6893       6892       7002       7003       7014       7013  
      6882       6883       6894       6893       7003       7004       7015       7014  
      6883       6884       6895       6894       7004       7005       7016       7015  
      6884       6885       6896       6895       7005       7006       7017       7016  
      6885       6886       6897       6896       7006       7007       7018       7017  
      6898       6899       6910       6909       7019       7020       7031       7030  
      6899       6900       6911       6910       7020       7021       7032       7031  
      6900       6901       6912       6911       7021       7022       7033       7032  
      6901       6902       6913       6912       7022       7023       7034       7033  
      6902       6903       6914       6913       7023       7024       7035       7034  
      6903       6904       6915       6914       7024       7025       7036       7035  
      6904       6905       6916       6915       7025       7026       7037       7036  
      6905       6906       6917       6916       7026       7027       7038       7037  
      6906       6907       6918       6917       7027       7028       7039       7038  
      6907       6908       6919       6918       7028       7029       7040       7039  
      6909       6910       6921       6920       7030       7031       7042       7041  
      6910       6911       6922       6921       7031       7032       7043       7042  
      6911       6912       6923       6922       7032       7033       7044       7043  
      6912       6913       6924       6923       7033       7034       7045       7044  
      6913       6914       6925       6924       7034       7035       7046       7045  
      6914       6915       6926       6925       7035       7036       7047       7046  
      6915       6916       6927       6926       7036       7037       7048       7047  
      6916       6917       6928       6927       7037       7038       7049       7048  
      6917       6918       6929       6928       7038       7039       7050       7049  
      6918       6919       6930       6929       7039       7040       7051       7050  
      6920       6921       6932       6931       7041       7042       7053       7052  
      6921       6922       6933       6932       7042       7043       7054       7053  
      6922       6923       6934       6933       7043       7044       7055       7054  
      6923       6924       6935       6934       7044       7045       7056       7055  
      6924       6925       6936       6935       7045       7046       7057       7056  
      6925       6926       6937       6936       7046       7047       7058       7057  
      6926       6927       6938       6937       7047       7048       7059       7058  
      6927       6928       6939       6938       7048       7049       7060       7059  
      6928       6929       6940       6939       7049       7050       7061       7060  
      6929       6930       6941       6940       7050       7051       7062       7061  
      6931       6932       6943       6942       7052       7053       7064       7063  
      6932       6933       6944       6943       7053       7054       7065       7064  
      6933       6934       6945       6944       7054       7055       7066       7065  
      6934       6935       6946       6945       7055       7056       7067       7066  
      6935       6936       6947       6946       7056       7057       7068       7067  
      6936       6937       6948       6947       7057       7058       7069       7068  
      6937       6938       6949       6948       7058       7059       7070       7069  
      6938       6939       6950       6949       7059       7060       7071       7070  
      6939       6940       6951       6950       7060       7061       7072       7071  
      6940       6941       6952       6951       7061       7062       7073       7072  
      6942       6943       6954       6953       7063       7064       7075       7074  
      6943       6944       6955       6954       7064       7065       7076       7075  
      6944       6945       6956       6955       7065       7066       7077       7076  
      6945       6946       6957       6956       7066       7067       7078       7077  
      6946       6947       6958       6957       7067       7068       7079       7078  
      6947       6948       6959       6958       7068       7069       7080       7079  
      6948       6949       6960       6959       7069       7070       7081       7080  
      6949       6950       6961       6960       7070       7071       7082       7081  
      6950       6951       6962       6961       7071       7072       7083       7082  
      6951       6952       6963       6962       7072       7073       7084       7083  
      6953       6954       6965       6964       7074       7075       7086       7085  
      6954       6955       6966       6965       7075       7076       7087       7086  
      6955       6956       6967       6966       7076       7077       7088       7087  
      6956       6957       6968       6967       7077       7078       7089       7088  
      6957       6958       6969       6968       7078       7079       7090       7089  
      6958       6959       6970       6969       7079       7080       7091       7090  
      6959       6960       6971       6970       7080       7081       7092       7091  
      6960       6961       6972       6971       7081       7082       7093       7092  
      6961       6962       6973       6972       7082       7083       7094       7093  
      6962       6963       6974       6973       7083       7084       7095       7094  
      6964       6965       6976       6975       7085       7086       7097       7096  
      6965       6966       6977       6976       7086       7087       7098       7097  
      6966       6967       6978       6977       7087       7088       7099       7098  
      6967       6968       6979       6978       7088       7089       7100       7099  
      6968       6969       6980       6979       7089       7090       7101       7100  
      6969       6970       6981       6980       7090       7091       7102       7101  
      6970       6971       6982       6981       7091       7092       7103       7102  
      6971       6972       6983       6982       7092       7093       7104       7103  
      6972       6973       6984       6983       7093       7094       7105       7104  
      6973       6974       6985       6984       7094       7095       7106       7105  
      6975       6976       6987       6986       7096       7097       7108       7107  
      6976       6977       6988       6987       7097       7098       7109       7108  
      6977       6978       6989       6988       7098       7099       7110       7109  
      6978       6979       6990       6989       7099       7100       7111       7110  
      6979       6980       6991       6990       7100       7101       7112       7111  
      6980       6981       6992       6991       7101       7102       7113       7112  
      6981       6982       6993       6992       7102       7103       7114       7113  
      6982       6983       6994       6993       7103       7104       7115       7114  
      6983       6984       6995       6994       7104       7105       7116       7115  
      6984       6985       6996       6995       7105       7106       7117       7116  
      6986       6987       6998       6997       7107       7108       7119       7118  
      6987       6988       6999       6998       7108       7109       7120       7119  
      6988       6989       7000       6999       7109       7110       7121       7120  
      6989       6990       7001       7000       7110       7111       7122       7121  
      6990       6991       7002       7001       7111       7112       7123       7122  
      6991       6992       7003       7002       7112       7113       7124       7123  
      6992       6993       7004       7003       7113       7114       7125       7124  
      6993       6994       7005       7004       7114       7115       7126       7125  
      6994       6995       7006       7005       7115       7116       7127       7126  
      6995       6996       7007       7006       7116       7117       7128       7127  
      6997       6998       7009       7008       7118       7119       7130       7129  
      6998       6999       7010       7009       7119       7120       7131       7130  
      6999       7000       7011       7010       7120       7121       7132       7131  
      7000       7001       7012       7011       7121       7122       7133       7132  
      7001       7002       7013       7012       7122       7123       7134       7133  
      7002       7003       7014       7013       7123       7124       7135       7134  
      7003       7004       7015       7014       7124       7125       7136       7135  
      7004       7005       7016       7015       7125       7126       7137       7136  
      7005       7006       7017       7016       7126       7127       7138       7137  
      7006       7007       7018       7017       7127       7128       7139       7138  
      7019       7020       7031       7030       7140       7141       7152       7151  
      7020       7021       7032       7031       7141       7142       7153       7152  
      7021       7022       7033       7032       7142       7143       7154       7153  
      7022       7023       7034       7033       7143       7144       7155       7154  
      7023       7024       7035       7034       7144       7145       7156       7155  
      7024       7025       7036       7035       7145       7146       7157       7156  
      7025       7026       7037       7036       7146       7147       7158       7157  
      7026       7027       7038       7037       7147       7148       7159       7158  
      7027       7028       7039       7038       7148       7149       7160       7159  
      7028       7029       7040       7039       7149       7150       7161       7160  
      7030       7031       7042       7041       7151       7152       7163       7162  
      7031       7032       7043       7042       7152       7153       7164       7163  
      7032       7033       7044       7043       7153       7154       7165       7164  
      7033       7034       7045       7044       7154       7155       7166       7165  
      7034       7035       7046       7045       7155       7156       7167       7166  
      7035       7036       7047       7046       7156       7157       7168       7167  
      7036       7037       7048       7047       7157       7158       7169       7168  
      7037       7038       7049       7048       7158       7159       7170       7169  
      7038       7039       7050       7049       7159       7160       7171       7170  
      7039       7040       7051       7050       7160       7161       7172       7171  
      7041       7042       7053       7052       7162       7163       7174       7173  
      7042       7043       7054       7053       7163       7164       7175       7174  
      7043       7044       7055       7054       7164       7165       7176       7175  
      7044       7045       7056       7055       7165       7166       7177       7176  
      7045       7046       7057       7056       7166       7167       7178       7177  
      7046       7047       7058       7057       7167       7168       7179       7178  
      7047       7048       7059       7058       7168       7169       7180       7179  
      7048       7049       7060       7059       7169       7170       7181       7180  
      7049       7050       7061       7060       7170       7171       7182       7181  
      7050       7051       7062       7061       7171       7172       7183       7182  
      7052       7053       7064       7063       7173       7174       7185       7184  
      7053       7054       7065       7064       7174       7175       7186       7185  
      7054       7055       7066       7065       7175       7176       7187       7186  
      7055       7056       7067       7066       7176       7177       7188       7187  
      7056       7057       7068       7067       7177       7178       7189       7188  
      7057       7058       7069       7068       7178       7179       7190       7189  
      7058       7059       7070       7069       7179       7180       7191       7190  
      7059       7060       7071       7070       7180       7181       7192       7191  
      7060       7061       7072       7071       7181       7182       7193       7192  
      7061       7062       7073       7072       7182       7183       7194       7193  
      7063       7064       7075       7074       7184       7185       7196       7195  
      7064       7065       7076       7075       7185       7186       7197       7196  
      7065       7066       7077       7076       7186       7187       7198       7197  
      7066       7067       7078       7077       7187       7188       7199       7198  
      7067       7068       7079       7078       7188       7189       7200       7199  
      7068       7069       7080       7079       7189       7190       7201       7200  
      7069       7070       7081       7080       7190       7191       7202       7201  
      7070       7071       7082       7081       7191       7192       7203       7202  
      7071       7072       7083       7082       7192       7193       7204       7203  
      7072       7073       7084       7083       7193       7194       7205       7204  
      7074       7075       7086       7085       7195       7196       7207       7206  
      7075       7076       7087       7086       7196       7197       7208       7207  
      7076       7077       7088       7087       7197       7198       7209       7208  
      7077       7078       7089       7088       7198       7199       7210       7209  
      7078       7079       7090       7089       7199       7200       7211       7210  
      7079       7080       7091       7090       7200       7201       7212       7211  
      7080       7081       7092       7091       7201       7202       7213       7212  
      7081       7082       7093       7092       7202       7203       7214       7213  
      7082       7083       7094       7093       7203       7204       7215       7214  
      7083       7084       7095       7094       7204       7205       7216       7215  
      7085       7086       7097       7096       7206       7207       7218       7217  
      7086       7087       7098       7097       7207       7208       7219       7218  
      7087       7088       7099       7098       7208       7209       7220       7219  
      7088       7089       7100       7099       7209       7210       7221       7220  
      7089       7090       7101       7100       7210       7211       7222       7221  
      7090       7091       7102       7101       7211       7212       7223       7222  
      7091       7092       7103       7102       7212       7213       7224       7223  
      7092       7093       7104       7103       7213       7214       7225       7224  
      7093       7094       7105       7104       7214       7215       7226       7225  
      7094       7095       7106       7105       7215       7216       7227       7226  
      7096       7097       7108       7107       7217       7218       7229       7228  
      7097       7098       7109       7108       7218       7219       7230       7229  
      7098       7099       7110       7109       7219       7220       7231       7230  
      7099       7100       7111       7110       7220       7221       7232       7231  
      7100       7101       7112       7111       7221       7222       7233       7232  
      7101       7102       7113       7112       7222       7223       7234       7233  
      7102       7103       7114       7113       7223       7224       7235       7234  
      7103       7104       7115       7114       7224       7225       7236       7235  
      7104       7105       7116       7115       7225       7226       7237       7236  
      7105       7106       7117       7116       7226       7227       7238       7237  
      7107       7108       7119       7118       7228       7229       7240       7239  
      7108       7109       7120       7119       7229       7230       7241       7240  
      7109       7110       7121       7120       7230       7231       7242       7241  
      7110       7111       7122       7121       7231       7232       7243       7242  
      7111       7112       7123       7122       7232       7233       7244       7243  
      7112       7113       7124       7123       7233       7234       7245       7244  
      7113       7114       7125       7124       7234       7235       7246       7245  
      7114       7115       7126       7125       7235       7236       7247       7246  
      7115       7116       7127       7126       7236       7237       7248       7247  
      7116       7117       7128       7127       7237       7238       7249       7248  
      7118       7119       7130       7129       7239       7240       7251       7250  
      7119       7120       7131       7130       7240       7241       7252       7251  
      7120       7121       7132       7131       7241       7242       7253       7252  
      7121       7122       7133       7132       7242       7243       7254       7253  
      7122       7123       7134       7133       7243       7244       7255       7254  
      7123       7124       7135       7134       7244       7245       7256       7255  
      7124       7125       7136       7135       7245       7246       7257       7256  
      7125       7126       7137       7136       7246       7247       7258       7257  
      7126       7127       7138       7137       7247       7248       7259       7258  
      7127       7128       7139       7138       7248       7249       7260       7259  
      7140       7141       7152       7151       7261       7262       7273       7272  
      7141       7142       7153       7152       7262       7263       7274       7273  
      7142       7143       7154       7153       7263       7264       7275       7274  
      7143       7144       7155       7154       7264       7265       7276       7275  
      7144       7145       7156       7155       7265       7266       7277       7276  
      7145       7146       7157       7156       7266       7267       7278       7277  
      7146       7147       7158       7157       7267       7268       7279       7278  
      7147       7148       7159       7158       7268       7269       7280       7279  
      7148       7149       7160       7159       7269       7270       7281       7280  
      7149       7150       7161       7160       7270       7271       7282       7281  
      7151       7152       7163       7162       7272       7273       7284       7283  
      7152       7153       7164       7163       7273       7274       7285       7284  
      7153       7154       7165       7164       7274       7275       7286       7285  
      7154       7155       7166       7165       7275       7276       7287       7286  
      7155       7156       7167       7166       7276       7277       7288       7287  
      7156       7157       7168       7167       7277       7278       7289       7288  
      7157       7158       7169       7168       7278       7279       7290       7289  
      7158       7159       7170       7169       7279       7280       7291       7290  
      7159       7160       7171       7170       7280       7281       7292       7291  
      7160       7161       7172       7171       7281       7282       7293       7292  
      7162       7163       7174       7173       7283       7284       7295       7294  
      7163       7164       7175       7174       7284       7285       7296       7295  
      7164       7165       7176       7175       7285       7286       7297       7296  
      7165       7166       7177       7176       7286       7287       7298       7297  
      7166       7167       7178       7177       7287       7288       7299       7298  
      7167       7168       7179       7178       7288       7289       7300       7299  
      7168       7169       7180       7179       7289       7290       7301       7300  
      7169       7170       7181       7180       7290       7291       7302       7301  
      7170       7171       7182       7181       7291       7292       7303       7302  
      7171       7172       7183       7182       7292       7293       7304       7303  
      7173       7174       7185       7184       7294       7295       7306       7305  
      7174       7175       7186       7185       7295       7296       7307       7306  
      7175       7176       7187       7186       7296       7297       7308       7307  
      7176       7177       7188       7187       7297       7298       7309       7308  
      7177       7178       7189       7188       7298       7299       7310       7309  
      7178       7179       7190       7189       7299       7300       7311       7310  
      7179       7180       7191       7190       7300       7301       7312       7311  
      7180       7181       7192       7191       7301       7302       7313       7312  
      7181       7182       7193       7192       7302       7303       7314       7313  
      7182       7183       7194       7193       7303       7304       7315       7314  
      7184       7185       7196       7195       7305       7306       7317       7316  
      7185       7186       7197       7196       7306       7307       7318       7317  
      7186       7187       7198       7197       7307       7308       7319       7318  
      7187       7188       7199       7198       7308       7309       7320       7319  
      7188       7189       7200       7199       7309       7310       7321       7320  
      7189       7190       7201       7200       7310       7311       7322       7321  
      7190       7191       7202       7201       7311       7312       7323       7322  
      7191       7192       7203       7202       7312       7313       7324       7323  
      7192       7193       7204       7203       7313       7314       7325       7324  
      7193       7194       7205       7204       7314       7315       7326       7325  
      7195       7196       7207       7206       7316       7317       7328       7327  
      7196       7197       7208       7207       7317       7318       7329       7328  
      7197       7198       7209       7208       7318       7319       7330       7329  
      7198       7199       7210       7209       7319       7320       7331       7330  
      7199       7200       7211       7210       7320       7321       7332       7331  
      7200       7201       7212       7211       7321       7322       7333       7332  
      7201       7202       7213       7212       7322       7323       7334       7333  
      7202       7203       7214       7213       7323       7324       7335       7334  
      7203       7204       7215       7214       7324       7325       7336       7335  
      7204       7205       7216       7215       7325       7326       7337       7336  
      7206       7207       7218       7217       7327       7328       7339       7338  
      7207       7208       7219       7218       7328       7329       7340       7339  
      7208       7209       7220       7219       7329       7330       7341       7340  
      7209       7210       7221       7220       7330       7331       7342       7341  
      7210       7211       7222       7221       7331       7332       7343       7342  
      7211       7212       7223       7222       7332       7333       7344       7343  
      7212       7213       7224       7223       7333       7334       7345       7344  
      7213       7214       7225       7224       7334       7335       7346       7345  
      7214       7215       7226       7225       7335       7336       7347       7346  
      7215       7216       7227       7226       7336       7337       7348       7347  
      7217       7218       7229       7228       7338       7339       7350       7349  
      7218       7219       7230       7229       7339       7340       7351       7350  
      7219       7220       7231       7230       7340       7341       7352       7351  
      7220       7221       7232       7231       7341       7342       7353       7352  
      7221       7222       7233       7232       7342       7343       7354       7353  
      7222       7223       7234       7233       7343       7344       7355       7354  
      7223       7224       7235       7234       7344       7345       7356       7355  
      7224       7225       7236       7235       7345       7346       7357       7356  
      7225       7226       7237       7236       7346       7347       7358       7357  
      7226       7227       7238       7237       7347       7348       7359       7358  
      7228       7229       7240       7239       7349       7350       7361       7360  
      7229       7230       7241       7240       7350       7351       7362       7361  
      7230       7231       7242       7241       7351       7352       7363       7362  
      7231       7232       7243       7242       7352       7353       7364       7363  
      7232       7233       7244       7243       7353       7354       7365       7364  
      7233       7234       7245       7244       7354       7355       7366       7365  
      7234       7235       7246       7245       7355       7356       7367       7366  
      7235       7236       7247       7246       7356       7357       7368       7367  
      7236       7237       7248       7247       7357       7358       7369       7368  
      7237       7238       7249       7248       7358       7359       7370       7369  
      7239       7240       7251       7250       7360       7361       7372       7371  
      7240       7241       7252       7251       7361       7362       7373       7372  
      7241       7242       7253       7252       7362       7363       7374       7373  
      7242       7243       7254       7253       7363       7364       7375       7374  
      7243       7244       7255       7254       7364       7365       7376       7375  
      7244       7245       7256       7255       7365       7366       7377       7376  
      7245       7246       7257       7256       7366       7367       7378       7377  
      7246       7247       7258       7257       7367       7368       7379       7378  
      7247       7248       7259       7258       7368       7369       7380       7379  
      7248       7249       7260       7259       7369       7370       7381       7380  
      7261       7262       7273       7272       7382       7383       7394       7393  
      7262       7263       7274       7273       7383       7384       7395       7394  
      7263       7264       7275       7274       7384       7385       7396       7395  
      7264       7265       7276       7275       7385       7386       7397       7396  
      7265       7266       7277       7276       7386       7387       7398       7397  
      7266       7267       7278       7277       7387       7388       7399       7398  
      7267       7268       7279       7278       7388       7389       7400       7399  
      7268       7269       7280       7279       7389       7390       7401       7400  
      7269       7270       7281       7280       7390       7391       7402       7401  
      7270       7271       7282       7281       7391       7392       7403       7402  
      7272       7273       7284       7283       7393       7394       7405       7404  
      7273       7274       7285       7284       7394       7395       7406       7405  
      7274       7275       7286       7285       7395       7396       7407       7406  
      7275       7276       7287       7286       7396       7397       7408       7407  
      7276       7277       7288       7287       7397       7398       7409       7408  
      7277       7278       7289       7288       7398       7399       7410       7409  
      7278       7279       7290       7289       7399       7400       7411       7410  
      7279       7280       7291       7290       7400       7401       7412       7411  
      7280       7281       7292       7291       7401       7402       7413       7412  
      7281       7282       7293       7292       7402       7403       7414       7413  
      7283       7284       7295       7294       7404       7405       7416       7415  
      7284       7285       7296       7295       7405       7406       7417       7416  
      7285       7286       7297       7296       7406       7407       7418       7417  
      7286       7287       7298       7297       7407       7408       7419       7418  
      7287       7288       7299       7298       7408       7409       7420       7419  
      7288       7289       7300       7299       7409       7410       7421       7420  
      7289       7290       7301       7300       7410       7411       7422       7421  
      7290       7291       7302       7301       7411       7412       7423       7422  
      7291       7292       7303       7302       7412       7413       7424       7423  
      7292       7293       7304       7303       7413       7414       7425       7424  
      7294       7295       7306       7305       7415       7416       7427       7426  
      7295       7296       7307       7306       7416       7417       7428       7427  
      7296       7297       7308       7307       7417       7418       7429       7428  
      7297       7298       7309       7308       7418       7419       7430       7429  
      7298       7299       7310       7309       7419       7420       7431       7430  
      7299       7300       7311       7310       7420       7421       7432       7431  
      7300       7301       7312       7311       7421       7422       7433       7432  
      7301       7302       7313       7312       7422       7423       7434       7433  
      7302       7303       7314       7313       7423       7424       7435       7434  
      7303       7304       7315       7314       7424       7425       7436       7435  
      7305       7306       7317       7316       7426       7427       7438       7437  
      7306       7307       7318       7317       7427       7428       7439       7438  
      7307       7308       7319       7318       7428       7429       7440       7439  
      7308       7309       7320       7319       7429       7430       7441       7440  
      7309       7310       7321       7320       7430       7431       7442       7441  
      7310       7311       7322       7321       7431       7432       7443       7442  
      7311       7312       7323       7322       7432       7433       7444       7443  
      7312       7313       7324       7323       7433       7434       7445       7444  
      7313       7314       7325       7324       7434       7435       7446       7445  
      7314       7315       7326       7325       7435       7436       7447       7446  
      7316       7317       7328       7327       7437       7438       7449       7448  
      7317       7318       7329       7328       7438       7439       7450       7449  
      7318       7319       7330       7329       7439       7440       7451       7450  
      7319       7320       7331       7330       7440       7441       7452       7451  
      7320       7321       7332       7331       7441       7442       7453       7452  
      7321       7322       7333       7332       7442       7443       7454       7453  
      7322       7323       7334       7333       7443       7444       7455       7454  
      7323       7324       7335       7334       7444       7445       7456       7455  
      7324       7325       7336       7335       7445       7446       7457       7456  
      7325       7326       7337       7336       7446       7447       7458       7457  
      7327       7328       7339       7338       7448       7449       7460       7459  
      7328       7329       7340       7339       7449       7450       7461       7460  
      7329       7330       7341       7340       7450       7451       7462       7461  
      7330       7331       7342       7341       7451       7452       7463       7462  
      7331       7332       7343       7342       7452       7453       7464       7463  
      7332       7333       7344       7343       7453       7454       7465       7464  
      7333       7334       7345       7344       7454       7455       7466       7465  
      7334       7335       7346       7345       7455       7456       7467       7466  
      7335       7336       7347       7346       7456       7457       7468       7467  
      7336       7337       7348       7347       7457       7458       7469       7468  
      7338       7339       7350       7349       7459       7460       7471       7470  
      7339       7340       7351       7350       7460       7461       7472       7471  
      7340       7341       7352       7351       7461       7462       7473       7472  
      7341       7342       7353       7352       7462       7463       7474       7473  
      7342       7343       7354       7353       7463       7464       7475       7474  
      7343       7344       7355       7354       7464       7465       7476       7475  
      7344       7345       7356       7355       7465       7466       7477       7476  
      7345       7346       7357       7356       7466       7467       7478       7477  
      7346       7347       7358       7357       7467       7468       7479       7478  
      7347       7348       7359       7358       7468       7469       7480       7479  
      7349       7350       7361       7360       7470       7471       7482       7481  
      7350       7351       7362       7361       7471       7472       7483       7482  
      7351       7352       7363       7362       7472       7473       7484       7483  
      7352       7353       7364       7363       7473       7474       7485       7484  
      7353       7354       7365       7364       7474       7475       7486       7485  
      7354       7355       7366       7365       7475       7476       7487       7486  
      7355       7356       7367       7366       7476       7477       7488       7487  
      7356       7357       7368       7367       7477       7478       7489       7488  
      7357       7358       7369       7368       7478       7479       7490       7489  
      7358       7359       7370       7369       7479       7480       7491       7490  
      7360       7361       7372       7371       7481       7482       7493       7492  
      7361       7362       7373       7372       7482       7483       7494       7493  
      7362       7363       7374       7373       7483       7484       7495       7494  
      7363       7364       7375       7374       7484       7485       7496       7495  
      7364       7365       7376       7375       7485       7486       7497       7496  
      7365       7366       7377       7376       7486       7487       7498       7497  
      7366       7367       7378       7377       7487       7488       7499       7498  
      7367       7368       7379       7378       7488       7489       7500       7499  
      7368       7369       7380       7379       7489       7490       7501       7500  
      7369       7370       7381       7380       7490       7491       7502       7501  
      7382       7383       7394       7393       7503       7504       7515       7514  
      7383       7384       7395       7394       7504       7505       7516       7515  
      7384       7385       7396       7395       7505       7506       7517       7516  
      7385       7386       7397       7396       7506       7507       7518       7517  
      7386       7387       7398       7397       7507       7508       7519       7518  
      7387       7388       7399       7398       7508       7509       7520       7519  
      7388       7389       7400       7399       7509       7510       7521       7520  
      7389       7390       7401       7400       7510       7511       7522       7521  
      7390       7391       7402       7401       7511       7512       7523       7522  
      7391       7392       7403       7402       7512       7513       7524       7523  
      7393       7394       7405       7404       7514       7515       7526       7525  
      7394       7395       7406       7405       7515       7516       7527       7526  
      7395       7396       7407       7406       7516       7517       7528       7527  
      7396       7397       7408       7407       7517       7518       7529       7528  
      7397       7398       7409       7408       7518       7519       7530       7529  
      7398       7399       7410       7409       7519       7520       7531       7530  
      7399       7400       7411       7410       7520       7521       7532       7531  
      7400       7401       7412       7411       7521       7522       7533       7532  
      7401       7402       7413       7412       7522       7523       7534       7533  
      7402       7403       7414       7413       7523       7524       7535       7534  
      7404       7405       7416       7415       7525       7526       7537       7536  
      7405       7406       7417       7416       7526       7527       7538       7537  
      7406       7407       7418       7417       7527       7528       7539       7538  
      7407       7408       7419       7418       7528       7529       7540       7539  
      7408       7409       7420       7419       7529       7530       7541       7540  
      7409       7410       7421       7420       7530       7531       7542       7541  
      7410       7411       7422       7421       7531       7532       7543       7542  
      7411       7412       7423       7422       7532       7533       7544       7543  
      7412       7413       7424       7423       7533       7534       7545       7544  
      7413       7414       7425       7424       7534       7535       7546       7545  
      7415       7416       7427       7426       7536       7537       7548       7547  
      7416       7417       7428       7427       7537       7538       7549       7548  
      7417       7418       7429       7428       7538       7539       7550       7549  
      7418       7419       7430       7429       7539       7540       7551       7550  
      7419       7420       7431       7430       7540       7541       7552       7551  
      7420       7421       7432       7431       7541       7542       7553       7552  
      7421       7422       7433       7432       7542       7543       7554       7553  
      7422       7423       7434       7433       7543       7544       7555       7554  
      7423       7424       7435       7434       7544       7545       7556       7555  
      7424       7425       7436       7435       7545       7546       7557       7556  
      7426       7427       7438       7437       7547       7548       7559       7558  
      7427       7428       7439       7438       7548       7549       7560       7559  
      7428       7429       7440       7439       7549       7550       7561       7560  
      7429       7430       7441       7440       7550       7551       7562       7561  
      7430       7431       7442       7441       7551       7552       7563       7562  
      7431       7432       7443       7442       7552       7553       7564       7563  
      7432       7433       7444       7443       7553       7554       7565       7564  
      7433       7434       7445       7444       7554       7555       7566       7565  
      7434       7435       7446       7445       7555       7556       7567       7566  
      7435       7436       7447       7446       7556       7557       7568       7567  
      7437       7438       7449       7448       7558       7559       7570       7569  
      7438       7439       7450       7449       7559       7560       7571       7570  
      7439       7440       7451       7450       7560       7561       7572       7571  
      7440       7441       7452       7451       7561       7562       7573       7572  
      7441       7442       7453       7452       7562       7563       7574       7573  
      7442       7443       7454       7453       7563       7564       7575       7574  
      7443       7444       7455       7454       7564       7565       7576       7575  
      7444       7445       7456       7455       7565       7566       7577       7576  
      7445       7446       7457       7456       7566       7567       7578       7577  
      7446       7447       7458       7457       7567       7568       7579       7578  
      7448       7449       7460       7459       7569       7570       7581       7580  
      7449       7450       7461       7460       7570       7571       7582       7581  
      7450       7451       7462       7461       7571       7572       7583       7582  
      7451       7452       7463       7462       7572       7573       7584       7583  
      7452       7453       7464       7463       7573       7574       7585       7584  
      7453       7454       7465       7464       7574       7575       7586       7585  
      7454       7455       7466       7465       7575       7576       7587       7586  
      7455       7456       7467       7466       7576       7577       7588       7587  
      7456       7457       7468       7467       7577       7578       7589       7588  
      7457       7458       7469       7468       7578       7579       7590       7589  
      7459       7460       7471       7470       7580       7581       7592       7591  
      7460       7461       7472       7471       7581       7582       7593       7592  
      7461       7462       7473       7472       7582       7583       7594       7593  
      7462       7463       7474       7473       7583       7584       7595       7594  
      7463       7464       7475       7474       7584       7585       7596       7595  
      7464       7465       7476       7475       7585       7586       7597       7596  
      7465       7466       7477       7476       7586       7587       7598       7597  
      7466       7467       7478       7477       7587       7588       7599       7598  
      7467       7468       7479       7478       7588       7589       7600       7599  
      7468       7469       7480       7479       7589       7590       7601       7600  
      7470       7471       7482       7481       7591       7592       7603       7602  
      7471       7472       7483       7482       7592       7593       7604       7603  
      7472       7473       7484       7483       7593       7594       7605       7604  
      7473       7474       7485       7484       7594       7595       7606       7605  
      7474       7475       7486       7485       7595       7596       7607       7606  
      7475       7476       7487       7486       7596       7597       7608       7607  
      7476       7477       7488       7487       7597       7598       7609       7608  
      7477       7478       7489       7488       7598       7599       7610       7609  
      7478       7479       7490       7489       7599       7600       7611       7610  
      7479       7480       7491       7490       7600       7601       7612       7611  
      7481       7482       7493       7492       7602       7603       7614       7613  
      7482       7483       7494       7493       7603       7604       7615       7614  
      7483       7484       7495       7494       7604       7605       7616       7615  
      7484       7485       7496       7495       7605       7606       7617       7616  
      7485       7486       7497       7496       7606       7607       7618       7617  
      7486       7487       7498       7497       7607       7608       7619       7618  
      7487       7488       7499       7498       7608       7609       7620       7619  
      7488       7489       7500       7499       7609       7610       7621       7620  
      7489       7490       7501       7500       7610       7611       7622       7621  
      7490       7491       7502       7501       7611       7612       7623       7622  
      7503       7504       7515       7514       7624       7625       7636       7635  
      7504       7505       7516       7515       7625       7626       7637       7636  
      7505       7506       7517       7516       7626       7627       7638       7637  
      7506       7507       7518       7517       7627       7628       7639       7638  
      7507       7508       7519       7518       7628       7629       7640       7639  
      7508       7509       7520       7519       7629       7630       7641       7640  
      7509       7510       7521       7520       7630       7631       7642       7641  
      7510       7511       7522       7521       7631       7632       7643       7642  
      7511       7512       7523       7522       7632       7633       7644       7643  
      7512       7513       7524       7523       7633       7634       7645       7644  
      7514       7515       7526       7525       7635       7636       7647       7646  
      7515       7516       7527       7526       7636       7637       7648       7647  
      7516       7517       7528       7527       7637       7638       7649       7648  
      7517       7518       7529       7528       7638       7639       7650       7649  
      7518       7519       7530       7529       7639       7640       7651       7650  
      7519       7520       7531       7530       7640       7641       7652       7651  
      7520       7521       7532       7531       7641       7642       7653       7652  
      7521       7522       7533       7532       7642       7643       7654       7653  
      7522       7523       7534       7533       7643       7644       7655       7654  
      7523       7524       7535       7534       7644       7645       7656       7655  
      7525       7526       7537       7536       7646       7647       7658       7657  
      7526       7527       7538       7537       7647       7648       7659       7658  
      7527       7528       7539       7538       7648       7649       7660       7659  
      7528       7529       7540       7539       7649       7650       7661       7660  
      7529       7530       7541       7540       7650       7651       7662       7661  
      7530       7531       7542       7541       7651       7652       7663       7662  
      7531       7532       7543       7542       7652       7653       7664       7663  
      7532       7533       7544       7543       7653       7654       7665       7664  
      7533       7534       7545       7544       7654       7655       7666       7665  
      7534       7535       7546       7545       7655       7656       7667       7666  
      7536       7537       7548       7547       7657       7658       7669       7668  
      7537       7538       7549       7548       7658       7659       7670       7669  
      7538       7539       7550       7549       7659       7660       7671       7670  
      7539       7540       7551       7550       7660       7661       7672       7671  
      7540       7541       7552       7551       7661       7662       7673       7672  
      7541       7542       7553       7552       7662       7663       7674       7673  
      7542       7543       7554       7553       7663       7664       7675       7674  
      7543       7544       7555       7554       7664       7665       7676       7675  
      7544       7545       7556       7555       7665       7666       7677       7676  
      7545       7546       7557       7556       7666       7667       7678       7677  
      7547       7548       7559       7558       7668       7669       7680       7679  
      7548       7549       7560       7559       7669       7670       7681       7680  
      7549       7550       7561       7560       7670       7671       7682       7681  
      7550       7551       7562       7561       7671       7672       7683       7682  
      7551       7552       7563       7562       7672       7673       7684       7683  
      7552       7553       7564       7563       7673       7674       7685       7684  
      7553       7554       7565       7564       7674       7675       7686       7685  
      7554       7555       7566       7565       7675       7676       7687       7686  
      7555       7556       7567       7566       7676       7677       7688       7687  
      7556       7557       7568       7567       7677       7678       7689       7688  
      7558       7559       7570       7569       7679       7680       7691       7690  
      7559       7560       7571       7570       7680       7681       7692       7691  
      7560       7561       7572       7571       7681       7682       7693       7692  
      7561       7562       7573       7572       7682       7683       7694       7693  
      7562       7563       7574       7573       7683       7684       7695       7694  
      7563       7564       7575       7574       7684       7685       7696       7695  
      7564       7565       7576       7575       7685       7686       7697       7696  
      7565       7566       7577       7576       7686       7687       7698       7697  
      7566       7567       7578       7577       7687       7688       7699       7698  
      7567       7568       7579       7578       7688       7689       7700       7699  
      7569       7570       7581       7580       7690       7691       7702       7701  
      7570       7571       7582       7581       7691       7692       7703       7702  
      7571       7572       7583       7582       7692       7693       7704       7703  
      7572       7573       7584       7583       7693       7694       7705       7704  
      7573       7574       7585       7584       7694       7695       7706       7705  
      7574       7575       7586       7585       7695       7696       7707       7706  
      7575       7576       7587       7586       7696       7697       7708       7707  
      7576       7577       7588       7587       7697       7698       7709       7708  
      7577       7578       7589       7588       7698       7699       7710       7709  
      7578       7579       7590       7589       7699       7700       7711       7710  
      7580       7581       7592       7591       7701       7702       7713       7712  
      7581       7582       7593       7592       7702       7703       7714       7713  
      7582       7583       7594       7593       7703       7704       7715       7714  
      7583       7584       7595       7594       7704       7705       7716       7715  
      7584       7585       7596       7595       7705       7706       7717       7716  
      7585       7586       7597       7596       7706       7707       7718       7717  
      7586       7587       7598       7597       7707       7708       7719       7718  
      7587       7588       7599       7598       7708       7709       7720       7719  
      7588       7589       7600       7599       7709       7710       7721       7720  
      7589       7590       7601       7600       7710       7711       7722       7721  
      7591       7592       7603       7602       7712       7713       7724       7723  
      7592       7593       7604       7603       7713       7714       7725       7724  
      7593       7594       7605       7604       7714       7715       7726       7725  
      7594       7595       7606       7605       7715       7716       7727       7726  
      7595       7596       7607       7606       7716       7717       7728       7727  
      7596       7597       7608       7607       7717       7718       7729       7728  
      7597       7598       7609       7608       7718       7719       7730       7729  
      7598       7599       7610       7609       7719       7720       7731       7730  
      7599       7600       7611       7610       7720       7721       7732       7731  
      7600       7601       7612       7611       7721       7722       7733       7732  
      7602       7603       7614       7613       7723       7724       7735       7734  
      7603       7604       7615       7614       7724       7725       7736       7735  
      7604       7605       7616       7615       7725       7726       7737       7736  
      7605       7606       7617       7616       7726       7727       7738       7737  
      7606       7607       7618       7617       7727       7728       7739       7738  
      7607       7608       7619       7618       7728       7729       7740       7739  
      7608       7609       7620       7619       7729       7730       7741       7740  
      7609       7610       7621       7620       7730       7731       7742       7741  
      7610       7611       7622       7621       7731       7732       7743       7742  
      7611       7612       7623       7622       7732       7733       7744       7743  
      7624       7625       7636       7635       7745       7746       7757       7756  
      7625       7626       7637       7636       7746       7747       7758       7757  
      7626       7627       7638       7637       7747       7748       7759       7758  
      7627       7628       7639       7638       7748       7749       7760       7759  
      7628       7629       7640       7639       7749       7750       7761       7760  
      7629       7630       7641       7640       7750       7751       7762       7761  
      7630       7631       7642       7641       7751       7752       7763       7762  
      7631       7632       7643       7642       7752       7753       7764       7763  
      7632       7633       7644       7643       7753       7754       7765       7764  
      7633       7634       7645       7644       7754       7755       7766       7765  
      7635       7636       7647       7646       7756       7757       7768       7767  
      7636       7637       7648       7647       7757       7758       7769       7768  
      7637       7638       7649       7648       7758       7759       7770       7769  
      7638       7639       7650       7649       7759       7760       7771       7770  
      7639       7640       7651       7650       7760       7761       7772       7771  
      7640       7641       7652       7651       7761       7762       7773       7772  
      7641       7642       7653       7652       7762       7763       7774       7773  
      7642       7643       7654       7653       7763       7764       7775       7774  
      7643       7644       7655       7654       7764       7765       7776       7775  
      7644       7645       7656       7655       7765       7766       7777       7776  
      7646       7647       7658       7657       7767       7768       7779       7778  
      7647       7648       7659       7658       7768       7769       7780       7779  
      7648       7649       7660       7659       7769       7770       7781       7780  
      7649       7650       7661       7660       7770       7771       7782       7781  
      7650       7651       7662       7661       7771       7772       7783       7782  
      7651       7652       7663       7662       7772       7773       7784       7783  
      7652       7653       7664       7663       7773       7774       7785       7784  
      7653       7654       7665       7664       7774       7775       7786       7785  
      7654       7655       7666       7665       7775       7776       7787       7786  
      7655       7656       7667       7666       7776       7777       7788       7787  
      7657       7658       7669       7668       7778       7779       7790       7789  
      7658       7659       7670       7669       7779       7780       7791       7790  
      7659       7660       7671       7670       7780       7781       7792       7791  
      7660       7661       7672       7671       7781       7782       7793       7792  
      7661       7662       7673       7672       7782       7783       7794       7793  
      7662       7663       7674       7673       7783       7784       7795       7794  
      7663       7664       7675       7674       7784       7785       7796       7795  
      7664       7665       7676       7675       7785       7786       7797       7796  
      7665       7666       7677       7676       7786       7787       7798       7797  
      7666       7667       7678       7677       7787       7788       7799       7798  
      7668       7669       7680       7679       7789       7790       7801       7800  
      7669       7670       7681       7680       7790       7791       7802       7801  
      7670       7671       7682       7681       7791       7792       7803       7802  
      7671       7672       7683       7682       7792       7793       7804       7803  
      7672       7673       7684       7683       7793       7794       7805       7804  
      7673       7674       7685       7684       7794       7795       7806       7805  
      7674       7675       7686       7685       7795       7796       7807       7806  
      7675       7676       7687       7686       7796       7797       7808       7807  
      7676       7677       7688       7687       7797       7798       7809       7808  
      7677       7678       7689       7688       7798       7799       7810       7809  
      7679       7680       7691       7690       7800       7801       7812       7811  
      7680       7681       7692       7691       7801       7802       7813       7812  
      7681       7682       7693       7692       7802       7803       7814       7813  
      7682       7683       7694       7693       7803       7804       7815       7814  
      7683       7684       7695       7694       7804       7805       7816       7815  
      7684       7685       7696       7695       7805       7806       7817       7816  
      7685       7686       7697       7696       7806       7807       7818       7817  
      7686       7687       7698       7697       7807       7808       7819       7818  
      7687       7688       7699       7698       7808       7809       7820       7819  
      7688       7689       7700       7699       7809       7810       7821       7820  
      7690       7691       7702       7701       7811       7812       7823       7822  
      7691       7692       7703       7702       7812       7813       7824       7823  
      7692       7693       7704       7703       7813       7814       7825       7824  
      7693       7694       7705       7704       7814       7815       7826       7825  
      7694       7695       7706       7705       7815       7816       7827       7826  
      7695       7696       7707       7706       7816       7817       7828       7827  
      7696       7697       7708       7707       7817       7818       7829       7828  
      7697       7698       7709       7708       7818       7819       7830       7829  
      7698       7699       7710       7709       7819       7820       7831       7830  
      7699       7700       7711       7710       7820       7821       7832       7831  
      7701       7702       7713       7712       7822       7823       7834       7833  
      7702       7703       7714       7713       7823       7824       7835       7834  
      7703       7704       7715       7714       7824       7825       7836       7835  
      7704       7705       7716       7715       7825       7826       7837       7836  
      7705       7706       7717       7716       7826       7827       7838       7837  
      7706       7707       7718       7717       7827       7828       7839       7838  
      7707       7708       7719       7718       7828       7829       7840       7839  
      7708       7709       7720       7719       7829       7830       7841       7840  
      7709       7710       7721       7720       7830       7831       7842       7841  
      7710       7711       7722       7721       7831       7832       7843       7842  
      7712       7713       7724       7723       7833       7834       7845       7844  
      7713       7714       7725       7724       7834       7835       7846       7845  
      7714       7715       7726       7725       7835       7836       7847       7846  
      7715       7716       7727       7726       7836       7837       7848       7847  
      7716       7717       7728       7727       7837       7838       7849       7848  
      7717       7718       7729       7728       7838       7839       7850       7849  
      7718       7719       7730       7729       7839       7840       7851       7850  
      7719       7720       7731       7730       7840       7841       7852       7851  
      7720       7721       7732       7731       7841       7842       7853       7852  
      7721       7722       7733       7732       7842       7843       7854       7853  
      7723       7724       7735       7734       7844       7845       7856       7855  
      7724       7725       7736       7735       7845       7846       7857       7856  
      7725       7726       7737       7736       7846       7847       7858       7857  
      7726       7727       7738       7737       7847       7848       7859       7858  
      7727       7728       7739       7738       7848       7849       7860       7859  
      7728       7729       7740       7739       7849       7850       7861       7860  
      7729       7730       7741       7740       7850       7851       7862       7861  
      7730       7731       7742       7741       7851       7852       7863       7862  
      7731       7732       7743       7742       7852       7853       7864       7863  
      7732       7733       7744       7743       7853       7854       7865       7864  
      7745       7746       7757       7756       7866       7867       7878       7877  
      7746       7747       7758       7757       7867       7868       7879       7878  
      7747       7748       7759       7758       7868       7869       7880       7879  
      7748       7749       7760       7759       7869       7870       7881       7880  
      7749       7750       7761       7760       7870       7871       7882       7881  
      7750       7751       7762       7761       7871       7872       7883       7882  
      7751       7752       7763       7762       7872       7873       7884       7883  
      7752       7753       7764       7763       7873       7874       7885       7884  
      7753       7754       7765       7764       7874       7875       7886       7885  
      7754       7755       7766       7765       7875       7876       7887       7886  
      7756       7757       7768       7767       7877       7878       7889       7888  
      7757       7758       7769       7768       7878       7879       7890       7889  
      7758       7759       7770       7769       7879       7880       7891       7890  
      7759       7760       7771       7770       7880       7881       7892       7891  
      7760       7761       7772       7771       7881       7882       7893       7892  
      7761       7762       7773       7772       7882       7883       7894       7893  
      7762       7763       7774       7773       7883       7884       7895       7894  
      7763       7764       7775       7774       7884       7885       7896       7895  
      7764       7765       7776       7775       7885       7886       7897       7896  
      7765       7766       7777       7776       7886       7887       7898       7897  
      7767       7768       7779       7778       7888       7889       7900       7899  
      7768       7769       7780       7779       7889       7890       7901       7900  
      7769       7770       7781       7780       7890       7891       7902       7901  
      7770       7771       7782       7781       7891       7892       7903       7902  
      7771       7772       7783       7782       7892       7893       7904       7903  
      7772       7773       7784       7783       7893       7894       7905       7904  
      7773       7774       7785       7784       7894       7895       7906       7905  
      7774       7775       7786       7785       7895       7896       7907       7906  
      7775       7776       7787       7786       7896       7897       7908       7907  
      7776       7777       7788       7787       7897       7898       7909       7908  
      7778       7779       7790       7789       7899       7900       7911       7910  
      7779       7780       7791       7790       7900       7901       7912       7911  
      7780       7781       7792       7791       7901       7902       7913       7912  
      7781       7782       7793       7792       7902       7903       7914       7913  
      7782       7783       7794       7793       7903       7904       7915       7914  
      7783       7784       7795       7794       7904       7905       7916       7915  
      7784       7785       7796       7795       7905       7906       7917       7916  
      7785       7786       7797       7796       7906       7907       7918       7917  
      7786       7787       7798       7797       7907       7908       7919       7918  
      7787       7788       7799       7798       7908       7909       7920       7919  
      7789       7790       7801       7800       7910       7911       7922       7921  
      7790       7791       7802       7801       7911       7912       7923       7922  
      7791       7792       7803       7802       7912       7913       7924       7923  
      7792       7793       7804       7803       7913       7914       7925       7924  
      7793       7794       7805       7804       7914       7915       7926       7925  
      7794       7795       7806       7805       7915       7916       7927       7926  
      7795       7796       7807       7806       7916       7917       7928       7927  
      7796       7797       7808       7807       7917       7918       7929       7928  
      7797       7798       7809       7808       7918       7919       7930       7929  
      7798       7799       7810       7809       7919       7920       7931       7930  
      7800       7801       7812       7811       7921       7922       7933       7932  
      7801       7802       7813       7812       7922       7923       7934       7933  
      7802       7803       7814       7813       7923       7924       7935       7934  
      7803       7804       7815       7814       7924       7925       7936       7935  
      7804       7805       7816       7815       7925       7926       7937       7936  
      7805       7806       7817       7816       7926       7927       7938       7937  
      7806       7807       7818       7817       7927       7928       7939       7938  
      7807       7808       7819       7818       7928       7929       7940       7939  
      7808       7809       7820       7819       7929       7930       7941       7940  
      7809       7810       7821       7820       7930       7931       7942       7941  
      7811       7812       7823       7822       7932       7933       7944       7943  
      7812       7813       7824       7823       7933       7934       7945       7944  
      7813       7814       7825       7824       7934       7935       7946       7945  
      7814       7815       7826       7825       7935       7936       7947       7946  
      7815       7816       7827       7826       7936       7937       7948       7947  
      7816       7817       7828       7827       7937       7938       7949       7948  
      7817       7818       7829       7828       7938       7939       7950       7949  
      7818       7819       7830       7829       7939       7940       7951       7950  
      7819       7820       7831       7830       7940       7941       7952       7951  
      7820       7821       7832       7831       7941       7942       7953       7952  
      7822       7823       7834       7833       7943       7944       7955       7954  
      7823       7824       7835       7834       7944       7945       7956       7955  
      7824       7825       7836       7835       7945       7946       7957       7956  
      7825       7826       7837       7836       7946       7947       7958       7957  
      7826       7827       7838       7837       7947       7948       7959       7958  
      7827       7828       7839       7838       7948       7949       7960       7959  
      7828       7829       7840       7839       7949       7950       7961       7960  
      7829       7830       7841       7840       7950       7951       7962       7961  
      7830       7831       7842       7841       7951       7952       7963       7962  
      7831       7832       7843       7842       7952       7953       7964       7963  
      7833       7834       7845       7844       7954       7955       7966       7965  
      7834       7835       7846       7845       7955       7956       7967       7966  
      7835       7836       7847       7846       7956       7957       7968       7967  
      7836       7837       7848       7847       7957       7958       7969       7968  
      7837       7838       7849       7848       7958       7959       7970       7969  
      7838       7839       7850       7849       7959       7960       7971       7970  
      7839       7840       7851       7850       7960       7961       7972       7971  
      7840       7841       7852       7851       7961       7962       7973       7972  
      7841       7842       7853       7852       7962       7963       7974       7973  
      7842       7843       7854       7853       7963       7964       7975       7974  
      7844       7845       7856       7855       7965       7966       7977       7976  
      7845       7846       7857       7856       7966       7967       7978       7977  
      7846       7847       7858       7857       7967       7968       7979       7978  
      7847       7848       7859       7858       7968       7969       7980       7979  
      7848       7849       7860       7859       7969       7970       7981       7980  
      7849       7850       7861       7860       7970       7971       7982       7981  
      7850       7851       7862       7861       7971       7972       7983       7982  
      7851       7852       7863       7862       7972       7973       7984       7983  
      7852       7853       7864       7863       7973       7974       7985       7984  
      7853       7854       7865       7864       7974       7975       7986       7985  
      7866       7867       7878       7877       7987       7988       7999       7998  
      7867       7868       7879       7878       7988       7989       8000       7999  
      7868       7869       7880       7879       7989       7990       8001       8000  
      7869       7870       7881       7880       7990       7991       8002       8001  
      7870       7871       7882       7881       7991       7992       8003       8002  
      7871       7872       7883       7882       7992       7993       8004       8003  
      7872       7873       7884       7883       7993       7994       8005       8004  
      7873       7874       7885       7884       7994       7995       8006       8005  
      7874       7875       7886       7885       7995       7996       8007       8006  
      7875       7876       7887       7886       7996       7997       8008       8007  
      7877       7878       7889       7888       7998       7999       8010       8009  
      7878       7879       7890       7889       7999       8000       8011       8010  
      7879       7880       7891       7890       8000       8001       8012       8011  
      7880       7881       7892       7891       8001       8002       8013       8012  
      7881       7882       7893       7892       8002       8003       8014       8013  
      7882       7883       7894       7893       8003       8004       8015       8014  
      7883       7884       7895       7894       8004       8005       8016       8015  
      7884       7885       7896       7895       8005       8006       8017       8016  
      7885       7886       7897       7896       8006       8007       8018       8017  
      7886       7887       7898       7897       8007       8008       8019       8018  
      7888       7889       7900       7899       8009       8010       8021       8020  
      7889       7890       7901       7900       8010       8011       8022       8021  
      7890       7891       7902       7901       8011       8012       8023       8022  
      7891       7892       7903       7902       8012       8013       8024       8023  
      7892       7893       7904       7903       8013       8014       8025       8024  
      7893       7894       7905       7904       8014       8015       8026       8025  
      7894       7895       7906       7905       8015       8016       8027       8026  
      7895       7896       7907       7906       8016       8017       8028       8027  
      7896       7897       7908       7907       8017       8018       8029       8028  
      7897       7898       7909       7908       8018       8019       8030       8029  
      7899       7900       7911       7910       8020       8021       8032       8031  
      7900       7901       7912       7911       8021       8022       8033       8032  
      7901       7902       7913       7912       8022       8023       8034       8033  
      7902       7903       7914       7913       8023       8024       8035       8034  
      7903       7904       7915       7914       8024       8025       8036       8035  
      7904       7905       7916       7915       8025       8026       8037       8036  
      7905       7906       7917       7916       8026       8027       8038       8037  
      7906       7907       7918       7917       8027       8028       8039       8038  
      7907       7908       7919       7918       8028       8029       8040       8039  
      7908       7909       7920       7919       8029       8030       8041       8040  
      7910       7911       7922       7921       8031       8032       8043       8042  
      7911       7912       7923       7922       8032       8033       8044       8043  
      7912       7913       7924       7923       8033       8034       8045       8044  
      7913       7914       7925       7924       8034       8035       8046       8045  
      7914       7915       7926       7925       8035       8036       8047       8046  
      7915       7916       7927       7926       8036       8037       8048       8047  
      7916       7917       7928       7927       8037       8038       8049       8048  
      7917       7918       7929       7928       8038       8039       8050       8049  
      7918       7919       7930       7929       8039       8040       8051       8050  
      7919       7920       7931       7930       8040       8041       8052       8051  
      7921       7922       7933       7932       8042       8043       8054       8053  
      7922       7923       7934       7933       8043       8044       8055       8054  
      7923       7924       7935       7934       8044       8045       8056       8055  
      7924       7925       7936       7935       8045       8046       8057       8056  
      7925       7926       7937       7936       8046       8047       8058       8057  
      7926       7927       7938       7937       8047       8048       8059       8058  
      7927       7928       7939       7938       8048       8049       8060       8059  
      7928       7929       7940       7939       8049       8050       8061       8060  
      7929       7930       7941       7940       8050       8051       8062       8061  
      7930       7931       7942       7941       8051       8052       8063       8062  
      7932       7933       7944       7943       8053       8054       8065       8064  
      7933       7934       7945       7944       8054       8055       8066       8065  
      7934       7935       7946       7945       8055       8056       8067       8066  
      7935       7936       7947       7946       8056       8057       8068       8067  
      7936       7937       7948       7947       8057       8058       8069       8068  
      7937       7938       7949       7948       8058       8059       8070       8069  
      7938       7939       7950       7949       8059       8060       8071       8070  
      7939       7940       7951       7950       8060       8061       8072       8071  
      7940       7941       7952       7951       8061       8062       8073       8072  
      7941       7942       7953       7952       8062       8063       8074       8073  
      7943       7944       7955       7954       8064       8065       8076       8075  
      7944       7945       7956       7955       8065       8066       8077       8076  
      7945       7946       7957       7956       8066       8067       8078       8077  
      7946       7947       7958       7957       8067       8068       8079       8078  
      7947       7948       7959       7958       8068       8069       8080       8079  
      7948       7949       7960       7959       8069       8070       8081       8080  
      7949       7950       7961       7960       8070       8071       8082       8081  
      7950       7951       7962       7961       8071       8072       8083       8082  
      7951       7952       7963       7962       8072       8073       8084       8083  
      7952       7953       7964       7963       8073       8074       8085       8084  
      7954       7955       7966       7965       8075       8076       8087       8086  
      7955       7956       7967       7966       8076       8077       8088       8087  
      7956       7957       7968       7967       8077       8078       8089       8088  
      7957       7958       7969       7968       8078       8079       8090       8089  
      7958       7959       7970       7969       8079       8080       8091       8090  
      7959       7960       7971       7970       8080       8081       8092       8091  
      7960       7961       7972       7971       8081       8082       8093       8092  
      7961       7962       7973       7972       8082       8083       8094       8093  
      7962       7963       7974       7973       8083       8084       8095       8094  
      7963       7964       7975       7974       8084       8085       8096       8095  
      7965       7966       7977       7976       8086       8087       8098       8097  
      7966       7967       7978       7977       8087       8088       8099       8098  
      7967       7968       7979       7978       8088       8089       8100       8099  
      7968       7969       7980       7979       8089       8090       8101       8100  
      7969       7970       7981       7980       8090       8091       8102       8101  
      7970       7971       7982       7981       8091       8092       8103       8102  
      7971       7972       7983       7982       8092       8093       8104       8103  
      7972       7973       7984       7983       8093       8094       8105       8104  
      7973       7974       7985       7984       8094       8095       8106       8105  
      7974       7975       7986       7985       8095       8096       8107       8106  
      7987       7988       7999       7998       8108       8109       8120       8119  
      7988       7989       8000       7999       8109       8110       8121       8120  
      7989       7990       8001       8000       8110       8111       8122       8121  
      7990       7991       8002       8001       8111       8112       8123       8122  
      7991       7992       8003       8002       8112       8113       8124       8123  
      7992       7993       8004       8003       8113       8114       8125       8124  
      7993       7994       8005       8004       8114       8115       8126       8125  
      7994       7995       8006       8005       8115       8116       8127       8126  
      7995       7996       8007       8006       8116       8117       8128       8127  
      7996       7997       8008       8007       8117       8118       8129       8128  
      7998       7999       8010       8009       8119       8120       8131       8130  
      7999       8000       8011       8010       8120       8121       8132       8131  
      8000       8001       8012       8011       8121       8122       8133       8132  
      8001       8002       8013       8012       8122       8123       8134       8133  
      8002       8003       8014       8013       8123       8124       8135       8134  
      8003       8004       8015       8014       8124       8125       8136       8135  
      8004       8005       8016       8015       8125       8126       8137       8136  
      8005       8006       8017       8016       8126       8127       8138       8137  
      8006       8007       8018       8017       8127       8128       8139       8138  
      8007       8008       8019       8018       8128       8129       8140       8139  
      8009       8010       8021       8020       8130       8131       8142       8141  
      8010       8011       8022       8021       8131       8132       8143       8142  
      8011       8012       8023       8022       8132       8133       8144       8143  
      8012       8013       8024       8023       8133       8134       8145       8144  
      8013       8014       8025       8024       8134       8135       8146       8145  
      8014       8015       8026       8025       8135       8136       8147       8146  
      8015       8016       8027       8026       8136       8137       8148       8147  
      8016       8017       8028       8027       8137       8138       8149       8148  
      8017       8018       8029       8028       8138       8139       8150       8149  
      8018       8019       8030       8029       8139       8140       8151       8150  
      8020       8021       8032       8031       8141       8142       8153       8152  
      8021       8022       8033       8032       8142       8143       8154       8153  
      8022       8023       8034       8033       8143       8144       8155       8154  
      8023       8024       8035       8034       8144       8145       8156       8155  
      8024       8025       8036       8035       8145       8146       8157       8156  
      8025       8026       8037       8036       8146       8147       8158       8157  
      8026       8027       8038       8037       8147       8148       8159       8158  
      8027       8028       8039       8038       8148       8149       8160       8159  
      8028       8029       8040       8039       8149       8150       8161       8160  
      8029       8030       8041       8040       8150       8151       8162       8161  
      8031       8032       8043       8042       8152       8153       8164       8163  
      8032       8033       8044       8043       8153       8154       8165       8164  
      8033       8034       8045       8044       8154       8155       8166       8165  
      8034       8035       8046       8045       8155       8156       8167       8166  
      8035       8036       8047       8046       8156       8157       8168       8167  
      8036       8037       8048       8047       8157       8158       8169       8168  
      8037       8038       8049       8048       8158       8159       8170       8169  
      8038       8039       8050       8049       8159       8160       8171       8170  
      8039       8040       8051       8050       8160       8161       8172       8171  
      8040       8041       8052       8051       8161       8162       8173       8172  
      8042       8043       8054       8053       8163       8164       8175       8174  
      8043       8044       8055       8054       8164       8165       8176       8175  
      8044       8045       8056       8055       8165       8166       8177       8176  
      8045       8046       8057       8056       8166       8167       8178       8177  
      8046       8047       8058       8057       8167       8168       8179       8178  
      8047       8048       8059       8058       8168       8169       8180       8179  
      8048       8049       8060       8059       8169       8170       8181       8180  
      8049       8050       8061       8060       8170       8171       8182       8181  
      8050       8051       8062       8061       8171       8172       8183       8182  
      8051       8052       8063       8062       8172       8173       8184       8183  
      8053       8054       8065       8064       8174       8175       8186       8185  
      8054       8055       8066       8065       8175       8176       8187       8186  
      8055       8056       8067       8066       8176       8177       8188       8187  
      8056       8057       8068       8067       8177       8178       8189       8188  
      8057       8058       8069       8068       8178       8179       8190       8189  
      8058       8059       8070       8069       8179       8180       8191       8190  
      8059       8060       8071       8070       8180       8181       8192       8191  
      8060       8061       8072       8071       8181       8182       8193       8192  
      8061       8062       8073       8072       8182       8183       8194       8193  
      8062       8063       8074       8073       8183       8184       8195       8194  
      8064       8065       8076       8075       8185       8186       8197       8196  
      8065       8066       8077       8076       8186       8187       8198       8197  
      8066       8067       8078       8077       8187       8188       8199       8198  
      8067       8068       8079       8078       8188       8189       8200       8199  
      8068       8069       8080       8079       8189       8190       8201       8200  
      8069       8070       8081       8080       8190       8191       8202       8201  
      8070       8071       8082       8081       8191       8192       8203       8202  
      8071       8072       8083       8082       8192       8193       8204       8203  
      8072       8073       8084       8083       8193       8194       8205       8204  
      8073       8074       8085       8084       8194       8195       8206       8205  
      8075       8076       8087       8086       8196       8197       8208       8207  
      8076       8077       8088       8087       8197       8198       8209       8208  
      8077       8078       8089       8088       8198       8199       8210       8209  
      8078       8079       8090       8089       8199       8200       8211       8210  
      8079       8080       8091       8090       8200       8201       8212       8211  
      8080       8081       8092       8091       8201       8202       8213       8212  
      8081       8082       8093       8092       8202       8203       8214       8213  
      8082       8083       8094       8093       8203       8204       8215       8214  
      8083       8084       8095       8094       8204       8205       8216       8215  
      8084       8085       8096       8095       8205       8206       8217       8216  
      8086       8087       8098       8097       8207       8208       8219       8218  
      8087       8088       8099       8098       8208       8209       8220       8219  
      8088       8089       8100       8099       8209       8210       8221       8220  
      8089       8090       8101       8100       8210       8211       8222       8221  
      8090       8091       8102       8101       8211       8212       8223       8222  
      8091       8092       8103       8102       8212       8213       8224       8223  
      8092       8093       8104       8103       8213       8214       8225       8224  
      8093       8094       8105       8104       8214       8215       8226       8225  
      8094       8095       8106       8105       8215       8216       8227       8226  
      8095       8096       8107       8106       8216       8217       8228       8227  
      8108       8109       8120       8119       8229       8230       8241       8240  
      8109       8110       8121       8120       8230       8231       8242       8241  
      8110       8111       8122       8121       8231       8232       8243       8242  
      8111       8112       8123       8122       8232       8233       8244       8243  
      8112       8113       8124       8123       8233       8234       8245       8244  
      8113       8114       8125       8124       8234       8235       8246       8245  
      8114       8115       8126       8125       8235       8236       8247       8246  
      8115       8116       8127       8126       8236       8237       8248       8247  
      8116       8117       8128       8127       8237       8238       8249       8248  
      8117       8118       8129       8128       8238       8239       8250       8249  
      8119       8120       8131       8130       8240       8241       8252       8251  
      8120       8121       8132       8131       8241       8242       8253       8252  
      8121       8122       8133       8132       8242       8243       8254       8253  
      8122       8123       8134       8133       8243       8244       8255       8254  
      8123       8124       8135       8134       8244       8245       8256       8255  
      8124       8125       8136       8135       8245       8246       8257       8256  
      8125       8126       8137       8136       8246       8247       8258       8257  
      8126       8127       8138       8137       8247       8248       8259       8258  
      8127       8128       8139       8138       8248       8249       8260       8259  
      8128       8129       8140       8139       8249       8250       8261       8260  
      8130       8131       8142       8141       8251       8252       8263       8262  
      8131       8132       8143       8142       8252       8253       8264       8263  
      8132       8133       8144       8143       8253       8254       8265       8264  
      8133       8134       8145       8144       8254       8255       8266       8265  
      8134       8135       8146       8145       8255       8256       8267       8266  
      8135       8136       8147       8146       8256       8257       8268       8267  
      8136       8137       8148       8147       8257       8258       8269       8268  
      8137       8138       8149       8148       8258       8259       8270       8269  
      8138       8139       8150       8149       8259       8260       8271       8270  
      8139       8140       8151       8150       8260       8261       8272       8271  
      8141       8142       8153       8152       8262       8263       8274       8273  
      8142       8143       8154       8153       8263       8264       8275       8274  
      8143       8144       8155       8154       8264       8265       8276       8275  
      8144       8145       8156       8155       8265       8266       8277       8276  
      8145       8146       8157       8156       8266       8267       8278       8277  
      8146       8147       8158       8157       8267       8268       8279       8278  
      8147       8148       8159       8158       8268       8269       8280       8279  
      8148       8149       8160       8159       8269       8270       8281       8280  
      8149       8150       8161       8160       8270       8271       8282       8281  
      8150       8151       8162       8161       8271       8272       8283       8282  
      8152       8153       8164       8163       8273       8274       8285       8284  
      8153       8154       8165       8164       8274       8275       8286       8285  
      8154       8155       8166       8165       8275       8276       8287       8286  
      8155       8156       8167       8166       8276       8277       8288       8287  
      8156       8157       8168       8167       8277       8278       8289       8288  
      8157       8158       8169       8168       8278       8279       8290       8289  
      8158       8159       8170       8169       8279       8280       8291       8290  
      8159       8160       8171       8170       8280       8281       8292       8291  
      8160       8161       8172       8171       8281       8282       8293       8292  
      8161       8162       8173       8172       8282       8283       8294       8293  
      8163       8164       8175       8174       8284       8285       8296       8295  
      8164       8165       8176       8175       8285       8286       8297       8296  
      8165       8166       8177       8176       8286       8287       8298       8297  
      8166       8167       8178       8177       8287       8288       8299       8298  
      8167       8168       8179       8178       8288       8289       8300       8299  
      8168       8169       8180       8179       8289       8290       8301       8300  
      8169       8170       8181       8180       8290       8291       8302       8301  
      8170       8171       8182       8181       8291       8292       8303       8302  
      8171       8172       8183       8182       8292       8293       8304       8303  
      8172       8173       8184       8183       8293       8294       8305       8304  
      8174       8175       8186       8185       8295       8296       8307       8306  
      8175       8176       8187       8186       8296       8297       8308       8307  
      8176       8177       8188       8187       8297       8298       8309       8308  
      8177       8178       8189       8188       8298       8299       8310       8309  
      8178       8179       8190       8189       8299       8300       8311       8310  
      8179       8180       8191       8190       8300       8301       8312       8311  
      8180       8181       8192       8191       8301       8302       8313       8312  
      8181       8182       8193       8192       8302       8303       8314       8313  
      8182       8183       8194       8193       8303       8304       8315       8314  
      8183       8184       8195       8194       8304       8305       8316       8315  
      8185       8186       8197       8196       8306       8307       8318       8317  
      8186       8187       8198       8197       8307       8308       8319       8318  
      8187       8188       8199       8198       8308       8309       8320       8319  
      8188       8189       8200       8199       8309       8310       8321       8320  
      8189       8190       8201       8200       8310       8311       8322       8321  
      8190       8191       8202       8201       8311       8312       8323       8322  
      8191       8192       8203       8202       8312       8313       8324       8323  
      8192       8193       8204       8203       8313       8314       8325       8324  
      8193       8194       8205       8204       8314       8315       8326       8325  
      8194       8195       8206       8205       8315       8316       8327       8326  
      8196       8197       8208       8207       8317       8318       8329       8328  
      8197       8198       8209       8208       8318       8319       8330       8329  
      8198       8199       8210       8209       8319       8320       8331       8330  
      8199       8200       8211       8210       8320       8321       8332       8331  
      8200       8201       8212       8211       8321       8322       8333       8332  
      8201       8202       8213       8212       8322       8323       8334       8333  
      8202       8203       8214       8213       8323       8324       8335       8334  
      8203       8204       8215       8214       8324       8325       8336       8335  
      8204       8205       8216       8215       8325       8326       8337       8336  
      8205       8206       8217       8216       8326       8327       8338       8337  
      8207       8208       8219       8218       8328       8329       8340       8339  
      8208       8209       8220       8219       8329       8330       8341       8340  
      8209       8210       8221       8220       8330       8331       8342       8341  
      8210       8211       8222       8221       8331       8332       8343       8342  
      8211       8212       8223       8222       8332       8333       8344       8343  
      8212       8213       8224       8223       8333       8334       8345       8344  
      8213       8214       8225       8224       8334       8335       8346       8345  
      8214       8215       8226       8225       8335       8336       8347       8346  
      8215       8216       8227       8226       8336       8337       8348       8347  
      8216       8217       8228       8227       8337       8338       8349       8348  
      8229       8230       8241       8240       8350       8351       8362       8361  
      8230       8231       8242       8241       8351       8352       8363       8362  
      8231       8232       8243       8242       8352       8353       8364       8363  
      8232       8233       8244       8243       8353       8354       8365       8364  
      8233       8234       8245       8244       8354       8355       8366       8365  
      8234       8235       8246       8245       8355       8356       8367       8366  
      8235       8236       8247       8246       8356       8357       8368       8367  
      8236       8237       8248       8247       8357       8358       8369       8368  
      8237       8238       8249       8248       8358       8359       8370       8369  
      8238       8239       8250       8249       8359       8360       8371       8370  
      8240       8241       8252       8251       8361       8362       8373       8372  
      8241       8242       8253       8252       8362       8363       8374       8373  
      8242       8243       8254       8253       8363       8364       8375       8374  
      8243       8244       8255       8254       8364       8365       8376       8375  
      8244       8245       8256       8255       8365       8366       8377       8376  
      8245       8246       8257       8256       8366       8367       8378       8377  
      8246       8247       8258       8257       8367       8368       8379       8378  
      8247       8248       8259       8258       8368       8369       8380       8379  
      8248       8249       8260       8259       8369       8370       8381       8380  
      8249       8250       8261       8260       8370       8371       8382       8381  
      8251       8252       8263       8262       8372       8373       8384       8383  
      8252       8253       8264       8263       8373       8374       8385       8384  
      8253       8254       8265       8264       8374       8375       8386       8385  
      8254       8255       8266       8265       8375       8376       8387       8386  
      8255       8256       8267       8266       8376       8377       8388       8387  
      8256       8257       8268       8267       8377       8378       8389       8388  
      8257       8258       8269       8268       8378       8379       8390       8389  
      8258       8259       8270       8269       8379       8380       8391       8390  
      8259       8260       8271       8270       8380       8381       8392       8391  
      8260       8261       8272       8271       8381       8382       8393       8392  
      8262       8263       8274       8273       8383       8384       8395       8394  
      8263       8264       8275       8274       8384       8385       8396       8395  
      8264       8265       8276       8275       8385       8386       8397       8396  
      8265       8266       8277       8276       8386       8387       8398       8397  
      8266       8267       8278       8277       8387       8388       8399       8398  
      8267       8268       8279       8278       8388       8389       8400       8399  
      8268       8269       8280       8279       8389       8390       8401       8400  
      8269       8270       8281       8280       8390       8391       8402       8401  
      8270       8271       8282       8281       8391       8392       8403       8402  
      8271       8272       8283       8282       8392       8393       8404       8403  
      8273       8274       8285       8284       8394       8395       8406       8405  
      8274       8275       8286       8285       8395       8396       8407       8406  
      8275       8276       8287       8286       8396       8397       8408       8407  
      8276       8277       8288       8287       8397       8398       8409       8408  
      8277       8278       8289       8288       8398       8399       8410       8409  
      8278       8279       8290       8289       8399       8400       8411       8410  
      8279       8280       8291       8290       8400       8401       8412       8411  
      8280       8281       8292       8291       8401       8402       8413       8412  
      8281       8282       8293       8292       8402       8403       8414       8413  
      8282       8283       8294       8293       8403       8404       8415       8414  
      8284       8285       8296       8295       8405       8406       8417       8416  
      8285       8286       8297       8296       8406       8407       8418       8417  
      8286       8287       8298       8297       8407       8408       8419       8418  
      8287       8288       8299       8298       8408       8409       8420       8419  
      8288       8289       8300       8299       8409       8410       8421       8420  
      8289       8290       8301       8300       8410       8411       8422       8421  
      8290       8291       8302       8301       8411       8412       8423       8422  
      8291       8292       8303       8302       8412       8413       8424       8423  
      8292       8293       8304       8303       8413       8414       8425       8424  
      8293       8294       8305       8304       8414       8415       8426       8425  
      8295       8296       8307       8306       8416       8417       8428       8427  
      8296       8297       8308       8307       8417       8418       8429       8428  
      8297       8298       8309       8308       8418       8419       8430       8429  
      8298       8299       8310       8309       8419       8420       8431       8430  
      8299       8300       8311       8310       8420       8421       8432       8431  
      8300       8301       8312       8311       8421       8422       8433       8432  
      8301       8302       8313       8312       8422       8423       8434       8433  
      8302       8303       8314       8313       8423       8424       8435       8434  
      8303       8304       8315       8314       8424       8425       8436       8435  
      8304       8305       8316       8315       8425       8426       8437       8436  
      8306       8307       8318       8317       8427       8428       8439       8438  
      8307       8308       8319       8318       8428       8429       8440       8439  
      8308       8309       8320       8319       8429       8430       8441       8440  
      8309       8310       8321       8320       8430       8431       8442       8441  
      8310       8311       8322       8321       8431       8432       8443       8442  
      8311       8312       8323       8322       8432       8433       8444       8443  
      8312       8313       8324       8323       8433       8434       8445       8444  
      8313       8314       8325       8324       8434       8435       8446       8445  
      8314       8315       8326       8325       8435       8436       8447       8446  
      8315       8316       8327       8326       8436       8437       8448       8447  
      8317       8318       8329       8328       8438       8439       8450       8449  
      8318       8319       8330       8329       8439       8440       8451       8450  
      8319       8320       8331       8330       8440       8441       8452       8451  
      8320       8321       8332       8331       8441       8442       8453       8452  
      8321       8322       8333       8332       8442       8443       8454       8453  
      8322       8323       8334       8333       8443       8444       8455       8454  
      8323       8324       8335       8334       8444       8445       8456       8455  
      8324       8325       8336       8335       8445       8446       8457       8456  
      8325       8326       8337       8336       8446       8447       8458       8457  
      8326       8327       8338       8337       8447       8448       8459       8458  
      8328       8329       8340       8339       8449       8450       8461       8460  
      8329       8330       8341       8340       8450       8451       8462       8461  
      8330       8331       8342       8341       8451       8452       8463       8462  
      8331       8332       8343       8342       8452       8453       8464       8463  
      8332       8333       8344       8343       8453       8454       8465       8464  
      8333       8334       8345       8344       8454       8455       8466       8465  
      8334       8335       8346       8345       8455       8456       8467       8466  
      8335       8336       8347       8346       8456       8457       8468       8467  
      8336       8337       8348       8347       8457       8458       8469       8468  
      8337       8338       8349       8348       8458       8459       8470       8469  
      8350       8351       8362       8361       8471       8472       8483       8482  
      8351       8352       8363       8362       8472       8473       8484       8483  
      8352       8353       8364       8363       8473       8474       8485       8484  
      8353       8354       8365       8364       8474       8475       8486       8485  
      8354       8355       8366       8365       8475       8476       8487       8486  
      8355       8356       8367       8366       8476       8477       8488       8487  
      8356       8357       8368       8367       8477       8478       8489       8488  
      8357       8358       8369       8368       8478       8479       8490       8489  
      8358       8359       8370       8369       8479       8480       8491       8490  
      8359       8360       8371       8370       8480       8481       8492       8491  
      8361       8362       8373       8372       8482       8483       8494       8493  
      8362       8363       8374       8373       8483       8484       8495       8494  
      8363       8364       8375       8374       8484       8485       8496       8495  
      8364       8365       8376       8375       8485       8486       8497       8496  
      8365       8366       8377       8376       8486       8487       8498       8497  
      8366       8367       8378       8377       8487       8488       8499       8498  
      8367       8368       8379       8378       8488       8489       8500       8499  
      8368       8369       8380       8379       8489       8490       8501       8500  
      8369       8370       8381       8380       8490       8491       8502       8501  
      8370       8371       8382       8381       8491       8492       8503       8502  
      8372       8373       8384       8383       8493       8494       8505       8504  
      8373       8374       8385       8384       8494       8495       8506       8505  
      8374       8375       8386       8385       8495       8496       8507       8506  
      8375       8376       8387       8386       8496       8497       8508       8507  
      8376       8377       8388       8387       8497       8498       8509       8508  
      8377       8378       8389       8388       8498       8499       8510       8509  
      8378       8379       8390       8389       8499       8500       8511       8510  
      8379       8380       8391       8390       8500       8501       8512       8511  
      8380       8381       8392       8391       8501       8502       8513       8512  
      8381       8382       8393       8392       8502       8503       8514       8513  
      8383       8384       8395       8394       8504       8505       8516       8515  
      8384       8385       8396       8395       8505       8506       8517       8516  
      8385       8386       8397       8396       8506       8507       8518       8517  
      8386       8387       8398       8397       8507       8508       8519       8518  
      8387       8388       8399       8398       8508       8509       8520       8519  
      8388       8389       8400       8399       8509       8510       8521       8520  
      8389       8390       8401       8400       8510       8511       8522       8521  
      8390       8391       8402       8401       8511       8512       8523       8522  
      8391       8392       8403       8402       8512       8513       8524       8523  
      8392       8393       8404       8403       8513       8514       8525       8524  
      8394       8395       8406       8405       8515       8516       8527       8526  
      8395       8396       8407       8406       8516       8517       8528       8527  
      8396       8397       8408       8407       8517       8518       8529       8528  
      8397       8398       8409       8408       8518       8519       8530       8529  
      8398       8399       8410       8409       8519       8520       8531       8530  
      8399       8400       8411       8410       8520       8521       8532       8531  
      8400       8401       8412       8411       8521       8522       8533       8532  
      8401       8402       8413       8412       8522       8523       8534       8533  
      8402       8403       8414       8413       8523       8524       8535       8534  
      8403       8404       8415       8414       8524       8525       8536       8535  
      8405       8406       8417       8416       8526       8527       8538       8537  
      8406       8407       8418       8417       8527       8528       8539       8538  
      8407       8408       8419       8418       8528       8529       8540       8539  
      8408       8409       8420       8419       8529       8530       8541       8540  
      8409       8410       8421       8420       8530       8531       8542       8541  
      8410       8411       8422       8421       8531       8532       8543       8542  
      8411       8412       8423       8422       8532       8533       8544       8543  
      8412       8413       8424       8423       8533       8534       8545       8544  
      8413       8414       8425       8424       8534       8535       8546       8545  
      8414       8415       8426       8425       8535       8536       8547       8546  
      8416       8417       8428       8427       8537       8538       8549       8548  
      8417       8418       8429       8428       8538       8539       8550       8549  
      8418       8419       8430       8429       8539       8540       8551       8550  
      8419       8420       8431       8430       8540       8541       8552       8551  
      8420       8421       8432       8431       8541       8542       8553       8552  
      8421       8422       8433       8432       8542       8543       8554       8553  
      8422       8423       8434       8433       8543       8544       8555       8554  
      8423       8424       8435       8434       8544       8545       8556       8555  
      8424       8425       8436       8435       8545       8546       8557       8556  
      8425       8426       8437       8436       8546       8547       8558       8557  
      8427       8428       8439       8438       8548       8549       8560       8559  
      8428       8429       8440       8439       8549       8550       8561       8560  
      8429       8430       8441       8440       8550       8551       8562       8561  
      8430       8431       8442       8441       8551       8552       8563       8562  
      8431       8432       8443       8442       8552       8553       8564       8563  
      8432       8433       8444       8443       8553       8554       8565       8564  
      8433       8434       8445       8444       8554       8555       8566       8565  
      8434       8435       8446       8445       8555       8556       8567       8566  
      8435       8436       8447       8446       8556       8557       8568       8567  
      8436       8437       8448       8447       8557       8558       8569       8568  
      8438       8439       8450       8449       8559       8560       8571       8570  
      8439       8440       8451       8450       8560       8561       8572       8571  
      8440       8441       8452       8451       8561       8562       8573       8572  
      8441       8442       8453       8452       8562       8563       8574       8573  
      8442       8443       8454       8453       8563       8564       8575       8574  
      8443       8444       8455       8454       8564       8565       8576       8575  
      8444       8445       8456       8455       8565       8566       8577       8576  
      8445       8446       8457       8456       8566       8567       8578       8577  
      8446       8447       8458       8457       8567       8568       8579       8578  
      8447       8448       8459       8458       8568       8569       8580       8579  
      8449       8450       8461       8460       8570       8571       8582       8581  
      8450       8451       8462       8461       8571       8572       8583       8582  
      8451       8452       8463       8462       8572       8573       8584       8583  
      8452       8453       8464       8463       8573       8574       8585       8584  
      8453       8454       8465       8464       8574       8575       8586       8585  
      8454       8455       8466       8465       8575       8576       8587       8586  
      8455       8456       8467       8466       8576       8577       8588       8587  
      8456       8457       8468       8467       8577       8578       8589       8588  
      8457       8458       8469       8468       8578       8579       8590       8589  
      8458       8459       8470       8469       8579       8580       8591       8590  
      8471       8472       8483       8482       8592       8593       8604       8603  
      8472       8473       8484       8483       8593       8594       8605       8604  
      8473       8474       8485       8484       8594       8595       8606       8605  
      8474       8475       8486       8485       8595       8596       8607       8606  
      8475       8476       8487       8486       8596       8597       8608       8607  
      8476       8477       8488       8487       8597       8598       8609       8608  
      8477       8478       8489       8488       8598       8599       8610       8609  
      8478       8479       8490       8489       8599       8600       8611       8610  
      8479       8480       8491       8490       8600       8601       8612       8611  
      8480       8481       8492       8491       8601       8602       8613       8612  
      8482       8483       8494       8493       8603       8604       8615       8614  
      8483       8484       8495       8494       8604       8605       8616       8615  
      8484       8485       8496       8495       8605       8606       8617       8616  
      8485       8486       8497       8496       8606       8607       8618       8617  
      8486       8487       8498       8497       8607       8608       8619       8618  
      8487       8488       8499       8498       8608       8609       8620       8619  
      8488       8489       8500       8499       8609       8610       8621       8620  
      8489       8490       8501       8500       8610       8611       8622       8621  
      8490       8491       8502       8501       8611       8612       8623       8622  
      8491       8492       8503       8502       8612       8613       8624       8623  
      8493       8494       8505       8504       8614       8615       8626       8625  
      8494       8495       8506       8505       8615       8616       8627       8626  
      8495       8496       8507       8506       8616       8617       8628       8627  
      8496       8497       8508       8507       8617       8618       8629       8628  
      8497       8498       8509       8508       8618       8619       8630       8629  
      8498       8499       8510       8509       8619       8620       8631       8630  
      8499       8500       8511       8510       8620       8621       8632       8631  
      8500       8501       8512       8511       8621       8622       8633       8632  
      8501       8502       8513       8512       8622       8623       8634       8633  
      8502       8503       8514       8513       8623       8624       8635       8634  
      8504       8505       8516       8515       8625       8626       8637       8636  
      8505       8506       8517       8516       8626       8627       8638       8637  
      8506       8507       8518       8517       8627       8628       8639       8638  
      8507       8508       8519       8518       8628       8629       8640       8639  
      8508       8509       8520       8519       8629       8630       8641       8640  
      8509       8510       8521       8520       8630       8631       8642       8641  
      8510       8511       8522       8521       8631       8632       8643       8642  
      8511       8512       8523       8522       8632       8633       8644       8643  
      8512       8513       8524       8523       8633       8634       8645       8644  
      8513       8514       8525       8524       8634       8635       8646       8645  
      8515       8516       8527       8526       8636       8637       8648       8647  
      8516       8517       8528       8527       8637       8638       8649       8648  
      8517       8518       8529       8528       8638       8639       8650       8649  
      8518       8519       8530       8529       8639       8640       8651       8650  
      8519       8520       8531       8530       8640       8641       8652       8651  
      8520       8521       8532       8531       8641       8642       8653       8652  
      8521       8522       8533       8532       8642       8643       8654       8653  
      8522       8523       8534       8533       8643       8644       8655       8654  
      8523       8524       8535       8534       8644       8645       8656       8655  
      8524       8525       8536       8535       8645       8646       8657       8656  
      8526       8527       8538       8537       8647       8648       8659       8658  
      8527       8528       8539       8538       8648       8649       8660       8659  
      8528       8529       8540       8539       8649       8650       8661       8660  
      8529       8530       8541       8540       8650       8651       8662       8661  
      8530       8531       8542       8541       8651       8652       8663       8662  
      8531       8532       8543       8542       8652       8653       8664       8663  
      8532       8533       8544       8543       8653       8654       8665       8664  
      8533       8534       8545       8544       8654       8655       8666       8665  
      8534       8535       8546       8545       8655       8656       8667       8666  
      8535       8536       8547       8546       8656       8657       8668       8667  
      8537       8538       8549       8548       8658       8659       8670       8669  
      8538       8539       8550       8549       8659       8660       8671       8670  
      8539       8540       8551       8550       8660       8661       8672       8671  
      8540       8541       8552       8551       8661       8662       8673       8672  
      8541       8542       8553       8552       8662       8663       8674       8673  
      8542       8543       8554       8553       8663       8664       8675       8674  
      8543       8544       8555       8554       8664       8665       8676       8675  
      8544       8545       8556       8555       8665       8666       8677       8676  
      8545       8546       8557       8556       8666       8667       8678       8677  
      8546       8547       8558       8557       8667       8668       8679       8678  
      8548       8549       8560       8559       8669       8670       8681       8680  
      8549       8550       8561       8560       8670       8671       8682       8681  
      8550       8551       8562       8561       8671       8672       8683       8682  
      8551       8552       8563       8562       8672       8673       8684       8683  
      8552       8553       8564       8563       8673       8674       8685       8684  
      8553       8554       8565       8564       8674       8675       8686       8685  
      8554       8555       8566       8565       8675       8676       8687       8686  
      8555       8556       8567       8566       8676       8677       8688       8687  
      8556       8557       8568       8567       8677       8678       8689       8688  
      8557       8558       8569       8568       8678       8679       8690       8689  
      8559       8560       8571       8570       8680       8681       8692       8691  
      8560       8561       8572       8571       8681       8682       8693       8692  
      8561       8562       8573       8572       8682       8683       8694       8693  
      8562       8563       8574       8573       8683       8684       8695       8694  
      8563       8564       8575       8574       8684       8685       8696       8695  
      8564       8565       8576       8575       8685       8686       8697       8696  
      8565       8566       8577       8576       8686       8687       8698       8697  
      8566       8567       8578       8577       8687       8688       8699       8698  
      8567       8568       8579       8578       8688       8689       8700       8699  
      8568       8569       8580       8579       8689       8690       8701       8700  
      8570       8571       8582       8581       8691       8692       8703       8702  
      8571       8572       8583       8582       8692       8693       8704       8703  
      8572       8573       8584       8583       8693       8694       8705       8704  
      8573       8574       8585       8584       8694       8695       8706       8705  
      8574       8575       8586       8585       8695       8696       8707       8706  
      8575       8576       8587       8586       8696       8697       8708       8707  
      8576       8577       8588       8587       8697       8698       8709       8708  
      8577       8578       8589       8588       8698       8699       8710       8709  
      8578       8579       8590       8589       8699       8700       8711       8710  
      8579       8580       8591       8590       8700       8701       8712       8711  
      8592       8593       8604       8603       8713       8714       8725       8724  
      8593       8594       8605       8604       8714       8715       8726       8725  
      8594       8595       8606       8605       8715       8716       8727       8726  
      8595       8596       8607       8606       8716       8717       8728       8727  
      8596       8597       8608       8607       8717       8718       8729       8728  
      8597       8598       8609       8608       8718       8719       8730       8729  
      8598       8599       8610       8609       8719       8720       8731       8730  
      8599       8600       8611       8610       8720       8721       8732       8731  
      8600       8601       8612       8611       8721       8722       8733       8732  
      8601       8602       8613       8612       8722       8723       8734       8733  
      8603       8604       8615       8614       8724       8725       8736       8735  
      8604       8605       8616       8615       8725       8726       8737       8736  
      8605       8606       8617       8616       8726       8727       8738       8737  
      8606       8607       8618       8617       8727       8728       8739       8738  
      8607       8608       8619       8618       8728       8729       8740       8739  
      8608       8609       8620       8619       8729       8730       8741       8740  
      8609       8610       8621       8620       8730       8731       8742       8741  
      8610       8611       8622       8621       8731       8732       8743       8742  
      8611       8612       8623       8622       8732       8733       8744       8743  
      8612       8613       8624       8623       8733       8734       8745       8744  
      8614       8615       8626       8625       8735       8736       8747       8746  
      8615       8616       8627       8626       8736       8737       8748       8747  
      8616       8617       8628       8627       8737       8738       8749       8748  
      8617       8618       8629       8628       8738       8739       8750       8749  
      8618       8619       8630       8629       8739       8740       8751       8750  
      8619       8620       8631       8630       8740       8741       8752       8751  
      8620       8621       8632       8631       8741       8742       8753       8752  
      8621       8622       8633       8632       8742       8743       8754       8753  
      8622       8623       8634       8633       8743       8744       8755       8754  
      8623       8624       8635       8634       8744       8745       8756       8755  
      8625       8626       8637       8636       8746       8747       8758       8757  
      8626       8627       8638       8637       8747       8748       8759       8758  
      8627       8628       8639       8638       8748       8749       8760       8759  
      8628       8629       8640       8639       8749       8750       8761       8760  
      8629       8630       8641       8640       8750       8751       8762       8761  
      8630       8631       8642       8641       8751       8752       8763       8762  
      8631       8632       8643       8642       8752       8753       8764       8763  
      8632       8633       8644       8643       8753       8754       8765       8764  
      8633       8634       8645       8644       8754       8755       8766       8765  
      8634       8635       8646       8645       8755       8756       8767       8766  
      8636       8637       8648       8647       8757       8758       8769       8768  
      8637       8638       8649       8648       8758       8759       8770       8769  
      8638       8639       8650       8649       8759       8760       8771       8770  
      8639       8640       8651       8650       8760       8761       8772       8771  
      8640       8641       8652       8651       8761       8762       8773       8772  
      8641       8642       8653       8652       8762       8763       8774       8773  
      8642       8643       8654       8653       8763       8764       8775       8774  
      8643       8644       8655       8654       8764       8765       8776       8775  
      8644       8645       8656       8655       8765       8766       8777       8776  
      8645       8646       8657       8656       8766       8767       8778       8777  
      8647       8648       8659       8658       8768       8769       8780       8779  
      8648       8649       8660       8659       8769       8770       8781       8780  
      8649       8650       8661       8660       8770       8771       8782       8781  
      8650       8651       8662       8661       8771       8772       8783       8782  
      8651       8652       8663       8662       8772       8773       8784       8783  
      8652       8653       8664       8663       8773       8774       8785       8784  
      8653       8654       8665       8664       8774       8775       8786       8785  
      8654       8655       8666       8665       8775       8776       8787       8786  
      8655       8656       8667       8666       8776       8777       8788       8787  
      8656       8657       8668       8667       8777       8778       8789       8788  
      8658       8659       8670       8669       8779       8780       8791       8790  
      8659       8660       8671       8670       8780       8781       8792       8791  
      8660       8661       8672       8671       8781       8782       8793       8792  
      8661       8662       8673       8672       8782       8783       8794       8793  
      8662       8663       8674       8673       8783       8784       8795       8794  
      8663       8664       8675       8674       8784       8785       8796       8795  
      8664       8665       8676       8675       8785       8786       8797       8796  
      8665       8666       8677       8676       8786       8787       8798       8797  
      8666       8667       8678       8677       8787       8788       8799       8798  
      8667       8668       8679       8678       8788       8789       8800       8799  
      8669       8670       8681       8680       8790       8791       8802       8801  
      8670       8671       8682       8681       8791       8792       8803       8802  
      8671       8672       8683       8682       8792       8793       8804       8803  
      8672       8673       8684       8683       8793       8794       8805       8804  
      8673       8674       8685       8684       8794       8795       8806       8805  
      8674       8675       8686       8685       8795       8796       8807       8806  
      8675       8676       8687       8686       8796       8797       8808       8807  
      8676       8677       8688       8687       8797       8798       8809       8808  
      8677       8678       8689       8688       8798       8799       8810       8809  
      8678       8679       8690       8689       8799       8800       8811       8810  
      8680       8681       8692       8691       8801       8802       8813       8812  
      8681       8682       8693       8692       8802       8803       8814       8813  
      8682       8683       8694       8693       8803       8804       8815       8814  
      8683       8684       8695       8694       8804       8805       8816       8815  
      8684       8685       8696       8695       8805       8806       8817       8816  
      8685       8686       8697       8696       8806       8807       8818       8817  
      8686       8687       8698       8697       8807       8808       8819       8818  
      8687       8688       8699       8698       8808       8809       8820       8819  
      8688       8689       8700       8699       8809       8810       8821       8820  
      8689       8690       8701       8700       8810       8811       8822       8821  
      8691       8692       8703       8702       8812       8813       8824       8823  
      8692       8693       8704       8703       8813       8814       8825       8824  
      8693       8694       8705       8704       8814       8815       8826       8825  
      8694       8695       8706       8705       8815       8816       8827       8826  
      8695       8696       8707       8706       8816       8817       8828       8827  
      8696       8697       8708       8707       8817       8818       8829       8828  
      8697       8698       8709       8708       8818       8819       8830       8829  
      8698       8699       8710       8709       8819       8820       8831       8830  
      8699       8700       8711       8710       8820       8821       8832       8831  
      8700       8701       8712       8711       8821       8822       8833       8832  
      8713       8714       8725       8724       8834       8835       8846       8845  
      8714       8715       8726       8725       8835       8836       8847       8846  
      8715       8716       8727       8726       8836       8837       8848       8847  
      8716       8717       8728       8727       8837       8838       8849       8848  
      8717       8718       8729       8728       8838       8839       8850       8849  
      8718       8719       8730       8729       8839       8840       8851       8850  
      8719       8720       8731       8730       8840       8841       8852       8851  
      8720       8721       8732       8731       8841       8842       8853       8852  
      8721       8722       8733       8732       8842       8843       8854       8853  
      8722       8723       8734       8733       8843       8844       8855       8854  
      8724       8725       8736       8735       8845       8846       8857       8856  
      8725       8726       8737       8736       8846       8847       8858       8857  
      8726       8727       8738       8737       8847       8848       8859       8858  
      8727       8728       8739       8738       8848       8849       8860       8859  
      8728       8729       8740       8739       8849       8850       8861       8860  
      8729       8730       8741       8740       8850       8851       8862       8861  
      8730       8731       8742       8741       8851       8852       8863       8862  
      8731       8732       8743       8742       8852       8853       8864       8863  
      8732       8733       8744       8743       8853       8854       8865       8864  
      8733       8734       8745       8744       8854       8855       8866       8865  
      8735       8736       8747       8746       8856       8857       8868       8867  
      8736       8737       8748       8747       8857       8858       8869       8868  
      8737       8738       8749       8748       8858       8859       8870       8869  
      8738       8739       8750       8749       8859       8860       8871       8870  
      8739       8740       8751       8750       8860       8861       8872       8871  
      8740       8741       8752       8751       8861       8862       8873       8872  
      8741       8742       8753       8752       8862       8863       8874       8873  
      8742       8743       8754       8753       8863       8864       8875       8874  
      8743       8744       8755       8754       8864       8865       8876       8875  
      8744       8745       8756       8755       8865       8866       8877       8876  
      8746       8747       8758       8757       8867       8868       8879       8878  
      8747       8748       8759       8758       8868       8869       8880       8879  
      8748       8749       8760       8759       8869       8870       8881       8880  
      8749       8750       8761       8760       8870       8871       8882       8881  
      8750       8751       8762       8761       8871       8872       8883       8882  
      8751       8752       8763       8762       8872       8873       8884       8883  
      8752       8753       8764       8763       8873       8874       8885       8884  
      8753       8754       8765       8764       8874       8875       8886       8885  
      8754       8755       8766       8765       8875       8876       8887       8886  
      8755       8756       8767       8766       8876       8877       8888       8887  
      8757       8758       8769       8768       8878       8879       8890       8889  
      8758       8759       8770       8769       8879       8880       8891       8890  
      8759       8760       8771       8770       8880       8881       8892       8891  
      8760       8761       8772       8771       8881       8882       8893       8892  
      8761       8762       8773       8772       8882       8883       8894       8893  
      8762       8763       8774       8773       8883       8884       8895       8894  
      8763       8764       8775       8774       8884       8885       8896       8895  
      8764       8765       8776       8775       8885       8886       8897       8896  
      8765       8766       8777       8776       8886       8887       8898       8897  
      8766       8767       8778       8777       8887       8888       8899       8898  
      8768       8769       8780       8779       8889       8890       8901       8900  
      8769       8770       8781       8780       8890       8891       8902       8901  
      8770       8771       8782       8781       8891       8892       8903       8902  
      8771       8772       8783       8782       8892       8893       8904       8903  
      8772       8773       8784       8783       8893       8894       8905       8904  
      8773       8774       8785       8784       8894       8895       8906       8905  
      8774       8775       8786       8785       8895       8896       8907       8906  
      8775       8776       8787       8786       8896       8897       8908       8907  
      8776       8777       8788       8787       8897       8898       8909       8908  
      8777       8778       8789       8788       8898       8899       8910       8909  
      8779       8780       8791       8790       8900       8901       8912       8911  
      8780       8781       8792       8791       8901       8902       8913       8912  
      8781       8782       8793       8792       8902       8903       8914       8913  
      8782       8783       8794       8793       8903       8904       8915       8914  
      8783       8784       8795       8794       8904       8905       8916       8915  
      8784       8785       8796       8795       8905       8906       8917       8916  
      8785       8786       8797       8796       8906       8907       8918       8917  
      8786       8787       8798       8797       8907       8908       8919       8918  
      8787       8788       8799       8798       8908       8909       8920       8919  
      8788       8789       8800       8799       8909       8910       8921       8920  
      8790       8791       8802       8801       8911       8912       8923       8922  
      8791       8792       8803       8802       8912       8913       8924       8923  
      8792       8793       8804       8803       8913       8914       8925       8924  
      8793       8794       8805       8804       8914       8915       8926       8925  
      8794       8795       8806       8805       8915       8916       8927       8926  
      8795       8796       8807       8806       8916       8917       8928       8927  
      8796       8797       8808       8807       8917       8918       8929       8928  
      8797       8798       8809       8808       8918       8919       8930       8929  
      8798       8799       8810       8809       8919       8920       8931       8930  
      8799       8800       8811       8810       8920       8921       8932       8931  
      8801       8802       8813       8812       8922       8923       8934       8933  
      8802       8803       8814       8813       8923       8924       8935       8934  
      8803       8804       8815       8814       8924       8925       8936       8935  
      8804       8805       8816       8815       8925       8926       8937       8936  
      8805       8806       8817       8816       8926       8927       8938       8937  
      8806       8807       8818       8817       8927       8928       8939       8938  
      8807       8808       8819       8818       8928       8929       8940       8939  
      8808       8809       8820       8819       8929       8930       8941       8940  
      8809       8810       8821       8820       8930       8931       8942       8941  
      8810       8811       8822       8821       8931       8932       8943       8942  
      8812       8813       8824       8823       8933       8934       8945       8944  
      8813       8814       8825       8824       8934       8935       8946       8945  
      8814       8815       8826       8825       8935       8936       8947       8946  
      8815       8816       8827       8826       8936       8937       8948       8947  
      8816       8817       8828       8827       8937       8938       8949       8948  
      8817       8818       8829       8828       8938       8939       8950       8949  
      8818       8819       8830       8829       8939       8940       8951       8950  
      8819       8820       8831       8830       8940       8941       8952       8951  
      8820       8821       8832       8831       8941       8942       8953       8952  
      8821       8822       8833       8832       8942       8943       8954       8953  
      8834       8835       8846       8845       8955       8956       8967       8966  
      8835       8836       8847       8846       8956       8957       8968       8967  
      8836       8837       8848       8847       8957       8958       8969       8968  
      8837       8838       8849       8848       8958       8959       8970       8969  
      8838       8839       8850       8849       8959       8960       8971       8970  
      8839       8840       8851       8850       8960       8961       8972       8971  
      8840       8841       8852       8851       8961       8962       8973       8972  
      8841       8842       8853       8852       8962       8963       8974       8973  
      8842       8843       8854       8853       8963       8964       8975       8974  
      8843       8844       8855       8854       8964       8965       8976       8975  
      8845       8846       8857       8856       8966       8967       8978       8977  
      8846       8847       8858       8857       8967       8968       8979       8978  
      8847       8848       8859       8858       8968       8969       8980       8979  
      8848       8849       8860       8859       8969       8970       8981       8980  
      8849       8850       8861       8860       8970       8971       8982       8981  
      8850       8851       8862       8861       8971       8972       8983       8982  
      8851       8852       8863       8862       8972       8973       8984       8983  
      8852       8853       8864       8863       8973       8974       8985       8984  
      8853       8854       8865       8864       8974       8975       8986       8985  
      8854       8855       8866       8865       8975       8976       8987       8986  
      8856       8857       8868       8867       8977       8978       8989       8988  
      8857       8858       8869       8868       8978       8979       8990       8989  
      8858       8859       8870       8869       8979       8980       8991       8990  
      8859       8860       8871       8870       8980       8981       8992       8991  
      8860       8861       8872       8871       8981       8982       8993       8992  
      8861       8862       8873       8872       8982       8983       8994       8993  
      8862       8863       8874       8873       8983       8984       8995       8994  
      8863       8864       8875       8874       8984       8985       8996       8995  
      8864       8865       8876       8875       8985       8986       8997       8996  
      8865       8866       8877       8876       8986       8987       8998       8997  
      8867       8868       8879       8878       8988       8989       9000       8999  
      8868       8869       8880       8879       8989       8990       9001       9000  
      8869       8870       8881       8880       8990       8991       9002       9001  
      8870       8871       8882       8881       8991       8992       9003       9002  
      8871       8872       8883       8882       8992       8993       9004       9003  
      8872       8873       8884       8883       8993       8994       9005       9004  
      8873       8874       8885       8884       8994       8995       9006       9005  
      8874       8875       8886       8885       8995       8996       9007       9006  
      8875       8876       8887       8886       8996       8997       9008       9007  
      8876       8877       8888       8887       8997       8998       9009       9008  
      8878       8879       8890       8889       8999       9000       9011       9010  
      8879       8880       8891       8890       9000       9001       9012       9011  
      8880       8881       8892       8891       9001       9002       9013       9012  
      8881       8882       8893       8892       9002       9003       9014       9013  
      8882       8883       8894       8893       9003       9004       9015       9014  
      8883       8884       8895       8894       9004       9005       9016       9015  
      8884       8885       8896       8895       9005       9006       9017       9016  
      8885       8886       8897       8896       9006       9007       9018       9017  
      8886       8887       8898       8897       9007       9008       9019       9018  
      8887       8888       8899       8898       9008       9009       9020       9019  
      8889       8890       8901       8900       9010       9011       9022       9021  
      8890       8891       8902       8901       9011       9012       9023       9022  
      8891       8892       8903       8902       9012       9013       9024       9023  
      8892       8893       8904       8903       9013       9014       9025       9024  
      8893       8894       8905       8904       9014       9015       9026       9025  
      8894       8895       8906       8905       9015       9016       9027       9026  
      8895       8896       8907       8906       9016       9017       9028       9027  
      8896       8897       8908       8907       9017       9018       9029       9028  
      8897       8898       8909       8908       9018       9019       9030       9029  
      8898       8899       8910       8909       9019       9020       9031       9030  
      8900       8901       8912       8911       9021       9022       9033       9032  
      8901       8902       8913       8912       9022       9023       9034       9033  
      8902       8903       8914       8913       9023       9024       9035       9034  
      8903       8904       8915       8914       9024       9025       9036       9035  
      8904       8905       8916       8915       9025       9026       9037       9036  
      8905       8906       8917       8916       9026       9027       9038       9037  
      8906       8907       8918       8917       9027       9028       9039       9038  
      8907       8908       8919       8918       9028       9029       9040       9039  
      8908       8909       8920       8919       9029       9030       9041       9040  
      8909       8910       8921       8920       9030       9031       9042       9041  
      8911       8912       8923       8922       9032       9033       9044       9043  
      8912       8913       8924       8923       9033       9034       9045       9044  
      8913       8914       8925       8924       9034       9035       9046       9045  
      8914       8915       8926       8925       9035       9036       9047       9046  
      8915       8916       8927       8926       9036       9037       9048       9047  
      8916       8917       8928       8927       9037       9038       9049       9048  
      8917       8918       8929       8928       9038       9039       9050       9049  
      8918       8919       8930       8929       9039       9040       9051       9050  
      8919       8920       8931       8930       9040       9041       9052       9051  
      8920       8921       8932       8931       9041       9042       9053       9052  
      8922       8923       8934       8933       9043       9044       9055       9054  
      8923       8924       8935       8934       9044       9045       9056       9055  
      8924       8925       8936       8935       9045       9046       9057       9056  
      8925       8926       8937       8936       9046       9047       9058       9057  
      8926       8927       8938       8937       9047       9048       9059       9058  
      8927       8928       8939       8938       9048       9049       9060       9059  
      8928       8929       8940       8939       9049       9050       9061       9060  
      8929       8930       8941       8940       9050       9051       9062       9061  
      8930       8931       8942       8941       9051       9052       9063       9062  
      8931       8932       8943       8942       9052       9053       9064       9063  
      8933       8934       8945       8944       9054       9055       9066       9065  
      8934       8935       8946       8945       9055       9056       9067       9066  
      8935       8936       8947       8946       9056       9057       9068       9067  
      8936       8937       8948       8947       9057       9058       9069       9068  
      8937       8938       8949       8948       9058       9059       9070       9069  
      8938       8939       8950       8949       9059       9060       9071       9070  
      8939       8940       8951       8950       9060       9061       9072       9071  
      8940       8941       8952       8951       9061       9062       9073       9072  
      8941       8942       8953       8952       9062       9063       9074       9073  
      8942       8943       8954       8953       9063       9064       9075       9074  
      8955       8956       8967       8966       9076       9077       9088       9087  
      8956       8957       8968       8967       9077       9078       9089       9088  
      8957       8958       8969       8968       9078       9079       9090       9089  
      8958       8959       8970       8969       9079       9080       9091       9090  
      8959       8960       8971       8970       9080       9081       9092       9091  
      8960       8961       8972       8971       9081       9082       9093       9092  
      8961       8962       8973       8972       9082       9083       9094       9093  
      8962       8963       8974       8973       9083       9084       9095       9094  
      8963       8964       8975       8974       9084       9085       9096       9095  
      8964       8965       8976       8975       9085       9086       9097       9096  
      8966       8967       8978       8977       9087       9088       9099       9098  
      8967       8968       8979       8978       9088       9089       9100       9099  
      8968       8969       8980       8979       9089       9090       9101       9100  
      8969       8970       8981       8980       9090       9091       9102       9101  
      8970       8971       8982       8981       9091       9092       9103       9102  
      8971       8972       8983       8982       9092       9093       9104       9103  
      8972       8973       8984       8983       9093       9094       9105       9104  
      8973       8974       8985       8984       9094       9095       9106       9105  
      8974       8975       8986       8985       9095       9096       9107       9106  
      8975       8976       8987       8986       9096       9097       9108       9107  
      8977       8978       8989       8988       9098       9099       9110       9109  
      8978       8979       8990       8989       9099       9100       9111       9110  
      8979       8980       8991       8990       9100       9101       9112       9111  
      8980       8981       8992       8991       9101       9102       9113       9112  
      8981       8982       8993       8992       9102       9103       9114       9113  
      8982       8983       8994       8993       9103       9104       9115       9114  
      8983       8984       8995       8994       9104       9105       9116       9115  
      8984       8985       8996       8995       9105       9106       9117       9116  
      8985       8986       8997       8996       9106       9107       9118       9117  
      8986       8987       8998       8997       9107       9108       9119       9118  
      8988       8989       9000       8999       9109       9110       9121       9120  
      8989       8990       9001       9000       9110       9111       9122       9121  
      8990       8991       9002       9001       9111       9112       9123       9122  
      8991       8992       9003       9002       9112       9113       9124       9123  
      8992       8993       9004       9003       9113       9114       9125       9124  
      8993       8994       9005       9004       9114       9115       9126       9125  
      8994       8995       9006       9005       9115       9116       9127       9126  
      8995       8996       9007       9006       9116       9117       9128       9127  
      8996       8997       9008       9007       9117       9118       9129       9128  
      8997       8998       9009       9008       9118       9119       9130       9129  
      8999       9000       9011       9010       9120       9121       9132       9131  
      9000       9001       9012       9011       9121       9122       9133       9132  
      9001       9002       9013       9012       9122       9123       9134       9133  
      9002       9003       9014       9013       9123       9124       9135       9134  
      9003       9004       9015       9014       9124       9125       9136       9135  
      9004       9005       9016       9015       9125       9126       9137       9136  
      9005       9006       9017       9016       9126       9127       9138       9137  
      9006       9007       9018       9017       9127       9128       9139       9138  
      9007       9008       9019       9018       9128       9129       9140       9139  
      9008       9009       9020       9019       9129       9130       9141       9140  
      9010       9011       9022       9021       9131       9132       9143       9142  
      9011       9012       9023       9022       9132       9133       9144       9143  
      9012       9013       9024       9023       9133       9134       9145       9144  
      9013       9014       9025       9024       9134       9135       9146       9145  
      9014       9015       9026       9025       9135       9136       9147       9146  
      9015       9016       9027       9026       9136       9137       9148       9147  
      9016       9017       9028       9027       9137       9138       9149       9148  
      9017       9018       9029       9028       9138       9139       9150       9149  
      9018       9019       9030       9029       9139       9140       9151       9150  
      9019       9020       9031       9030       9140       9141       9152       9151  
      9021       9022       9033       9032       9142       9143       9154       9153  
      9022       9023       9034       9033       9143       9144       9155       9154  
      9023       9024       9035       9034       9144       9145       9156       9155  
      9024       9025       9036       9035       9145       9146       9157       9156  
      9025       9026       9037       9036       9146       9147       9158       9157  
      9026       9027       9038       9037       9147       9148       9159       9158  
      9027       9028       9039       9038       9148       9149       9160       9159  
      9028       9029       9040       9039       9149       9150       9161       9160  
      9029       9030       9041       9040       9150       9151       9162       9161  
      9030       9031       9042       9041       9151       9152       9163       9162  
      9032       9033       9044       9043       9153       9154       9165       9164  
      9033       9034       9045       9044       9154       9155       9166       9165  
      9034       9035       9046       9045       9155       9156       9167       9166  
      9035       9036       9047       9046       9156       9157       9168       9167  
      9036       9037       9048       9047       9157       9158       9169       9168  
      9037       9038       9049       9048       9158       9159       9170       9169  
      9038       9039       9050       9049       9159       9160       9171       9170  
      9039       9040       9051       9050       9160       9161       9172       9171  
      9040       9041       9052       9051       9161       9162       9173       9172  
      9041       9042       9053       9052       9162       9163       9174       9173  
      9043       9044       9055       9054       9164       9165       9176       9175  
      9044       9045       9056       9055       9165       9166       9177       9176  
      9045       9046       9057       9056       9166       9167       9178       9177  
      9046       9047       9058       9057       9167       9168       9179       9178  
      9047       9048       9059       9058       9168       9169       9180       9179  
      9048       9049       9060       9059       9169       9170       9181       9180  
      9049       9050       9061       9060       9170       9171       9182       9181  
      9050       9051       9062       9061       9171       9172       9183       9182  
      9051       9052       9063       9062       9172       9173       9184       9183  
      9052       9053       9064       9063       9173       9174       9185       9184  
      9054       9055       9066       9065       9175       9176       9187       9186  
      9055       9056       9067       9066       9176       9177       9188       9187  
      9056       9057       9068       9067       9177       9178       9189       9188  
      9057       9058       9069       9068       9178       9179       9190       9189  
      9058       9059       9070       9069       9179       9180       9191       9190  
      9059       9060       9071       9070       9180       9181       9192       9191  
      9060       9061       9072       9071       9181       9182       9193       9192  
      9061       9062       9073       9072       9182       9183       9194       9193  
      9062       9063       9074       9073       9183       9184       9195       9194  
      9063       9064       9075       9074       9184       9185       9196       9195  
      9076       9077       9088       9087       9197       9198       9209       9208  
      9077       9078       9089       9088       9198       9199       9210       9209  
      9078       9079       9090       9089       9199       9200       9211       9210  
      9079       9080       9091       9090       9200       9201       9212       9211  
      9080       9081       9092       9091       9201       9202       9213       9212  
      9081       9082       9093       9092       9202       9203       9214       9213  
      9082       9083       9094       9093       9203       9204       9215       9214  
      9083       9084       9095       9094       9204       9205       9216       9215  
      9084       9085       9096       9095       9205       9206       9217       9216  
      9085       9086       9097       9096       9206       9207       9218       9217  
      9087       9088       9099       9098       9208       9209       9220       9219  
      9088       9089       9100       9099       9209       9210       9221       9220  
      9089       9090       9101       9100       9210       9211       9222       9221  
      9090       9091       9102       9101       9211       9212       9223       9222  
      9091       9092       9103       9102       9212       9213       9224       9223  
      9092       9093       9104       9103       9213       9214       9225       9224  
      9093       9094       9105       9104       9214       9215       9226       9225  
      9094       9095       9106       9105       9215       9216       9227       9226  
      9095       9096       9107       9106       9216       9217       9228       9227  
      9096       9097       9108       9107       9217       9218       9229       9228  
      9098       9099       9110       9109       9219       9220       9231       9230  
      9099       9100       9111       9110       9220       9221       9232       9231  
      9100       9101       9112       9111       9221       9222       9233       9232  
      9101       9102       9113       9112       9222       9223       9234       9233  
      9102       9103       9114       9113       9223       9224       9235       9234  
      9103       9104       9115       9114       9224       9225       9236       9235  
      9104       9105       9116       9115       9225       9226       9237       9236  
      9105       9106       9117       9116       9226       9227       9238       9237  
      9106       9107       9118       9117       9227       9228       9239       9238  
      9107       9108       9119       9118       9228       9229       9240       9239  
      9109       9110       9121       9120       9230       9231       9242       9241  
      9110       9111       9122       9121       9231       9232       9243       9242  
      9111       9112       9123       9122       9232       9233       9244       9243  
      9112       9113       9124       9123       9233       9234       9245       9244  
      9113       9114       9125       9124       9234       9235       9246       9245  
      9114       9115       9126       9125       9235       9236       9247       9246  
      9115       9116       9127       9126       9236       9237       9248       9247  
      9116       9117       9128       9127       9237       9238       9249       9248  
      9117       9118       9129       9128       9238       9239       9250       9249  
      9118       9119       9130       9129       9239       9240       9251       9250  
      9120       9121       9132       9131       9241       9242       9253       9252  
      9121       9122       9133       9132       9242       9243       9254       9253  
      9122       9123       9134       9133       9243       9244       9255       9254  
      9123       9124       9135       9134       9244       9245       9256       9255  
      9124       9125       9136       9135       9245       9246       9257       9256  
      9125       9126       9137       9136       9246       9247       9258       9257  
      9126       9127       9138       9137       9247       9248       9259       9258  
      9127       9128       9139       9138       9248       9249       9260       9259  
      9128       9129       9140       9139       9249       9250       9261       9260  
      9129       9130       9141       9140       9250       9251       9262       9261  
      9131       9132       9143       9142       9252       9253       9264       9263  
      9132       9133       9144       9143       9253       9254       9265       9264  
      9133       9134       9145       9144       9254       9255       9266       9265  
      9134       9135       9146       9145       9255       9256       9267       9266  
      9135       9136       9147       9146       9256       9257       9268       9267  
      9136       9137       9148       9147       9257       9258       9269       9268  
      9137       9138       9149       9148       9258       9259       9270       9269  
      9138       9139       9150       9149       9259       9260       9271       9270  
      9139       9140       9151       9150       9260       9261       9272       9271  
      9140       9141       9152       9151       9261       9262       9273       9272  
      9142       9143       9154       9153       9263       9264       9275       9274  
      9143       9144       9155       9154       9264       9265       9276       9275  
      9144       9145       9156       9155       9265       9266       9277       9276  
      9145       9146       9157       9156       9266       9267       9278       9277  
      9146       9147       9158       9157       9267       9268       9279       9278  
      9147       9148       9159       9158       9268       9269       9280       9279  
      9148       9149       9160       9159       9269       9270       9281       9280  
      9149       9150       9161       9160       9270       9271       9282       9281  
      9150       9151       9162       9161       9271       9272       9283       9282  
      9151       9152       9163       9162       9272       9273       9284       9283  
      9153       9154       9165       9164       9274       9275       9286       9285  
      9154       9155       9166       9165       9275       9276       9287       9286  
      9155       9156       9167       9166       9276       9277       9288       9287  
      9156       9157       9168       9167       9277       9278       9289       9288  
      9157       9158       9169       9168       9278       9279       9290       9289  
      9158       9159       9170       9169       9279       9280       9291       9290  
      9159       9160       9171       9170       9280       9281       9292       9291  
      9160       9161       9172       9171       9281       9282       9293       9292  
      9161       9162       9173       9172       9282       9283       9294       9293  
      9162       9163       9174       9173       9283       9284       9295       9294  
      9164       9165       9176       9175       9285       9286       9297       9296  
      9165       9166       9177       9176       9286       9287       9298       9297  
      9166       9167       9178       9177       9287       9288       9299       9298  
      9167       9168       9179       9178       9288       9289       9300       9299  
      9168       9169       9180       9179       9289       9290       9301       9300  
      9169       9170       9181       9180       9290       9291       9302       9301  
      9170       9171       9182       9181       9291       9292       9303       9302  
      9171       9172       9183       9182       9292       9293       9304       9303  
      9172       9173       9184       9183       9293       9294       9305       9304  
      9173       9174       9185       9184       9294       9295       9306       9305  
      9175       9176       9187       9186       9296       9297       9308       9307  
      9176       9177       9188       9187       9297       9298       9309       9308  
      9177       9178       9189       9188       9298       9299       9310       9309  
      9178       9179       9190       9189       9299       9300       9311       9310  
      9179       9180       9191       9190       9300       9301       9312       9311  
      9180       9181       9192       9191       9301       9302       9313       9312  
      9181       9182       9193       9192       9302       9303       9314       9313  
      9182       9183       9194       9193       9303       9304       9315       9314  
      9183       9184       9195       9194       9304       9305       9316       9315  
      9184       9185       9196       9195       9305       9306       9317       9316  
      9197       9198       9209       9208       9318       9319       9330       9329  
      9198       9199       9210       9209       9319       9320       9331       9330  
      9199       9200       9211       9210       9320       9321       9332       9331  
      9200       9201       9212       9211       9321       9322       9333       9332  
      9201       9202       9213       9212       9322       9323       9334       9333  
      9202       9203       9214       9213       9323       9324       9335       9334  
      9203       9204       9215       9214       9324       9325       9336       9335  
      9204       9205       9216       9215       9325       9326       9337       9336  
      9205       9206       9217       9216       9326       9327       9338       9337  
      9206       9207       9218       9217       9327       9328       9339       9338  
      9208       9209       9220       9219       9329       9330       9341       9340  
      9209       9210       9221       9220       9330       9331       9342       9341  
      9210       9211       9222       9221       9331       9332       9343       9342  
      9211       9212       9223       9222       9332       9333       9344       9343  
      9212       9213       9224       9223       9333       9334       9345       9344  
      9213       9214       9225       9224       9334       9335       9346       9345  
      9214       9215       9226       9225       9335       9336       9347       9346  
      9215       9216       9227       9226       9336       9337       9348       9347  
      9216       9217       9228       9227       9337       9338       9349       9348  
      9217       9218       9229       9228       9338       9339       9350       9349  
      9219       9220       9231       9230       9340       9341       9352       9351  
      9220       9221       9232       9231       9341       9342       9353       9352  
      9221       9222       9233       9232       9342       9343       9354       9353  
      9222       9223       9234       9233       9343       9344       9355       9354  
      9223       9224       9235       9234       9344       9345       9356       9355  
      9224       9225       9236       9235       9345       9346       9357       9356  
      9225       9226       9237       9236       9346       9347       9358       9357  
      9226       9227       9238       9237       9347       9348       9359       9358  
      9227       9228       9239       9238       9348       9349       9360       9359  
      9228       9229       9240       9239       9349       9350       9361       9360  
      9230       9231       9242       9241       9351       9352       9363       9362  
      9231       9232       9243       9242       9352       9353       9364       9363  
      9232       9233       9244       9243       9353       9354       9365       9364  
      9233       9234       9245       9244       9354       9355       9366       9365  
      9234       9235       9246       9245       9355       9356       9367       9366  
      9235       9236       9247       9246       9356       9357       9368       9367  
      9236       9237       9248       9247       9357       9358       9369       9368  
      9237       9238       9249       9248       9358       9359       9370       9369  
      9238       9239       9250       9249       9359       9360       9371       9370  
      9239       9240       9251       9250       9360       9361       9372       9371  
      9241       9242       9253       9252       9362       9363       9374       9373  
      9242       9243       9254       9253       9363       9364       9375       9374  
      9243       9244       9255       9254       9364       9365       9376       9375  
      9244       9245       9256       9255       9365       9366       9377       9376  
      9245       9246       9257       9256       9366       9367       9378       9377  
      9246       9247       9258       9257       9367       9368       9379       9378  
      9247       9248       9259       9258       9368       9369       9380       9379  
      9248       9249       9260       9259       9369       9370       9381       9380  
      9249       9250       9261       9260       9370       9371       9382       9381  
      9250       9251       9262       9261       9371       9372       9383       9382  
      9252       9253       9264       9263       9373       9374       9385       9384  
      9253       9254       9265       9264       9374       9375       9386       9385  
      9254       9255       9266       9265       9375       9376       9387       9386  
      9255       9256       9267       9266       9376       9377       9388       9387  
      9256       9257       9268       9267       9377       9378       9389       9388  
      9257       9258       9269       9268       9378       9379       9390       9389  
      9258       9259       9270       9269       9379       9380       9391       9390  
      9259       9260       9271       9270       9380       9381       9392       9391  
      9260       9261       9272       9271       9381       9382       9393       9392  
      9261       9262       9273       9272       9382       9383       9394       9393  
      9263       9264       9275       9274       9384       9385       9396       9395  
      9264       9265       9276       9275       9385       9386       9397       9396  
      9265       9266       9277       9276       9386       9387       9398       9397  
      9266       9267       9278       9277       9387       9388       9399       9398  
      9267       9268       9279       9278       9388       9389       9400       9399  
      9268       9269       9280       9279       9389       9390       9401       9400  
      9269       9270       9281       9280       9390       9391       9402       9401  
      9270       9271       9282       9281       9391       9392       9403       9402  
      9271       9272       9283       9282       9392       9393       9404       9403  
      9272       9273       9284       9283       9393       9394       9405       9404  
      9274       9275       9286       9285       9395       9396       9407       9406  
      9275       9276       9287       9286       9396       9397       9408       9407  
      9276       9277       9288       9287       9397       9398       9409       9408  
      9277       9278       9289       9288       9398       9399       9410       9409  
      9278       9279       9290       9289       9399       9400       9411       9410  
      9279       9280       9291       9290       9400       9401       9412       9411  
      9280       9281       9292       9291       9401       9402       9413       9412  
      9281       9282       9293       9292       9402       9403       9414       9413  
      9282       9283       9294       9293       9403       9404       9415       9414  
      9283       9284       9295       9294       9404       9405       9416       9415  
      9285       9286       9297       9296       9406       9407       9418       9417  
      9286       9287       9298       9297       9407       9408       9419       9418  
      9287       9288       9299       9298       9408       9409       9420       9419  
      9288       9289       9300       9299       9409       9410       9421       9420  
      9289       9290       9301       9300       9410       9411       9422       9421  
      9290       9291       9302       9301       9411       9412       9423       9422  
      9291       9292       9303       9302       9412       9413       9424       9423  
      9292       9293       9304       9303       9413       9414       9425       9424  
      9293       9294       9305       9304       9414       9415       9426       9425  
      9294       9295       9306       9305       9415       9416       9427       9426  
      9296       9297       9308       9307       9417       9418       9429       9428  
      9297       9298       9309       9308       9418       9419       9430       9429  
      9298       9299       9310       9309       9419       9420       9431       9430  
      9299       9300       9311       9310       9420       9421       9432       9431  
      9300       9301       9312       9311       9421       9422       9433       9432  
      9301       9302       9313       9312       9422       9423       9434       9433  
      9302       9303       9314       9313       9423       9424       9435       9434  
      9303       9304       9315       9314       9424       9425       9436       9435  
      9304       9305       9316       9315       9425       9426       9437       9436  
      9305       9306       9317       9316       9426       9427       9438       9437  
      9318       9319       9330       9329       9439       9440       9451       9450  
      9319       9320       9331       9330       9440       9441       9452       9451  
      9320       9321       9332       9331       9441       9442       9453       9452  
      9321       9322       9333       9332       9442       9443       9454       9453  
      9322       9323       9334       9333       9443       9444       9455       9454  
      9323       9324       9335       9334       9444       9445       9456       9455  
      9324       9325       9336       9335       9445       9446       9457       9456  
      9325       9326       9337       9336       9446       9447       9458       9457  
      9326       9327       9338       9337       9447       9448       9459       9458  
      9327       9328       9339       9338       9448       9449       9460       9459  
      9329       9330       9341       9340       9450       9451       9462       9461  
      9330       9331       9342       9341       9451       9452       9463       9462  
      9331       9332       9343       9342       9452       9453       9464       9463  
      9332       9333       9344       9343       9453       9454       9465       9464  
      9333       9334       9345       9344       9454       9455       9466       9465  
      9334       9335       9346       9345       9455       9456       9467       9466  
      9335       9336       9347       9346       9456       9457       9468       9467  
      9336       9337       9348       9347       9457       9458       9469       9468  
      9337       9338       9349       9348       9458       9459       9470       9469  
      9338       9339       9350       9349       9459       9460       9471       9470  
      9340       9341       9352       9351       9461       9462       9473       9472  
      9341       9342       9353       9352       9462       9463       9474       9473  
      9342       9343       9354       9353       9463       9464       9475       9474  
      9343       9344       9355       9354       9464       9465       9476       9475  
      9344       9345       9356       9355       9465       9466       9477       9476  
      9345       9346       9357       9356       9466       9467       9478       9477  
      9346       9347       9358       9357       9467       9468       9479       9478  
      9347       9348       9359       9358       9468       9469       9480       9479  
      9348       9349       9360       9359       9469       9470       9481       9480  
      9349       9350       9361       9360       9470       9471       9482       9481  
      9351       9352       9363       9362       9472       9473       9484       9483  
      9352       9353       9364       9363       9473       9474       9485       9484  
      9353       9354       9365       9364       9474       9475       9486       9485  
      9354       9355       9366       9365       9475       9476       9487       9486  
      9355       9356       9367       9366       9476       9477       9488       9487  
      9356       9357       9368       9367       9477       9478       9489       9488  
      9357       9358       9369       9368       9478       9479       9490       9489  
      9358       9359       9370       9369       9479       9480       9491       9490  
      9359       9360       9371       9370       9480       9481       9492       9491  
      9360       9361       9372       9371       9481       9482       9493       9492  
      9362       9363       9374       9373       9483       9484       9495       9494  
      9363       9364       9375       9374       9484       9485       9496       9495  
      9364       9365       9376       9375       9485       9486       9497       9496  
      9365       9366       9377       9376       9486       9487       9498       9497  
      9366       9367       9378       9377       9487       9488       9499       9498  
      9367       9368       9379       9378       9488       9489       9500       9499  
      9368       9369       9380       9379       9489       9490       9501       9500  
      9369       9370       9381       9380       9490       9491       9502       9501  
      9370       9371       9382       9381       9491       9492       9503       9502  
      9371       9372       9383       9382       9492       9493       9504       9503  
      9373       9374       9385       9384       9494       9495       9506       9505  
      9374       9375       9386       9385       9495       9496       9507       9506  
      9375       9376       9387       9386       9496       9497       9508       9507  
      9376       9377       9388       9387       9497       9498       9509       9508  
      9377       9378       9389       9388       9498       9499       9510       9509  
      9378       9379       9390       9389       9499       9500       9511       9510  
      9379       9380       9391       9390       9500       9501       9512       9511  
      9380       9381       9392       9391       9501       9502       9513       9512  
      9381       9382       9393       9392       9502       9503       9514       9513  
      9382       9383       9394       9393       9503       9504       9515       9514  
      9384       9385       9396       9395       9505       9506       9517       9516  
      9385       9386       9397       9396       9506       9507       9518       9517  
      9386       9387       9398       9397       9507       9508       9519       9518  
      9387       9388       9399       9398       9508       9509       9520       9519  
      9388       9389       9400       9399       9509       9510       9521       9520  
      9389       9390       9401       9400       9510       9511       9522       9521  
      9390       9391       9402       9401       9511       9512       9523       9522  
      9391       9392       9403       9402       9512       9513       9524       9523  
      9392       9393       9404       9403       9513       9514       9525       9524  
      9393       9394       9405       9404       9514       9515       9526       9525  
      9395       9396       9407       9406       9516       9517       9528       9527  
      9396       9397       9408       9407       9517       9518       9529       9528  
      9397       9398       9409       9408       9518       9519       9530       9529  
      9398       9399       9410       9409       9519       9520       9531       9530  
      9399       9400       9411       9410       9520       9521       9532       9531  
      9400       9401       9412       9411       9521       9522       9533       9532  
      9401       9402       9413       9412       9522       9523       9534       9533  
      9402       9403       9414       9413       9523       9524       9535       9534  
      9403       9404       9415       9414       9524       9525       9536       9535  
      9404       9405       9416       9415       9525       9526       9537       9536  
      9406       9407       9418       9417       9527       9528       9539       9538  
      9407       9408       9419       9418       9528       9529       9540       9539  
      9408       9409       9420       9419       9529       9530       9541       9540  
      9409       9410       9421       9420       9530       9531       9542       9541  
      9410       9411       9422       9421       9531       9532       9543       9542  
      9411       9412       9423       9422       9532       9533       9544       9543  
      9412       9413       9424       9423       9533       9534       9545       9544  
      9413       9414       9425       9424       9534       9535       9546       9545  
      9414       9415       9426       9425       9535       9536       9547       9546  
      9415       9416       9427       9426       9536       9537       9548       9547  
      9417       9418       9429       9428       9538       9539       9550       9549  
      9418       9419       9430       9429       9539       9540       9551       9550  
      9419       9420       9431       9430       9540       9541       9552       9551  
      9420       9421       9432       9431       9541       9542       9553       9552  
      9421       9422       9433       9432       9542       9543       9554       9553  
      9422       9423       9434       9433       9543       9544       9555       9554  
      9423       9424       9435       9434       9544       9545       9556       9555  
      9424       9425       9436       9435       9545       9546       9557       9556  
      9425       9426       9437       9436       9546       9547       9558       9557  
      9426       9427       9438       9437       9547       9548       9559       9558  
      9439       9440       9451       9450       9560       9561       9572       9571  
      9440       9441       9452       9451       9561       9562       9573       9572  
      9441       9442       9453       9452       9562       9563       9574       9573  
      9442       9443       9454       9453       9563       9564       9575       9574  
      9443       9444       9455       9454       9564       9565       9576       9575  
      9444       9445       9456       9455       9565       9566       9577       9576  
      9445       9446       9457       9456       9566       9567       9578       9577  
      9446       9447       9458       9457       9567       9568       9579       9578  
      9447       9448       9459       9458       9568       9569       9580       9579  
      9448       9449       9460       9459       9569       9570       9581       9580  
      9450       9451       9462       9461       9571       9572       9583       9582  
      9451       9452       9463       9462       9572       9573       9584       9583  
      9452       9453       9464       9463       9573       9574       9585       9584  
      9453       9454       9465       9464       9574       9575       9586       9585  
      9454       9455       9466       9465       9575       9576       9587       9586  
      9455       9456       9467       9466       9576       9577       9588       9587  
      9456       9457       9468       9467       9577       9578       9589       9588  
      9457       9458       9469       9468       9578       9579       9590       9589  
      9458       9459       9470       9469       9579       9580       9591       9590  
      9459       9460       9471       9470       9580       9581       9592       9591  
      9461       9462       9473       9472       9582       9583       9594       9593  
      9462       9463       9474       9473       9583       9584       9595       9594  
      9463       9464       9475       9474       9584       9585       9596       9595  
      9464       9465       9476       9475       9585       9586       9597       9596  
      9465       9466       9477       9476       9586       9587       9598       9597  
      9466       9467       9478       9477       9587       9588       9599       9598  
      9467       9468       9479       9478       9588       9589       9600       9599  
      9468       9469       9480       9479       9589       9590       9601       9600  
      9469       9470       9481       9480       9590       9591       9602       9601  
      9470       9471       9482       9481       9591       9592       9603       9602  
      9472       9473       9484       9483       9593       9594       9605       9604  
      9473       9474       9485       9484       9594       9595       9606       9605  
      9474       9475       9486       9485       9595       9596       9607       9606  
      9475       9476       9487       9486       9596       9597       9608       9607  
      9476       9477       9488       9487       9597       9598       9609       9608  
      9477       9478       9489       9488       9598       9599       9610       9609  
      9478       9479       9490       9489       9599       9600       9611       9610  
      9479       9480       9491       9490       9600       9601       9612       9611  
      9480       9481       9492       9491       9601       9602       9613       9612  
      9481       9482       9493       9492       9602       9603       9614       9613  
      9483       9484       9495       9494       9604       9605       9616       9615  
      9484       9485       9496       9495       9605       9606       9617       9616  
      9485       9486       9497       9496       9606       9607       9618       9617  
      9486       9487       9498       9497       9607       9608       9619       9618  
      9487       9488       9499       9498       9608       9609       9620       9619  
      9488       9489       9500       9499       9609       9610       9621       9620  
      9489       9490       9501       9500       9610       9611       9622       9621  
      9490       9491       9502       9501       9611       9612       9623       9622  
      9491       9492       9503       9502       9612       9613       9624       9623  
      9492       9493       9504       9503       9613       9614       9625       9624  
      9494       9495       9506       9505       9615       9616       9627       9626  
      9495       9496       9507       9506       9616       9617       9628       9627  
      9496       9497       9508       9507       9617       9618       9629       9628  
      9497       9498       9509       9508       9618       9619       9630       9629  
      9498       9499       9510       9509       9619       9620       9631       9630  
      9499       9500       9511       9510       9620       9621       9632       9631  
      9500       9501       9512       9511       9621       9622       9633       9632  
      9501       9502       9513       9512       9622       9623       9634       9633  
      9502       9503       9514       9513       9623       9624       9635       9634  
      9503       9504       9515       9514       9624       9625       9636       9635  
      9505       9506       9517       9516       9626       9627       9638       9637  
      9506       9507       9518       9517       9627       9628       9639       9638  
      9507       9508       9519       9518       9628       9629       9640       9639  
      9508       9509       9520       9519       9629       9630       9641       9640  
      9509       9510       9521       9520       9630       9631       9642       9641  
      9510       9511       9522       9521       9631       9632       9643       9642  
      9511       9512       9523       9522       9632       9633       9644       9643  
      9512       9513       9524       9523       9633       9634       9645       9644  
      9513       9514       9525       9524       9634       9635       9646       9645  
      9514       9515       9526       9525       9635       9636       9647       9646  
      9516       9517       9528       9527       9637       9638       9649       9648  
      9517       9518       9529       9528       9638       9639       9650       9649  
      9518       9519       9530       9529       9639       9640       9651       9650  
      9519       9520       9531       9530       9640       9641       9652       9651  
      9520       9521       9532       9531       9641       9642       9653       9652  
      9521       9522       9533       9532       9642       9643       9654       9653  
      9522       9523       9534       9533       9643       9644       9655       9654  
      9523       9524       9535       9534       9644       9645       9656       9655  
      9524       9525       9536       9535       9645       9646       9657       9656  
      9525       9526       9537       9536       9646       9647       9658       9657  
      9527       9528       9539       9538       9648       9649       9660       9659  
      9528       9529       9540       9539       9649       9650       9661       9660  
      9529       9530       9541       9540       9650       9651       9662       9661  
      9530       9531       9542       9541       9651       9652       9663       9662  
      9531       9532       9543       9542       9652       9653       9664       9663  
      9532       9533       9544       9543       9653       9654       9665       9664  
      9533       9534       9545       9544       9654       9655       9666       9665  
      9534       9535       9546       9545       9655       9656       9667       9666  
      9535       9536       9547       9546       9656       9657       9668       9667  
      9536       9537       9548       9547       9657       9658       9669       9668  
      9538       9539       9550       9549       9659       9660       9671       9670  
      9539       9540       9551       9550       9660       9661       9672       9671  
      9540       9541       9552       9551       9661       9662       9673       9672  
      9541       9542       9553       9552       9662       9663       9674       9673  
      9542       9543       9554       9553       9663       9664       9675       9674  
      9543       9544       9555       9554       9664       9665       9676       9675  
      9544       9545       9556       9555       9665       9666       9677       9676  
      9545       9546       9557       9556       9666       9667       9678       9677  
      9546       9547       9558       9557       9667       9668       9679       9678  
      9547       9548       9559       9558       9668       9669       9680       9679  
      9560       9561       9572       9571       9681       9682       9693       9692  
      9561       9562       9573       9572       9682       9683       9694       9693  
      9562       9563       9574       9573       9683       9684       9695       9694  
      9563       9564       9575       9574       9684       9685       9696       9695  
      9564       9565       9576       9575       9685       9686       9697       9696  
      9565       9566       9577       9576       9686       9687       9698       9697  
      9566       9567       9578       9577       9687       9688       9699       9698  
      9567       9568       9579       9578       9688       9689       9700       9699  
      9568       9569       9580       9579       9689       9690       9701       9700  
      9569       9570       9581       9580       9690       9691       9702       9701  
      9571       9572       9583       9582       9692       9693       9704       9703  
      9572       9573       9584       9583       9693       9694       9705       9704  
      9573       9574       9585       9584       9694       9695       9706       9705  
      9574       9575       9586       9585       9695       9696       9707       9706  
      9575       9576       9587       9586       9696       9697       9708       9707  
      9576       9577       9588       9587       9697       9698       9709       9708  
      9577       9578       9589       9588       9698       9699       9710       9709  
      9578       9579       9590       9589       9699       9700       9711       9710  
      9579       9580       9591       9590       9700       9701       9712       9711  
      9580       9581       9592       9591       9701       9702       9713       9712  
      9582       9583       9594       9593       9703       9704       9715       9714  
      9583       9584       9595       9594       9704       9705       9716       9715  
      9584       9585       9596       9595       9705       9706       9717       9716  
      9585       9586       9597       9596       9706       9707       9718       9717  
      9586       9587       9598       9597       9707       9708       9719       9718  
      9587       9588       9599       9598       9708       9709       9720       9719  
      9588       9589       9600       9599       9709       9710       9721       9720  
      9589       9590       9601       9600       9710       9711       9722       9721  
      9590       9591       9602       9601       9711       9712       9723       9722  
      9591       9592       9603       9602       9712       9713       9724       9723  
      9593       9594       9605       9604       9714       9715       9726       9725  
      9594       9595       9606       9605       9715       9716       9727       9726  
      9595       9596       9607       9606       9716       9717       9728       9727  
      9596       9597       9608       9607       9717       9718       9729       9728  
      9597       9598       9609       9608       9718       9719       9730       9729  
      9598       9599       9610       9609       9719       9720       9731       9730  
      9599       9600       9611       9610       9720       9721       9732       9731  
      9600       9601       9612       9611       9721       9722       9733       9732  
      9601       9602       9613       9612       9722       9723       9734       9733  
      9602       9603       9614       9613       9723       9724       9735       9734  
      9604       9605       9616       9615       9725       9726       9737       9736  
      9605       9606       9617       9616       9726       9727       9738       9737  
      9606       9607       9618       9617       9727       9728       9739       9738  
      9607       9608       9619       9618       9728       9729       9740       9739  
      9608       9609       9620       9619       9729       9730       9741       9740  
      9609       9610       9621       9620       9730       9731       9742       9741  
      9610       9611       9622       9621       9731       9732       9743       9742  
      9611       9612       9623       9622       9732       9733       9744       9743  
      9612       9613       9624       9623       9733       9734       9745       9744  
      9613       9614       9625       9624       9734       9735       9746       9745  
      9615       9616       9627       9626       9736       9737       9748       9747  
      9616       9617       9628       9627       9737       9738       9749       9748  
      9617       9618       9629       9628       9738       9739       9750       9749  
      9618       9619       9630       9629       9739       9740       9751       9750  
      9619       9620       9631       9630       9740       9741       9752       9751  
      9620       9621       9632       9631       9741       9742       9753       9752  
      9621       9622       9633       9632       9742       9743       9754       9753  
      9622       9623       9634       9633       9743       9744       9755       9754  
      9623       9624       9635       9634       9744       9745       9756       9755  
      9624       9625       9636       9635       9745       9746       9757       9756  
      9626       9627       9638       9637       9747       9748       9759       9758  
      9627       9628       9639       9638       9748       9749       9760       9759  
      9628       9629       9640       9639       9749       9750       9761       9760  
      9629       9630       9641       9640       9750       9751       9762       9761  
      9630       9631       9642       9641       9751       9752       9763       9762  
      9631       9632       9643       9642       9752       9753       9764       9763  
      9632       9633       9644       9643       9753       9754       9765       9764  
      9633       9634       9645       9644       9754       9755       9766       9765  
      9634       9635       9646       9645       9755       9756       9767       9766  
      9635       9636       9647       9646       9756       9757       9768       9767  
      9637       9638       9649       9648       9758       9759       9770       9769  
      9638       9639       9650       9649       9759       9760       9771       9770  
      9639       9640       9651       9650       9760       9761       9772       9771  
      9640       9641       9652       9651       9761       9762       9773       9772  
      9641       9642       9653       9652       9762       9763       9774       9773  
      9642       9643       9654       9653       9763       9764       9775       9774  
      9643       9644       9655       9654       9764       9765       9776       9775  
      9644       9645       9656       9655       9765       9766       9777       9776  
      9645       9646       9657       9656       9766       9767       9778       9777  
      9646       9647       9658       9657       9767       9768       9779       9778  
      9648       9649       9660       9659       9769       9770       9781       9780  
      9649       9650       9661       9660       9770       9771       9782       9781  
      9650       9651       9662       9661       9771       9772       9783       9782  
      9651       9652       9663       9662       9772       9773       9784       9783  
      9652       9653       9664       9663       9773       9774       9785       9784  
      9653       9654       9665       9664       9774       9775       9786       9785  
      9654       9655       9666       9665       9775       9776       9787       9786  
      9655       9656       9667       9666       9776       9777       9788       9787  
      9656       9657       9668       9667       9777       9778       9789       9788  
      9657       9658       9669       9668       9778       9779       9790       9789  
      9659       9660       9671       9670       9780       9781       9792       9791  
      9660       9661       9672       9671       9781       9782       9793       9792  
      9661       9662       9673       9672       9782       9783       9794       9793  
      9662       9663       9674       9673       9783       9784       9795       9794  
      9663       9664       9675       9674       9784       9785       9796       9795  
      9664       9665       9676       9675       9785       9786       9797       9796  
      9665       9666       9677       9676       9786       9787       9798       9797  
      9666       9667       9678       9677       9787       9788       9799       9798  
      9667       9668       9679       9678       9788       9789       9800       9799  
      9668       9669       9680       9679       9789       9790       9801       9800  
      9681       9682       9693       9692       9802       9803       9814       9813  
      9682       9683       9694       9693       9803       9804       9815       9814  
      9683       9684       9695       9694       9804       9805       9816       9815  
      9684       9685       9696       9695       9805       9806       9817       9816  
      9685       9686       9697       9696       9806       9807       9818       9817  
      9686       9687       9698       9697       9807       9808       9819       9818  
      9687       9688       9699       9698       9808       9809       9820       9819  
      9688       9689       9700       9699       9809       9810       9821       9820  
      9689       9690       9701       9700       9810       9811       9822       9821  
      9690       9691       9702       9701       9811       9812       9823       9822  
      9692       9693       9704       9703       9813       9814       9825       9824  
      9693       9694       9705       9704       9814       9815       9826       9825  
      9694       9695       9706       9705       9815       9816       9827       9826  
      9695       9696       9707       9706       9816       9817       9828       9827  
      9696       9697       9708       9707       9817       9818       9829       9828  
      9697       9698       9709       9708       9818       9819       9830       9829  
      9698       9699       9710       9709       9819       9820       9831       9830  
      9699       9700       9711       9710       9820       9821       9832       9831  
      9700       9701       9712       9711       9821       9822       9833       9832  
      9701       9702       9713       9712       9822       9823       9834       9833  
      9703       9704       9715       9714       9824       9825       9836       9835  
      9704       9705       9716       9715       9825       9826       9837       9836  
      9705       9706       9717       9716       9826       9827       9838       9837  
      9706       9707       9718       9717       9827       9828       9839       9838  
      9707       9708       9719       9718       9828       9829       9840       9839  
      9708       9709       9720       9719       9829       9830       9841       9840  
      9709       9710       9721       9720       9830       9831       9842       9841  
      9710       9711       9722       9721       9831       9832       9843       9842  
      9711       9712       9723       9722       9832       9833       9844       9843  
      9712       9713       9724       9723       9833       9834       9845       9844  
      9714       9715       9726       9725       9835       9836       9847       9846  
      9715       9716       9727       9726       9836       9837       9848       9847  
      9716       9717       9728       9727       9837       9838       9849       9848  
      9717       9718       9729       9728       9838       9839       9850       9849  
      9718       9719       9730       9729       9839       9840       9851       9850  
      9719       9720       9731       9730       9840       9841       9852       9851  
      9720       9721       9732       9731       9841       9842       9853       9852  
      9721       9722       9733       9732       9842       9843       9854       9853  
      9722       9723       9734       9733       9843       9844       9855       9854  
      9723       9724       9735       9734       9844       9845       9856       9855  
      9725       9726       9737       9736       9846       9847       9858       9857  
      9726       9727       9738       9737       9847       9848       9859       9858  
      9727       9728       9739       9738       9848       9849       9860       9859  
      9728       9729       9740       9739       9849       9850       9861       9860  
      9729       9730       9741       9740       9850       9851       9862       9861  
      9730       9731       9742       9741       9851       9852       9863       9862  
      9731       9732       9743       9742       9852       9853       9864       9863  
      9732       9733       9744       9743       9853       9854       9865       9864  
      9733       9734       9745       9744       9854       9855       9866       9865  
      9734       9735       9746       9745       9855       9856       9867       9866  
      9736       9737       9748       9747       9857       9858       9869       9868  
      9737       9738       9749       9748       9858       9859       9870       9869  
      9738       9739       9750       9749       9859       9860       9871       9870  
      9739       9740       9751       9750       9860       9861       9872       9871  
      9740       9741       9752       9751       9861       9862       9873       9872  
      9741       9742       9753       9752       9862       9863       9874       9873  
      9742       9743       9754       9753       9863       9864       9875       9874  
      9743       9744       9755       9754       9864       9865       9876       9875  
      9744       9745       9756       9755       9865       9866       9877       9876  
      9745       9746       9757       9756       9866       9867       9878       9877  
      9747       9748       9759       9758       9868       9869       9880       9879  
      9748       9749       9760       9759       9869       9870       9881       9880  
      9749       9750       9761       9760       9870       9871       9882       9881  
      9750       9751       9762       9761       9871       9872       9883       9882  
      9751       9752       9763       9762       9872       9873       9884       9883  
      9752       9753       9764       9763       9873       9874       9885       9884  
      9753       9754       9765       9764       9874       9875       9886       9885  
      9754       9755       9766       9765       9875       9876       9887       9886  
      9755       9756       9767       9766       9876       9877       9888       9887  
      9756       9757       9768       9767       9877       9878       9889       9888  
      9758       9759       9770       9769       9879       9880       9891       9890  
      9759       9760       9771       9770       9880       9881       9892       9891  
      9760       9761       9772       9771       9881       9882       9893       9892  
      9761       9762       9773       9772       9882       9883       9894       9893  
      9762       9763       9774       9773       9883       9884       9895       9894  
      9763       9764       9775       9774       9884       9885       9896       9895  
      9764       9765       9776       9775       9885       9886       9897       9896  
      9765       9766       9777       9776       9886       9887       9898       9897  
      9766       9767       9778       9777       9887       9888       9899       9898  
      9767       9768       9779       9778       9888       9889       9900       9899  
      9769       9770       9781       9780       9890       9891       9902       9901  
      9770       9771       9782       9781       9891       9892       9903       9902  
      9771       9772       9783       9782       9892       9893       9904       9903  
      9772       9773       9784       9783       9893       9894       9905       9904  
      9773       9774       9785       9784       9894       9895       9906       9905  
      9774       9775       9786       9785       9895       9896       9907       9906  
      9775       9776       9787       9786       9896       9897       9908       9907  
      9776       9777       9788       9787       9897       9898       9909       9908  
      9777       9778       9789       9788       9898       9899       9910       9909  
      9778       9779       9790       9789       9899       9900       9911       9910  
      9780       9781       9792       9791       9901       9902       9913       9912  
      9781       9782       9793       9792       9902       9903       9914       9913  
      9782       9783       9794       9793       9903       9904       9915       9914  
      9783       9784       9795       9794       9904       9905       9916       9915  
      9784       9785       9796       9795       9905       9906       9917       9916  
      9785       9786       9797       9796       9906       9907       9918       9917  
      9786       9787       9798       9797       9907       9908       9919       9918  
      9787       9788       9799       9798       9908       9909       9920       9919  
      9788       9789       9800       9799       9909       9910       9921       9920  
      9789       9790       9801       9800       9910       9911       9922       9921  
      9802       9803       9814       9813       9923       9924       9935       9934  
      9803       9804       9815       9814       9924       9925       9936       9935  
      9804       9805       9816       9815       9925       9926       9937       9936  
      9805       9806       9817       9816       9926       9927       9938       9937  
      9806       9807       9818       9817       9927       9928       9939       9938  
      9807       9808       9819       9818       9928       9929       9940       9939  
      9808       9809       9820       9819       9929       9930       9941       9940  
      9809       9810       9821       9820       9930       9931       9942       9941  
      9810       9811       9822       9821       9931       9932       9943       9942  
      9811       9812       9823       9822       9932       9933       9944       9943  
      9813       9814       9825       9824       9934       9935       9946       9945  
      9814       9815       9826       9825       9935       9936       9947       9946  
      9815       9816       9827       9826       9936       9937       9948       9947  
      9816       9817       9828       9827       9937       9938       9949       9948  
      9817       9818       9829       9828       9938       9939       9950       9949  
      9818       9819       9830       9829       9939       9940       9951       9950  
      9819       9820       9831       9830       9940       9941       9952       9951  
      9820       9821       9832       9831       9941       9942       9953       9952  
      9821       9822       9833       9832       9942       9943       9954       9953  
      9822       9823       9834       9833       9943       9944       9955       9954  
      9824       9825       9836       9835       9945       9946       9957       9956  
      9825       9826       9837       9836       9946       9947       9958       9957  
      9826       9827       9838       9837       9947       9948       9959       9958  
      9827       9828       9839       9838       9948       9949       9960       9959  
      9828       9829       9840       9839       9949       9950       9961       9960  
      9829       9830       9841       9840       9950       9951       9962       9961  
      9830       9831       9842       9841       9951       9952       9963       9962  
      9831       9832       9843       9842       9952       9953       9964       9963  
      9832       9833       9844       9843       9953       9954       9965       9964  
      9833       9834       9845       9844       9954       9955       9966       9965  
      9835       9836       9847       9846       9956       9957       9968       9967  
      9836       9837       9848       9847       9957       9958       9969       9968  
      9837       9838       9849       9848       9958       9959       9970       9969  
      9838       9839       9850       9849       9959       9960       9971       9970  
      9839       9840       9851       9850       9960       9961       9972       9971  
      9840       9841       9852       9851       9961       9962       9973       9972  
      9841       9842       9853       9852       9962       9963       9974       9973  
      9842       9843       9854       9853       9963       9964       9975       9974  
      9843       9844       9855       9854       9964       9965       9976       9975  
      9844       9845       9856       9855       9965       9966       9977       9976  
      9846       9847       9858       9857       9967       9968       9979       9978  
      9847       9848       9859       9858       9968       9969       9980       9979  
      9848       9849       9860       9859       9969       9970       9981       9980  
      9849       9850       9861       9860       9970       9971       9982       9981  
      9850       9851       9862       9861       9971       9972       9983       9982  
      9851       9852       9863       9862       9972       9973       9984       9983  
      9852       9853       9864       9863       9973       9974       9985       9984  
      9853       9854       9865       9864       9974       9975       9986       9985  
      9854       9855       9866       9865       9975       9976       9987       9986  
      9855       9856       9867       9866       9976       9977       9988       9987  
      9857       9858       9869       9868       9978       9979       9990       9989  
      9858       9859       9870       9869       9979       9980       9991       9990  
      9859       9860       9871       9870       9980       9981       9992       9991  
      9860       9861       9872       9871       9981       9982       9993       9992  
      9861       9862       9873       9872       9982       9983       9994       9993  
      9862       9863       9874       9873       9983       9984       9995       9994  
      9863       9864       9875       9874       9984       9985       9996       9995  
      9864       9865       9876       9875       9985       9986       9997       9996  
      9865       9866       9877       9876       9986       9987       9998       9997  
      9866       9867       9878       9877       9987       9988       9999       9998  
      9868       9869       9880       9879       9989       9990      10001      10000  
      9869       9870       9881       9880       9990       9991      10002      10001  
      9870       9871       9882       9881       9991       9992      10003      10002  
      9871       9872       9883       9882       9992       9993      10004      10003  
      9872       9873       9884       9883       9993       9994      10005      10004  
      9873       9874       9885       9884       9994       9995      10006      10005  
      9874       9875       9886       9885       9995       9996      10007      10006  
      9875       9876       9887       9886       9996       9997      10008      10007  
      9876       9877       9888       9887       9997       9998      10009      10008  
      9877       9878       9889       9888       9998       9999      10010      10009  
      9879       9880       9891       9890      10000      10001      10012      10011  
      9880       9881       9892       9891      10001      10002      10013      10012  
      9881       9882       9893       9892      10002      10003      10014      10013  
      9882       9883       9894       9893      10003      10004      10015      10014  
      9883       9884       9895       9894      10004      10005      10016      10015  
      9884       9885       9896       9895      10005      10006      10017      10016  
      9885       9886       9897       9896      10006      10007      10018      10017  
      9886       9887       9898       9897      10007      10008      10019      10018  
      9887       9888       9899       9898      10008      10009      10020      10019  
      9888       9889       9900       9899      10009      10010      10021      10020  
      9890       9891       9902       9901      10011      10012      10023      10022  
      9891       9892       9903       9902      10012      10013      10024      10023  
      9892       9893       9904       9903      10013      10014      10025      10024  
      9893       9894       9905       9904      10014      10015      10026      10025  
      9894       9895       9906       9905      10015      10016      10027      10026  
      9895       9896       9907       9906      10016      10017      10028      10027  
      9896       9897       9908       9907      10017      10018      10029      10028  
      9897       9898       9909       9908      10018      10019      10030      10029  
      9898       9899       9910       9909      10019      10020      10031      10030  
      9899       9900       9911       9910      10020      10021      10032      10031  
      9901       9902       9913       9912      10022      10023      10034      10033  
      9902       9903       9914       9913      10023      10024      10035      10034  
      9903       9904       9915       9914      10024      10025      10036      10035  
      9904       9905       9916       9915      10025      10026      10037      10036  
      9905       9906       9917       9916      10026      10027      10038      10037  
      9906       9907       9918       9917      10027      10028      10039      10038  
      9907       9908       9919       9918      10028      10029      10040      10039  
      9908       9909       9920       9919      10029      10030      10041      10040  
      9909       9910       9921       9920      10030      10031      10042      10041  
      9910       9911       9922       9921      10031      10032      10043      10042  
      9923       9924       9935       9934      10044      10045      10056      10055  
      9924       9925       9936       9935      10045      10046      10057      10056  
      9925       9926       9937       9936      10046      10047      10058      10057  
      9926       9927       9938       9937      10047      10048      10059      10058  
      9927       9928       9939       9938      10048      10049      10060      10059  
      9928       9929       9940       9939      10049      10050      10061      10060  
      9929       9930       9941       9940      10050      10051      10062      10061  
      9930       9931       9942       9941      10051      10052      10063      10062  
      9931       9932       9943       9942      10052      10053      10064      10063  
      9932       9933       9944       9943      10053      10054      10065      10064  
      9934       9935       9946       9945      10055      10056      10067      10066  
      9935       9936       9947       9946      10056      10057      10068      10067  
      9936       9937       9948       9947      10057      10058      10069      10068  
      9937       9938       9949       9948      10058      10059      10070      10069  
      9938       9939       9950       9949      10059      10060      10071      10070  
      9939       9940       9951       9950      10060      10061      10072      10071  
      9940       9941       9952       9951      10061      10062      10073      10072  
      9941       9942       9953       9952      10062      10063      10074      10073  
      9942       9943       9954       9953      10063      10064      10075      10074  
      9943       9944       9955       9954      10064      10065      10076      10075  
      9945       9946       9957       9956      10066      10067      10078      10077  
      9946       9947       9958       9957      10067      10068      10079      10078  
      9947       9948       9959       9958      10068      10069      10080      10079  
      9948       9949       9960       9959      10069      10070      10081      10080  
      9949       9950       9961       9960      10070      10071      10082      10081  
      9950       9951       9962       9961      10071      10072      10083      10082  
      9951       9952       9963       9962      10072      10073      10084      10083  
      9952       9953       9964       9963      10073      10074      10085      10084  
      9953       9954       9965       9964      10074      10075      10086      10085  
      9954       9955       9966       9965      10075      10076      10087      10086  
      9956       9957       9968       9967      10077      10078      10089      10088  
      9957       9958       9969       9968      10078      10079      10090      10089  
      9958       9959       9970       9969      10079      10080      10091      10090  
      9959       9960       9971       9970      10080      10081      10092      10091  
      9960       9961       9972       9971      10081      10082      10093      10092  
      9961       9962       9973       9972      10082      10083      10094      10093  
      9962       9963       9974       9973      10083      10084      10095      10094  
      9963       9964       9975       9974      10084      10085      10096      10095  
      9964       9965       9976       9975      10085      10086      10097      10096  
      9965       9966       9977       9976      10086      10087      10098      10097  
      9967       9968       9979       9978      10088      10089      10100      10099  
      9968       9969       9980       9979      10089      10090      10101      10100  
      9969       9970       9981       9980      10090      10091      10102      10101  
      9970       9971       9982       9981      10091      10092      10103      10102  
      9971       9972       9983       9982      10092      10093      10104      10103  
      9972       9973       9984       9983      10093      10094      10105      10104  
      9973       9974       9985       9984      10094      10095      10106      10105  
      9974       9975       9986       9985      10095      10096      10107      10106  
      9975       9976       9987       9986      10096      10097      10108      10107  
      9976       9977       9988       9987      10097      10098      10109      10108  
      9978       9979       9990       9989      10099      10100      10111      10110  
      9979       9980       9991       9990      10100      10101      10112      10111  
      9980       9981       9992       9991      10101      10102      10113      10112  
      9981       9982       9993       9992      10102      10103      10114      10113  
      9982       9983       9994       9993      10103      10104      10115      10114  
      9983       9984       9995       9994      10104      10105      10116      10115  
      9984       9985       9996       9995      10105      10106      10117      10116  
      9985       9986       9997       9996      10106      10107      10118      10117  
      9986       9987       9998       9997      10107      10108      10119      10118  
      9987       9988       9999       9998      10108      10109      10120      10119  
      9989       9990      10001      10000      10110      10111      10122      10121  
      9990       9991      10002      10001      10111      10112      10123      10122  
      9991       9992      10003      10002      10112      10113      10124      10123  
      9992       9993      10004      10003      10113      10114      10125      10124  
      9993       9994      10005      10004      10114      10115      10126      10125  
      9994       9995      10006      10005      10115      10116      10127      10126  
      9995       9996      10007      10006      10116      10117      10128      10127  
      9996       9997      10008      10007      10117      10118      10129      10128  
      9997       9998      10009      10008      10118      10119      10130      10129  
      9998       9999      10010      10009      10119      10120      10131      10130  
     10000      10001      10012      10011      10121      10122      10133      10132  
     10001      10002      10013      10012      10122      10123      10134      10133  
     10002      10003      10014      10013      10123      10124      10135      10134  
     10003      10004      10015      10014      10124      10125      10136      10135  
     10004      10005      10016      10015      10125      10126      10137      10136  
     10005      10006      10017      10016      10126      10127      10138      10137  
     10006      10007      10018      10017      10127      10128      10139      10138  
     10007      10008      10019      10018      10128      10129      10140      10139  
     10008      10009      10020      10019      10129      10130      10141      10140  
     10009      10010      10021      10020      10130      10131      10142      10141  
     10011      10012      10023      10022      10132      10133      10144      10143  
     10012      10013      10024      10023      10133      10134      10145      10144  
     10013      10014      10025      10024      10134      10135      10146      10145  
     10014      10015      10026      10025      10135      10136      10147      10146  
     10015      10016      10027      10026      10136      10137      10148      10147  
     10016      10017      10028      10027      10137      10138      10149      10148  
     10017      10018      10029      10028      10138      10139      10150      10149  
     10018      10019      10030      10029      10139      10140      10151      10150  
     10019      10020      10031      10030      10140      10141      10152      10151  
     10020      10021      10032      10031      10141      10142      10153      10152  
     10022      10023      10034      10033      10143      10144      10155      10154  
     10023      10024      10035      10034      10144      10145      10156      10155  
     10024      10025      10036      10035      10145      10146      10157      10156  
     10025      10026      10037      10036      10146      10147      10158      10157  
     10026      10027      10038      10037      10147      10148      10159      10158  
     10027      10028      10039      10038      10148      10149      10160      10159  
     10028      10029      10040      10039      10149      10150      10161      10160  
     10029      10030      10041      10040      10150      10151      10162      10161  
     10030      10031      10042      10041      10151      10152      10163      10162  
     10031      10032      10043      10042      10152      10153      10164      10163  
     10044      10045      10056      10055      10165      10166      10177      10176  
     10045      10046      10057      10056      10166      10167      10178      10177  
     10046      10047      10058      10057      10167      10168      10179      10178  
     10047      10048      10059      10058      10168      10169      10180      10179  
     10048      10049      10060      10059      10169      10170      10181      10180  
     10049      10050      10061      10060      10170      10171      10182      10181  
     10050      10051      10062      10061      10171      10172      10183      10182  
     10051      10052      10063      10062      10172      10173      10184      10183  
     10052      10053      10064      10063      10173      10174      10185      10184  
     10053      10054      10065      10064      10174      10175      10186      10185  
     10055      10056      10067      10066      10176      10177      10188      10187  
     10056      10057      10068      10067      10177      10178      10189      10188  
     10057      10058      10069      10068      10178      10179      10190      10189  
     10058      10059      10070      10069      10179      10180      10191      10190  
     10059      10060      10071      10070      10180      10181      10192      10191  
     10060      10061      10072      10071      10181      10182      10193      10192  
     10061      10062      10073      10072      10182      10183      10194      10193  
     10062      10063      10074      10073      10183      10184      10195      10194  
     10063      10064      10075      10074      10184      10185      10196      10195  
     10064      10065      10076      10075      10185      10186      10197      10196  
     10066      10067      10078      10077      10187      10188      10199      10198  
     10067      10068      10079      10078      10188      10189      10200      10199  
     10068      10069      10080      10079      10189      10190      10201      10200  
     10069      10070      10081      10080      10190      10191      10202      10201  
     10070      10071      10082      10081      10191      10192      10203      10202  
     10071      10072      10083      10082      10192      10193      10204      10203  
     10072      10073      10084      10083      10193      10194      10205      10204  
     10073      10074      10085      10084      10194      10195      10206      10205  
     10074      10075      10086      10085      10195      10196      10207      10206  
     10075      10076      10087      10086      10196      10197      10208      10207  
     10077      10078      10089      10088      10198      10199      10210      10209  
     10078      10079      10090      10089      10199      10200      10211      10210  
     10079      10080      10091      10090      10200      10201      10212      10211  
     10080      10081      10092      10091      10201      10202      10213      10212  
     10081      10082      10093      10092      10202      10203      10214      10213  
     10082      10083      10094      10093      10203      10204      10215      10214  
     10083      10084      10095      10094      10204      10205      10216      10215  
     10084      10085      10096      10095      10205      10206      10217      10216  
     10085      10086      10097      10096      10206      10207      10218      10217  
     10086      10087      10098      10097      10207      10208      10219      10218  
     10088      10089      10100      10099      10209      10210      10221      10220  
     10089      10090      10101      10100      10210      10211      10222      10221  
     10090      10091      10102      10101      10211      10212      10223      10222  
     10091      10092      10103      10102      10212      10213      10224      10223  
     10092      10093      10104      10103      10213      10214      10225      10224  
     10093      10094      10105      10104      10214      10215      10226      10225  
     10094      10095      10106      10105      10215      10216      10227      10226  
     10095      10096      10107      10106      10216      10217      10228      10227  
     10096      10097      10108      10107      10217      10218      10229      10228  
     10097      10098      10109      10108      10218      10219      10230      10229  
     10099      10100      10111      10110      10220      10221      10232      10231  
     10100      10101      10112      10111      10221      10222      10233      10232  
     10101      10102      10113      10112      10222      10223      10234      10233  
     10102      10103      10114      10113      10223      10224      10235      10234  
     10103      10104      10115      10114      10224      10225      10236      10235  
     10104      10105      10116      10115      10225      10226      10237      10236  
     10105      10106      10117      10116      10226      10227      10238      10237  
     10106      10107      10118      10117      10227      10228      10239      10238  
     10107      10108      10119      10118      10228      10229      10240      10239  
     10108      10109      10120      10119      10229      10230      10241      10240  
     10110      10111      10122      10121      10231      10232      10243      10242  
     10111      10112      10123      10122      10232      10233      10244      10243  
     10112      10113      10124      10123      10233      10234      10245      10244  
     10113      10114      10125      10124      10234      10235      10246      10245  
     10114      10115      10126      10125      10235      10236      10247      10246  
     10115      10116      10127      10126      10236      10237      10248      10247  
     10116      10117      10128      10127      10237      10238      10249      10248  
     10117      10118      10129      10128      10238      10239      10250      10249  
     10118      10119      10130      10129      10239      10240      10251      10250  
     10119      10120      10131      10130      10240      10241      10252      10251  
     10121      10122      10133      10132      10242      10243      10254      10253  
     10122      10123      10134      10133      10243      10244      10255      10254  
     10123      10124      10135      10134      10244      10245      10256      10255  
     10124      10125      10136      10135      10245      10246      10257      10256  
     10125      10126      10137      10136      10246      10247      10258      10257  
     10126      10127      10138      10137      10247      10248      10259      10258  
     10127      10128      10139      10138      10248      10249      10260      10259  
     10128      10129      10140      10139      10249      10250      10261      10260  
     10129      10130      10141      10140      10250      10251      10262      10261  
     10130      10131      10142      10141      10251      10252      10263      10262  
     10132      10133      10144      10143      10253      10254      10265      10264  
     10133      10134      10145      10144      10254      10255      10266      10265  
     10134      10135      10146      10145      10255      10256      10267      10266  
     10135      10136      10147      10146      10256      10257      10268      10267  
     10136      10137      10148      10147      10257      10258      10269      10268  
     10137      10138      10149      10148      10258      10259      10270      10269  
     10138      10139      10150      10149      10259      10260      10271      10270  
     10139      10140      10151      10150      10260      10261      10272      10271  
     10140      10141      10152      10151      10261      10262      10273      10272  
     10141      10142      10153      10152      10262      10263      10274      10273  
     10143      10144      10155      10154      10264      10265      10276      10275  
     10144      10145      10156      10155      10265      10266      10277      10276  
     10145      10146      10157      10156      10266      10267      10278      10277  
     10146      10147      10158      10157      10267      10268      10279      10278  
     10147      10148      10159      10158      10268      10269      10280      10279  
     10148      10149      10160      10159      10269      10270      10281      10280  
     10149      10150      10161      10160      10270      10271      10282      10281  
     10150      10151      10162      10161      10271      10272      10283      10282  
     10151      10152      10163      10162      10272      10273      10284      10283  
     10152      10153      10164      10163      10273      10274      10285      10284  
     10165      10166      10177      10176      10286      10287      10298      10297  
     10166      10167      10178      10177      10287      10288      10299      10298  
     10167      10168      10179      10178      10288      10289      10300      10299  
     10168      10169      10180      10179      10289      10290      10301      10300  
     10169      10170      10181      10180      10290      10291      10302      10301  
     10170      10171      10182      10181      10291      10292      10303      10302  
     10171      10172      10183      10182      10292      10293      10304      10303  
     10172      10173      10184      10183      10293      10294      10305      10304  
     10173      10174      10185      10184      10294      10295      10306      10305  
     10174      10175      10186      10185      10295      10296      10307      10306  
     10176      10177      10188      10187      10297      10298      10309      10308  
     10177      10178      10189      10188      10298      10299      10310      10309  
     10178      10179      10190      10189      10299      10300      10311      10310  
     10179      10180      10191      10190      10300      10301      10312      10311  
     10180      10181      10192      10191      10301      10302      10313      10312  
     10181      10182      10193      10192      10302      10303      10314      10313  
     10182      10183      10194      10193      10303      10304      10315      10314  
     10183      10184      10195      10194      10304      10305      10316      10315  
     10184      10185      10196      10195      10305      10306      10317      10316  
     10185      10186      10197      10196      10306      10307      10318      10317  
     10187      10188      10199      10198      10308      10309      10320      10319  
     10188      10189      10200      10199      10309      10310      10321      10320  
     10189      10190      10201      10200      10310      10311      10322      10321  
     10190      10191      10202      10201      10311      10312      10323      10322  
     10191      10192      10203      10202      10312      10313      10324      10323  
     10192      10193      10204      10203      10313      10314      10325      10324  
     10193      10194      10205      10204      10314      10315      10326      10325  
     10194      10195      10206      10205      10315      10316      10327      10326  
     10195      10196      10207      10206      10316      10317      10328      10327  
     10196      10197      10208      10207      10317      10318      10329      10328  
     10198      10199      10210      10209      10319      10320      10331      10330  
     10199      10200      10211      10210      10320      10321      10332      10331  
     10200      10201      10212      10211      10321      10322      10333      10332  
     10201      10202      10213      10212      10322      10323      10334      10333  
     10202      10203      10214      10213      10323      10324      10335      10334  
     10203      10204      10215      10214      10324      10325      10336      10335  
     10204      10205      10216      10215      10325      10326      10337      10336  
     10205      10206      10217      10216      10326      10327      10338      10337  
     10206      10207      10218      10217      10327      10328      10339      10338  
     10207      10208      10219      10218      10328      10329      10340      10339  
     10209      10210      10221      10220      10330      10331      10342      10341  
     10210      10211      10222      10221      10331      10332      10343      10342  
     10211      10212      10223      10222      10332      10333      10344      10343  
     10212      10213      10224      10223      10333      10334      10345      10344  
     10213      10214      10225      10224      10334      10335      10346      10345  
     10214      10215      10226      10225      10335      10336      10347      10346  
     10215      10216      10227      10226      10336      10337      10348      10347  
     10216      10217      10228      10227      10337      10338      10349      10348  
     10217      10218      10229      10228      10338      10339      10350      10349  
     10218      10219      10230      10229      10339      10340      10351      10350  
     10220      10221      10232      10231      10341      10342      10353      10352  
     10221      10222      10233      10232      10342      10343      10354      10353  
     10222      10223      10234      10233      10343      10344      10355      10354  
     10223      10224      10235      10234      10344      10345      10356      10355  
     10224      10225      10236      10235      10345      10346      10357      10356  
     10225      10226      10237      10236      10346      10347      10358      10357  
     10226      10227      10238      10237      10347      10348      10359      10358  
     10227      10228      10239      10238      10348      10349      10360      10359  
     10228      10229      10240      10239      10349      10350      10361      10360  
     10229      10230      10241      10240      10350      10351      10362      10361  
     10231      10232      10243      10242      10352      10353      10364      10363  
     10232      10233      10244      10243      10353      10354      10365      10364  
     10233      10234      10245      10244      10354      10355      10366      10365  
     10234      10235      10246      10245      10355      10356      10367      10366  
     10235      10236      10247      10246      10356      10357      10368      10367  
     10236      10237      10248      10247      10357      10358      10369      10368  
     10237      10238      10249      10248      10358      10359      10370      10369  
     10238      10239      10250      10249      10359      10360      10371      10370  
     10239      10240      10251      10250      10360      10361      10372      10371  
     10240      10241      10252      10251      10361      10362      10373      10372  
     10242      10243      10254      10253      10363      10364      10375      10374  
     10243      10244      10255      10254      10364      10365      10376      10375  
     10244      10245      10256      10255      10365      10366      10377      10376  
     10245      10246      10257      10256      10366      10367      10378      10377  
     10246      10247      10258      10257      10367      10368      10379      10378  
     10247      10248      10259      10258      10368      10369      10380      10379  
     10248      10249      10260      10259      10369      10370      10381      10380  
     10249      10250      10261      10260      10370      10371      10382      10381  
     10250      10251      10262      10261      10371      10372      10383      10382  
     10251      10252      10263      10262      10372      10373      10384      10383  
     10253      10254      10265      10264      10374      10375      10386      10385  
     10254      10255      10266      10265      10375      10376      10387      10386  
     10255      10256      10267      10266      10376      10377      10388      10387  
     10256      10257      10268      10267      10377      10378      10389      10388  
     10257      10258      10269      10268      10378      10379      10390      10389  
     10258      10259      10270      10269      10379      10380      10391      10390  
     10259      10260      10271      10270      10380      10381      10392      10391  
     10260      10261      10272      10271      10381      10382      10393      10392  
     10261      10262      10273      10272      10382      10383      10394      10393  
     10262      10263      10274      10273      10383      10384      10395      10394  
     10264      10265      10276      10275      10385      10386      10397      10396  
     10265      10266      10277      10276      10386      10387      10398      10397  
     10266      10267      10278      10277      10387      10388      10399      10398  
     10267      10268      10279      10278      10388      10389      10400      10399  
     10268      10269      10280      10279      10389      10390      10401      10400  
     10269      10270      10281      10280      10390      10391      10402      10401  
     10270      10271      10282      10281      10391      10392      10403      10402  
     10271      10272      10283      10282      10392      10393      10404      10403  
     10272      10273      10284      10283      10393      10394      10405      10404  
     10273      10274      10285      10284      10394      10395      10406      10405  
     10286      10287      10298      10297      10407      10408      10419      10418  
     10287      10288      10299      10298      10408      10409      10420      10419  
     10288      10289      10300      10299      10409      10410      10421      10420  
     10289      10290      10301      10300      10410      10411      10422      10421  
     10290      10291      10302      10301      10411      10412      10423      10422  
     10291      10292      10303      10302      10412      10413      10424      10423  
     10292      10293      10304      10303      10413      10414      10425      10424  
     10293      10294      10305      10304      10414      10415      10426      10425  
     10294      10295      10306      10305      10415      10416      10427      10426  
     10295      10296      10307      10306      10416      10417      10428      10427  
     10297      10298      10309      10308      10418      10419      10430      10429  
     10298      10299      10310      10309      10419      10420      10431      10430  
     10299      10300      10311      10310      10420      10421      10432      10431  
     10300      10301      10312      10311      10421      10422      10433      10432  
     10301      10302      10313      10312      10422      10423      10434      10433  
     10302      10303      10314      10313      10423      10424      10435      10434  
     10303      10304      10315      10314      10424      10425      10436      10435  
     10304      10305      10316      10315      10425      10426      10437      10436  
     10305      10306      10317      10316      10426      10427      10438      10437  
     10306      10307      10318      10317      10427      10428      10439      10438  
     10308      10309      10320      10319      10429      10430      10441      10440  
     10309      10310      10321      10320      10430      10431      10442      10441  
     10310      10311      10322      10321      10431      10432      10443      10442  
     10311      10312      10323      10322      10432      10433      10444      10443  
     10312      10313      10324      10323      10433      10434      10445      10444  
     10313      10314      10325      10324      10434      10435      10446      10445  
     10314      10315      10326      10325      10435      10436      10447      10446  
     10315      10316      10327      10326      10436      10437      10448      10447  
     10316      10317      10328      10327      10437      10438      10449      10448  
     10317      10318      10329      10328      10438      10439      10450      10449  
     10319      10320      10331      10330      10440      10441      10452      10451  
     10320      10321      10332      10331      10441      10442      10453      10452  
     10321      10322      10333      10332      10442      10443      10454      10453  
     10322      10323      10334      10333      10443      10444      10455      10454  
     10323      10324      10335      10334      10444      10445      10456      10455  
     10324      10325      10336      10335      10445      10446      10457      10456  
     10325      10326      10337      10336      10446      10447      10458      10457  
     10326      10327      10338      10337      10447      10448      10459      10458  
     10327      10328      10339      10338      10448      10449      10460      10459  
     10328      10329      10340      10339      10449      10450      10461      10460  
     10330      10331      10342      10341      10451      10452      10463      10462  
     10331      10332      10343      10342      10452      10453      10464      10463  
     10332      10333      10344      10343      10453      10454      10465      10464  
     10333      10334      10345      10344      10454      10455      10466      10465  
     10334      10335      10346      10345      10455      10456      10467      10466  
     10335      10336      10347      10346      10456      10457      10468      10467  
     10336      10337      10348      10347      10457      10458      10469      10468  
     10337      10338      10349      10348      10458      10459      10470      10469  
     10338      10339      10350      10349      10459      10460      10471      10470  
     10339      10340      10351      10350      10460      10461      10472      10471  
     10341      10342      10353      10352      10462      10463      10474      10473  
     10342      10343      10354      10353      10463      10464      10475      10474  
     10343      10344      10355      10354      10464      10465      10476      10475  
     10344      10345      10356      10355      10465      10466      10477      10476  
     10345      10346      10357      10356      10466      10467      10478      10477  
     10346      10347      10358      10357      10467      10468      10479      10478  
     10347      10348      10359      10358      10468      10469      10480      10479  
     10348      10349      10360      10359      10469      10470      10481      10480  
     10349      10350      10361      10360      10470      10471      10482      10481  
     10350      10351      10362      10361      10471      10472      10483      10482  
     10352      10353      10364      10363      10473      10474      10485      10484  
     10353      10354      10365      10364      10474      10475      10486      10485  
     10354      10355      10366      10365      10475      10476      10487      10486  
     10355      10356      10367      10366      10476      10477      10488      10487  
     10356      10357      10368      10367      10477      10478      10489      10488  
     10357      10358      10369      10368      10478      10479      10490      10489  
     10358      10359      10370      10369      10479      10480      10491      10490  
     10359      10360      10371      10370      10480      10481      10492      10491  
     10360      10361      10372      10371      10481      10482      10493      10492  
     10361      10362      10373      10372      10482      10483      10494      10493  
     10363      10364      10375      10374      10484      10485      10496      10495  
     10364      10365      10376      10375      10485      10486      10497      10496  
     10365      10366      10377      10376      10486      10487      10498      10497  
     10366      10367      10378      10377      10487      10488      10499      10498  
     10367      10368      10379      10378      10488      10489      10500      10499  
     10368      10369      10380      10379      10489      10490      10501      10500  
     10369      10370      10381      10380      10490      10491      10502      10501  
     10370      10371      10382      10381      10491      10492      10503      10502  
     10371      10372      10383      10382      10492      10493      10504      10503  
     10372      10373      10384      10383      10493      10494      10505      10504  
     10374      10375      10386      10385      10495      10496      10507      10506  
     10375      10376      10387      10386      10496      10497      10508      10507  
     10376      10377      10388      10387      10497      10498      10509      10508  
     10377      10378      10389      10388      10498      10499      10510      10509  
     10378      10379      10390      10389      10499      10500      10511      10510  
     10379      10380      10391      10390      10500      10501      10512      10511  
     10380      10381      10392      10391      10501      10502      10513      10512  
     10381      10382      10393      10392      10502      10503      10514      10513  
     10382      10383      10394      10393      10503      10504      10515      10514  
     10383      10384      10395      10394      10504      10505      10516      10515  
     10385      10386      10397      10396      10506      10507      10518      10517  
     10386      10387      10398      10397      10507      10508      10519      10518  
     10387      10388      10399      10398      10508      10509      10520      10519  
     10388      10389      10400      10399      10509      10510      10521      10520  
     10389      10390      10401      10400      10510      10511      10522      10521  
     10390      10391      10402      10401      10511      10512      10523      10522  
     10391      10392      10403      10402      10512      10513      10524      10523  
     10392      10393      10404      10403      10513      10514      10525      10524  
     10393      10394      10405      10404      10514      10515      10526      10525  
     10394      10395      10406      10405      10515      10516      10527      10526  
     10407      10408      10419      10418      10528      10529      10540      10539  
     10408      10409      10420      10419      10529      10530      10541      10540  
     10409      10410      10421      10420      10530      10531      10542      10541  
     10410      10411      10422      10421      10531      10532      10543      10542  
     10411      10412      10423      10422      10532      10533      10544      10543  
     10412      10413      10424      10423      10533      10534      10545      10544  
     10413      10414      10425      10424      10534      10535      10546      10545  
     10414      10415      10426      10425      10535      10536      10547      10546  
     10415      10416      10427      10426      10536      10537      10548      10547  
     10416      10417      10428      10427      10537      10538      10549      10548  
     10418      10419      10430      10429      10539      10540      10551      10550  
     10419      10420      10431      10430      10540      10541      10552      10551  
     10420      10421      10432      10431      10541      10542      10553      10552  
     10421      10422      10433      10432      10542      10543      10554      10553  
     10422      10423      10434      10433      10543      10544      10555      10554  
     10423      10424      10435      10434      10544      10545      10556      10555  
     10424      10425      10436      10435      10545      10546      10557      10556  
     10425      10426      10437      10436      10546      10547      10558      10557  
     10426      10427      10438      10437      10547      10548      10559      10558  
     10427      10428      10439      10438      10548      10549      10560      10559  
     10429      10430      10441      10440      10550      10551      10562      10561  
     10430      10431      10442      10441      10551      10552      10563      10562  
     10431      10432      10443      10442      10552      10553      10564      10563  
     10432      10433      10444      10443      10553      10554      10565      10564  
     10433      10434      10445      10444      10554      10555      10566      10565  
     10434      10435      10446      10445      10555      10556      10567      10566  
     10435      10436      10447      10446      10556      10557      10568      10567  
     10436      10437      10448      10447      10557      10558      10569      10568  
     10437      10438      10449      10448      10558      10559      10570      10569  
     10438      10439      10450      10449      10559      10560      10571      10570  
     10440      10441      10452      10451      10561      10562      10573      10572  
     10441      10442      10453      10452      10562      10563      10574      10573  
     10442      10443      10454      10453      10563      10564      10575      10574  
     10443      10444      10455      10454      10564      10565      10576      10575  
     10444      10445      10456      10455      10565      10566      10577      10576  
     10445      10446      10457      10456      10566      10567      10578      10577  
     10446      10447      10458      10457      10567      10568      10579      10578  
     10447      10448      10459      10458      10568      10569      10580      10579  
     10448      10449      10460      10459      10569      10570      10581      10580  
     10449      10450      10461      10460      10570      10571      10582      10581  
     10451      10452      10463      10462      10572      10573      10584      10583  
     10452      10453      10464      10463      10573      10574      10585      10584  
     10453      10454      10465      10464      10574      10575      10586      10585  
     10454      10455      10466      10465      10575      10576      10587      10586  
     10455      10456      10467      10466      10576      10577      10588      10587  
     10456      10457      10468      10467      10577      10578      10589      10588  
     10457      10458      10469      10468      10578      10579      10590      10589  
     10458      10459      10470      10469      10579      10580      10591      10590  
     10459      10460      10471      10470      10580      10581      10592      10591  
     10460      10461      10472      10471      10581      10582      10593      10592  
     10462      10463      10474      10473      10583      10584      10595      10594  
     10463      10464      10475      10474      10584      10585      10596      10595  
     10464      10465      10476      10475      10585      10586      10597      10596  
     10465      10466      10477      10476      10586      10587      10598      10597  
     10466      10467      10478      10477      10587      10588      10599      10598  
     10467      10468      10479      10478      10588      10589      10600      10599  
     10468      10469      10480      10479      10589      10590      10601      10600  
     10469      10470      10481      10480      10590      10591      10602      10601  
     10470      10471      10482      10481      10591      10592      10603      10602  
     10471      10472      10483      10482      10592      10593      10604      10603  
     10473      10474      10485      10484      10594      10595      10606      10605  
     10474      10475      10486      10485      10595      10596      10607      10606  
     10475      10476      10487      10486      10596      10597      10608      10607  
     10476      10477      10488      10487      10597      10598      10609      10608  
     10477      10478      10489      10488      10598      10599      10610      10609  
     10478      10479      10490      10489      10599      10600      10611      10610  
     10479      10480      10491      10490      10600      10601      10612      10611  
     10480      10481      10492      10491      10601      10602      10613      10612  
     10481      10482      10493      10492      10602      10603      10614      10613  
     10482      10483      10494      10493      10603      10604      10615      10614  
     10484      10485      10496      10495      10605      10606      10617      10616  
     10485      10486      10497      10496      10606      10607      10618      10617  
     10486      10487      10498      10497      10607      10608      10619      10618  
     10487      10488      10499      10498      10608      10609      10620      10619  
     10488      10489      10500      10499      10609      10610      10621      10620  
     10489      10490      10501      10500      10610      10611      10622      10621  
     10490      10491      10502      10501      10611      10612      10623      10622  
     10491      10492      10503      10502      10612      10613      10624      10623  
     10492      10493      10504      10503      10613      10614      10625      10624  
     10493      10494      10505      10504      10614      10615      10626      10625  
     10495      10496      10507      10506      10616      10617      10628      10627  
     10496      10497      10508      10507      10617      10618      10629      10628  
     10497      10498      10509      10508      10618      10619      10630      10629  
     10498      10499      10510      10509      10619      10620      10631      10630  
     10499      10500      10511      10510      10620      10621      10632      10631  
     10500      10501      10512      10511      10621      10622      10633      10632  
     10501      10502      10513      10512      10622      10623      10634      10633  
     10502      10503      10514      10513      10623      10624      10635      10634  
     10503      10504      10515      10514      10624      10625      10636      10635  
     10504      10505      10516      10515      10625      10626      10637      10636  
     10506      10507      10518      10517      10627      10628      10639      10638  
     10507      10508      10519      10518      10628      10629      10640      10639  
     10508      10509      10520      10519      10629      10630      10641      10640  
     10509      10510      10521      10520      10630      10631      10642      10641  
     10510      10511      10522      10521      10631      10632      10643      10642  
     10511      10512      10523      10522      10632      10633      10644      10643  
     10512      10513      10524      10523      10633      10634      10645      10644  
     10513      10514      10525      10524      10634      10635      10646      10645  
     10514      10515      10526      10525      10635      10636      10647      10646  
     10515      10516      10527      10526      10636      10637      10648      10647  
     10528      10529      10540      10539      10649      10650      10661      10660  
     10529      10530      10541      10540      10650      10651      10662      10661  
     10530      10531      10542      10541      10651      10652      10663      10662  
     10531      10532      10543      10542      10652      10653      10664      10663  
     10532      10533      10544      10543      10653      10654      10665      10664  
     10533      10534      10545      10544      10654      10655      10666      10665  
     10534      10535      10546      10545      10655      10656      10667      10666  
     10535      10536      10547      10546      10656      10657      10668      10667  
     10536      10537      10548      10547      10657      10658      10669      10668  
     10537      10538      10549      10548      10658      10659      10670      10669  
     10539      10540      10551      10550      10660      10661      10672      10671  
     10540      10541      10552      10551      10661      10662      10673      10672  
     10541      10542      10553      10552      10662      10663      10674      10673  
     10542      10543      10554      10553      10663      10664      10675      10674  
     10543      10544      10555      10554      10664      10665      10676      10675  
     10544      10545      10556      10555      10665      10666      10677      10676  
     10545      10546      10557      10556      10666      10667      10678      10677  
     10546      10547      10558      10557      10667      10668      10679      10678  
     10547      10548      10559      10558      10668      10669      10680      10679  
     10548      10549      10560      10559      10669      10670      10681      10680  
     10550      10551      10562      10561      10671      10672      10683      10682  
     10551      10552      10563      10562      10672      10673      10684      10683  
     10552      10553      10564      10563      10673      10674      10685      10684  
     10553      10554      10565      10564      10674      10675      10686      10685  
     10554      10555      10566      10565      10675      10676      10687      10686  
     10555      10556      10567      10566      10676      10677      10688      10687  
     10556      10557      10568      10567      10677      10678      10689      10688  
     10557      10558      10569      10568      10678      10679      10690      10689  
     10558      10559      10570      10569      10679      10680      10691      10690  
     10559      10560      10571      10570      10680      10681      10692      10691  
     10561      10562      10573      10572      10682      10683      10694      10693  
     10562      10563      10574      10573      10683      10684      10695      10694  
     10563      10564      10575      10574      10684      10685      10696      10695  
     10564      10565      10576      10575      10685      10686      10697      10696  
     10565      10566      10577      10576      10686      10687      10698      10697  
     10566      10567      10578      10577      10687      10688      10699      10698  
     10567      10568      10579      10578      10688      10689      10700      10699  
     10568      10569      10580      10579      10689      10690      10701      10700  
     10569      10570      10581      10580      10690      10691      10702      10701  
     10570      10571      10582      10581      10691      10692      10703      10702  
     10572      10573      10584      10583      10693      10694      10705      10704  
     10573      10574      10585      10584      10694      10695      10706      10705  
     10574      10575      10586      10585      10695      10696      10707      10706  
     10575      10576      10587      10586      10696      10697      10708      10707  
     10576      10577      10588      10587      10697      10698      10709      10708  
     10577      10578      10589      10588      10698      10699      10710      10709  
     10578      10579      10590      10589      10699      10700      10711      10710  
     10579      10580      10591      10590      10700      10701      10712      10711  
     10580      10581      10592      10591      10701      10702      10713      10712  
     10581      10582      10593      10592      10702      10703      10714      10713  
     10583      10584      10595      10594      10704      10705      10716      10715  
     10584      10585      10596      10595      10705      10706      10717      10716  
     10585      10586      10597      10596      10706      10707      10718      10717  
     10586      10587      10598      10597      10707      10708      10719      10718  
     10587      10588      10599      10598      10708      10709      10720      10719  
     10588      10589      10600      10599      10709      10710      10721      10720  
     10589      10590      10601      10600      10710      10711      10722      10721  
     10590      10591      10602      10601      10711      10712      10723      10722  
     10591      10592      10603      10602      10712      10713      10724      10723  
     10592      10593      10604      10603      10713      10714      10725      10724  
     10594      10595      10606      10605      10715      10716      10727      10726  
     10595      10596      10607      10606      10716      10717      10728      10727  
     10596      10597      10608      10607      10717      10718      10729      10728  
     10597      10598      10609      10608      10718      10719      10730      10729  
     10598      10599      10610      10609      10719      10720      10731      10730  
     10599      10600      10611      10610      10720      10721      10732      10731  
     10600      10601      10612      10611      10721      10722      10733      10732  
     10601      10602      10613      10612      10722      10723      10734      10733  
     10602      10603      10614      10613      10723      10724      10735      10734  
     10603      10604      10615      10614      10724      10725      10736      10735  
     10605      10606      10617      10616      10726      10727      10738      10737  
     10606      10607      10618      10617      10727      10728      10739      10738  
     10607      10608      10619      10618      10728      10729      10740      10739  
     10608      10609      10620      10619      10729      10730      10741      10740  
     10609      10610      10621      10620      10730      10731      10742      10741  
     10610      10611      10622      10621      10731      10732      10743      10742  
     10611      10612      10623      10622      10732      10733      10744      10743  
     10612      10613      10624      10623      10733      10734      10745      10744  
     10613      10614      10625      10624      10734      10735      10746      10745  
     10614      10615      10626      10625      10735      10736      10747      10746  
     10616      10617      10628      10627      10737      10738      10749      10748  
     10617      10618      10629      10628      10738      10739      10750      10749  
     10618      10619      10630      10629      10739      10740      10751      10750  
     10619      10620      10631      10630      10740      10741      10752      10751  
     10620      10621      10632      10631      10741      10742      10753      10752  
     10621      10622      10633      10632      10742      10743      10754      10753  
     10622      10623      10634      10633      10743      10744      10755      10754  
     10623      10624      10635      10634      10744      10745      10756      10755  
     10624      10625      10636      10635      10745      10746      10757      10756  
     10625      10626      10637      10636      10746      10747      10758      10757  
     10627      10628      10639      10638      10748      10749      10760      10759  
     10628      10629      10640      10639      10749      10750      10761      10760  
     10629      10630      10641      10640      10750      10751      10762      10761  
     10630      10631      10642      10641      10751      10752      10763      10762  
     10631      10632      10643      10642      10752      10753      10764      10763  
     10632      10633      10644      10643      10753      10754      10765      10764  
     10633      10634      10645      10644      10754      10755      10766      10765  
     10634      10635      10646      10645      10755      10756      10767      10766  
     10635      10636      10647      10646      10756      10757      10768      10767  
     10636      10637      10648      10647      10757      10758      10769      10768  
     10649      10650      10661      10660      10770      10771      10782      10781  
     10650      10651      10662      10661      10771      10772      10783      10782  
     10651      10652      10663      10662      10772      10773      10784      10783  
     10652      10653      10664      10663      10773      10774      10785      10784  
     10653      10654      10665      10664      10774      10775      10786      10785  
     10654      10655      10666      10665      10775      10776      10787      10786  
     10655      10656      10667      10666      10776      10777      10788      10787  
     10656      10657      10668      10667      10777      10778      10789      10788  
     10657      10658      10669      10668      10778      10779      10790      10789  
     10658      10659      10670      10669      10779      10780      10791      10790  
     10660      10661      10672      10671      10781      10782      10793      10792  
     10661      10662      10673      10672      10782      10783      10794      10793  
     10662      10663      10674      10673      10783      10784      10795      10794  
     10663      10664      10675      10674      10784      10785      10796      10795  
     10664      10665      10676      10675      10785      10786      10797      10796  
     10665      10666      10677      10676      10786      10787      10798      10797  
     10666      10667      10678      10677      10787      10788      10799      10798  
     10667      10668      10679      10678      10788      10789      10800      10799  
     10668      10669      10680      10679      10789      10790      10801      10800  
     10669      10670      10681      10680      10790      10791      10802      10801  
     10671      10672      10683      10682      10792      10793      10804      10803  
     10672      10673      10684      10683      10793      10794      10805      10804  
     10673      10674      10685      10684      10794      10795      10806      10805  
     10674      10675      10686      10685      10795      10796      10807      10806  
     10675      10676      10687      10686      10796      10797      10808      10807  
     10676      10677      10688      10687      10797      10798      10809      10808  
     10677      10678      10689      10688      10798      10799      10810      10809  
     10678      10679      10690      10689      10799      10800      10811      10810  
     10679      10680      10691      10690      10800      10801      10812      10811  
     10680      10681      10692      10691      10801      10802      10813      10812  
     10682      10683      10694      10693      10803      10804      10815      10814  
     10683      10684      10695      10694      10804      10805      10816      10815  
     10684      10685      10696      10695      10805      10806      10817      10816  
     10685      10686      10697      10696      10806      10807      10818      10817  
     10686      10687      10698      10697      10807      10808      10819      10818  
     10687      10688      10699      10698      10808      10809      10820      10819  
     10688      10689      10700      10699      10809      10810      10821      10820  
     10689      10690      10701      10700      10810      10811      10822      10821  
     10690      10691      10702      10701      10811      10812      10823      10822  
     10691      10692      10703      10702      10812      10813      10824      10823  
     10693      10694      10705      10704      10814      10815      10826      10825  
     10694      10695      10706      10705      10815      10816      10827      10826  
     10695      10696      10707      10706      10816      10817      10828      10827  
     10696      10697      10708      10707      10817      10818      10829      10828  
     10697      10698      10709      10708      10818      10819      10830      10829  
     10698      10699      10710      10709      10819      10820      10831      10830  
     10699      10700      10711      10710      10820      10821      10832      10831  
     10700      10701      10712      10711      10821      10822      10833      10832  
     10701      10702      10713      10712      10822      10823      10834      10833  
     10702      10703      10714      10713      10823      10824      10835      10834  
     10704      10705      10716      10715      10825      10826      10837      10836  
     10705      10706      10717      10716      10826      10827      10838      10837  
     10706      10707      10718      10717      10827      10828      10839      10838  
     10707      10708      10719      10718      10828      10829      10840      10839  
     10708      10709      10720      10719      10829      10830      10841      10840  
     10709      10710      10721      10720      10830      10831      10842      10841  
     10710      10711      10722      10721      10831      10832      10843      10842  
     10711      10712      10723      10722      10832      10833      10844      10843  
     10712      10713      10724      10723      10833      10834      10845      10844  
     10713      10714      10725      10724      10834      10835      10846      10845  
     10715      10716      10727      10726      10836      10837      10848      10847  
     10716      10717      10728      10727      10837      10838      10849      10848  
     10717      10718      10729      10728      10838      10839      10850      10849  
     10718      10719      10730      10729      10839      10840      10851      10850  
     10719      10720      10731      10730      10840      10841      10852      10851  
     10720      10721      10732      10731      10841      10842      10853      10852  
     10721      10722      10733      10732      10842      10843      10854      10853  
     10722      10723      10734      10733      10843      10844      10855      10854  
     10723      10724      10735      10734      10844      10845      10856      10855  
     10724      10725      10736      10735      10845      10846      10857      10856  
     10726      10727      10738      10737      10847      10848      10859      10858  
     10727      10728      10739      10738      10848      10849      10860      10859  
     10728      10729      10740      10739      10849      10850      10861      10860  
     10729      10730      10741      10740      10850      10851      10862      10861  
     10730      10731      10742      10741      10851      10852      10863      10862  
     10731      10732      10743      10742      10852      10853      10864      10863  
     10732      10733      10744      10743      10853      10854      10865      10864  
     10733      10734      10745      10744      10854      10855      10866      10865  
     10734      10735      10746      10745      10855      10856      10867      10866  
     10735      10736      10747      10746      10856      10857      10868      10867  
     10737      10738      10749      10748      10858      10859      10870      10869  
     10738      10739      10750      10749      10859      10860      10871      10870  
     10739      10740      10751      10750      10860      10861      10872      10871  
     10740      10741      10752      10751      10861      10862      10873      10872  
     10741      10742      10753      10752      10862      10863      10874      10873  
     10742      10743      10754      10753      10863      10864      10875      10874  
     10743      10744      10755      10754      10864      10865      10876      10875  
     10744      10745      10756      10755      10865      10866      10877      10876  
     10745      10746      10757      10756      10866      10867      10878      10877  
     10746      10747      10758      10757      10867      10868      10879      10878  
     10748      10749      10760      10759      10869      10870      10881      10880  
     10749      10750      10761      10760      10870      10871      10882      10881  
     10750      10751      10762      10761      10871      10872      10883      10882  
     10751      10752      10763      10762      10872      10873      10884      10883  
     10752      10753      10764      10763      10873      10874      10885      10884  
     10753      10754      10765      10764      10874      10875      10886      10885  
     10754      10755      10766      10765      10875      10876      10887      10886  
     10755      10756      10767      10766      10876      10877      10888      10887  
     10756      10757      10768      10767      10877      10878      10889      10888  
     10757      10758      10769      10768      10878      10879      10890      10889  
     10770      10771      10782      10781      10891      10892      10903      10902  
     10771      10772      10783      10782      10892      10893      10904      10903  
     10772      10773      10784      10783      10893      10894      10905      10904  
     10773      10774      10785      10784      10894      10895      10906      10905  
     10774      10775      10786      10785      10895      10896      10907      10906  
     10775      10776      10787      10786      10896      10897      10908      10907  
     10776      10777      10788      10787      10897      10898      10909      10908  
     10777      10778      10789      10788      10898      10899      10910      10909  
     10778      10779      10790      10789      10899      10900      10911      10910  
     10779      10780      10791      10790      10900      10901      10912      10911  
     10781      10782      10793      10792      10902      10903      10914      10913  
     10782      10783      10794      10793      10903      10904      10915      10914  
     10783      10784      10795      10794      10904      10905      10916      10915  
     10784      10785      10796      10795      10905      10906      10917      10916  
     10785      10786      10797      10796      10906      10907      10918      10917  
     10786      10787      10798      10797      10907      10908      10919      10918  
     10787      10788      10799      10798      10908      10909      10920      10919  
     10788      10789      10800      10799      10909      10910      10921      10920  
     10789      10790      10801      10800      10910      10911      10922      10921  
     10790      10791      10802      10801      10911      10912      10923      10922  
     10792      10793      10804      10803      10913      10914      10925      10924  
     10793      10794      10805      10804      10914      10915      10926      10925  
     10794      10795      10806      10805      10915      10916      10927      10926  
     10795      10796      10807      10806      10916      10917      10928      10927  
     10796      10797      10808      10807      10917      10918      10929      10928  
     10797      10798      10809      10808      10918      10919      10930      10929  
     10798      10799      10810      10809      10919      10920      10931      10930  
     10799      10800      10811      10810      10920      10921      10932      10931  
     10800      10801      10812      10811      10921      10922      10933      10932  
     10801      10802      10813      10812      10922      10923      10934      10933  
     10803      10804      10815      10814      10924      10925      10936      10935  
     10804      10805      10816      10815      10925      10926      10937      10936  
     10805      10806      10817      10816      10926      10927      10938      10937  
     10806      10807      10818      10817      10927      10928      10939      10938  
     10807      10808      10819      10818      10928      10929      10940      10939  
     10808      10809      10820      10819      10929      10930      10941      10940  
     10809      10810      10821      10820      10930      10931      10942      10941  
     10810      10811      10822      10821      10931      10932      10943      10942  
     10811      10812      10823      10822      10932      10933      10944      10943  
     10812      10813      10824      10823      10933      10934      10945      10944  
     10814      10815      10826      10825      10935      10936      10947      10946  
     10815      10816      10827      10826      10936      10937      10948      10947  
     10816      10817      10828      10827      10937      10938      10949      10948  
     10817      10818      10829      10828      10938      10939      10950      10949  
     10818      10819      10830      10829      10939      10940      10951      10950  
     10819      10820      10831      10830      10940      10941      10952      10951  
     10820      10821      10832      10831      10941      10942      10953      10952  
     10821      10822      10833      10832      10942      10943      10954      10953  
     10822      10823      10834      10833      10943      10944      10955      10954  
     10823      10824      10835      10834      10944      10945      10956      10955  
     10825      10826      10837      10836      10946      10947      10958      10957  
     10826      10827      10838      10837      10947      10948      10959      10958  
     10827      10828      10839      10838      10948      10949      10960      10959  
     10828      10829      10840      10839      10949      10950      10961      10960  
     10829      10830      10841      10840      10950      10951      10962      10961  
     10830      10831      10842      10841      10951      10952      10963      10962  
     10831      10832      10843      10842      10952      10953      10964      10963  
     10832      10833      10844      10843      10953      10954      10965      10964  
     10833      10834      10845      10844      10954      10955      10966      10965  
     10834      10835      10846      10845      10955      10956      10967      10966  
     10836      10837      10848      10847      10957      10958      10969      10968  
     10837      10838      10849      10848      10958      10959      10970      10969  
     10838      10839      10850      10849      10959      10960      10971      10970  
     10839      10840      10851      10850      10960      10961      10972      10971  
     10840      10841      10852      10851      10961      10962      10973      10972  
     10841      10842      10853      10852      10962      10963      10974      10973  
     10842      10843      10854      10853      10963      10964      10975      10974  
     10843      10844      10855      10854      10964      10965      10976      10975  
     10844      10845      10856      10855      10965      10966      10977      10976  
     10845      10846      10857      10856      10966      10967      10978      10977  
     10847      10848      10859      10858      10968      10969      10980      10979  
     10848      10849      10860      10859      10969      10970      10981      10980  
     10849      10850      10861      10860      10970      10971      10982      10981  
     10850      10851      10862      10861      10971      10972      10983      10982  
     10851      10852      10863      10862      10972      10973      10984      10983  
     10852      10853      10864      10863      10973      10974      10985      10984  
     10853      10854      10865      10864      10974      10975      10986      10985  
     10854      10855      10866      10865      10975      10976      10987      10986  
     10855      10856      10867      10866      10976      10977      10988      10987  
     10856      10857      10868      10867      10977      10978      10989      10988  
     10858      10859      10870      10869      10979      10980      10991      10990  
     10859      10860      10871      10870      10980      10981      10992      10991  
     10860      10861      10872      10871      10981      10982      10993      10992  
     10861      10862      10873      10872      10982      10983      10994      10993  
     10862      10863      10874      10873      10983      10984      10995      10994  
     10863      10864      10875      10874      10984      10985      10996      10995  
     10864      10865      10876      10875      10985      10986      10997      10996  
     10865      10866      10877      10876      10986      10987      10998      10997  
     10866      10867      10878      10877      10987      10988      10999      10998  
     10867      10868      10879      10878      10988      10989      11000      10999  
     10869      10870      10881      10880      10990      10991      11002      11001  
     10870      10871      10882      10881      10991      10992      11003      11002  
     10871      10872      10883      10882      10992      10993      11004      11003  
     10872      10873      10884      10883      10993      10994      11005      11004  
     10873      10874      10885      10884      10994      10995      11006      11005  
     10874      10875      10886      10885      10995      10996      11007      11006  
     10875      10876      10887      10886      10996      10997      11008      11007  
     10876      10877      10888      10887      10997      10998      11009      11008  
     10877      10878      10889      10888      10998      10999      11010      11009  
     10878      10879      10890      10889      10999      11000      11011      11010  
     10891      10892      10903      10902      11012      11013      11024      11023  
     10892      10893      10904      10903      11013      11014      11025      11024  
     10893      10894      10905      10904      11014      11015      11026      11025  
     10894      10895      10906      10905      11015      11016      11027      11026  
     10895      10896      10907      10906      11016      11017      11028      11027  
     10896      10897      10908      10907      11017      11018      11029      11028  
     10897      10898      10909      10908      11018      11019      11030      11029  
     10898      10899      10910      10909      11019      11020      11031      11030  
     10899      10900      10911      10910      11020      11021      11032      11031  
     10900      10901      10912      10911      11021      11022      11033      11032  
     10902      10903      10914      10913      11023      11024      11035      11034  
     10903      10904      10915      10914      11024      11025      11036      11035  
     10904      10905      10916      10915      11025      11026      11037      11036  
     10905      10906      10917      10916      11026      11027      11038      11037  
     10906      10907      10918      10917      11027      11028      11039      11038  
     10907      10908      10919      10918      11028      11029      11040      11039  
     10908      10909      10920      10919      11029      11030      11041      11040  
     10909      10910      10921      10920      11030      11031      11042      11041  
     10910      10911      10922      10921      11031      11032      11043      11042  
     10911      10912      10923      10922      11032      11033      11044      11043  
     10913      10914      10925      10924      11034      11035      11046      11045  
     10914      10915      10926      10925      11035      11036      11047      11046  
     10915      10916      10927      10926      11036      11037      11048      11047  
     10916      10917      10928      10927      11037      11038      11049      11048  
     10917      10918      10929      10928      11038      11039      11050      11049  
     10918      10919      10930      10929      11039      11040      11051      11050  
     10919      10920      10931      10930      11040      11041      11052      11051  
     10920      10921      10932      10931      11041      11042      11053      11052  
     10921      10922      10933      10932      11042      11043      11054      11053  
     10922      10923      10934      10933      11043      11044      11055      11054  
     10924      10925      10936      10935      11045      11046      11057      11056  
     10925      10926      10937      10936      11046      11047      11058      11057  
     10926      10927      10938      10937      11047      11048      11059      11058  
     10927      10928      10939      10938      11048      11049      11060      11059  
     10928      10929      10940      10939      11049      11050      11061      11060  
     10929      10930      10941      10940      11050      11051      11062      11061  
     10930      10931      10942      10941      11051      11052      11063      11062  
     10931      10932      10943      10942      11052      11053      11064      11063  
     10932      10933      10944      10943      11053      11054      11065      11064  
     10933      10934      10945      10944      11054      11055      11066      11065  
     10935      10936      10947      10946      11056      11057      11068      11067  
     10936      10937      10948      10947      11057      11058      11069      11068  
     10937      10938      10949      10948      11058      11059      11070      11069  
     10938      10939      10950      10949      11059      11060      11071      11070  
     10939      10940      10951      10950      11060      11061      11072      11071  
     10940      10941      10952      10951      11061      11062      11073      11072  
     10941      10942      10953      10952      11062      11063      11074      11073  
     10942      10943      10954      10953      11063      11064      11075      11074  
     10943      10944      10955      10954      11064      11065      11076      11075  
     10944      10945      10956      10955      11065      11066      11077      11076  
     10946      10947      10958      10957      11067      11068      11079      11078  
     10947      10948      10959      10958      11068      11069      11080      11079  
     10948      10949      10960      10959      11069      11070      11081      11080  
     10949      10950      10961      10960      11070      11071      11082      11081  
     10950      10951      10962      10961      11071      11072      11083      11082  
     10951      10952      10963      10962      11072      11073      11084      11083  
     10952      10953      10964      10963      11073      11074      11085      11084  
     10953      10954      10965      10964      11074      11075      11086      11085  
     10954      10955      10966      10965      11075      11076      11087      11086  
     10955      10956      10967      10966      11076      11077      11088      11087  
     10957      10958      10969      10968      11078      11079      11090      11089  
     10958      10959      10970      10969      11079      11080      11091      11090  
     10959      10960      10971      10970      11080      11081      11092      11091  
     10960      10961      10972      10971      11081      11082      11093      11092  
     10961      10962      10973      10972      11082      11083      11094      11093  
     10962      10963      10974      10973      11083      11084      11095      11094  
     10963      10964      10975      10974      11084      11085      11096      11095  
     10964      10965      10976      10975      11085      11086      11097      11096  
     10965      10966      10977      10976      11086      11087      11098      11097  
     10966      10967      10978      10977      11087      11088      11099      11098  
     10968      10969      10980      10979      11089      11090      11101      11100  
     10969      10970      10981      10980      11090      11091      11102      11101  
     10970      10971      10982      10981      11091      11092      11103      11102  
     10971      10972      10983      10982      11092      11093      11104      11103  
     10972      10973      10984      10983      11093      11094      11105      11104  
     10973      10974      10985      10984      11094      11095      11106      11105  
     10974      10975      10986      10985      11095      11096      11107      11106  
     10975      10976      10987      10986      11096      11097      11108      11107  
     10976      10977      10988      10987      11097      11098      11109      11108  
     10977      10978      10989      10988      11098      11099      11110      11109  
     10979      10980      10991      10990      11100      11101      11112      11111  
     10980      10981      10992      10991      11101      11102      11113      11112  
     10981      10982      10993      10992      11102      11103      11114      11113  
     10982      10983      10994      10993      11103      11104      11115      11114  
     10983      10984      10995      10994      11104      11105      11116      11115  
     10984      10985      10996      10995      11105      11106      11117      11116  
     10985      10986      10997      10996      11106      11107      11118      11117  
     10986      10987      10998      10997      11107      11108      11119      11118  
     10987      10988      10999      10998      11108      11109      11120      11119  
     10988      10989      11000      10999      11109      11110      11121      11120  
     10990      10991      11002      11001      11111      11112      11123      11122  
     10991      10992      11003      11002      11112      11113      11124      11123  
     10992      10993      11004      11003      11113      11114      11125      11124  
     10993      10994      11005      11004      11114      11115      11126      11125  
     10994      10995      11006      11005      11115      11116      11127      11126  
     10995      10996      11007      11006      11116      11117      11128      11127  
     10996      10997      11008      11007      11117      11118      11129      11128  
     10997      10998      11009      11008      11118      11119      11130      11129  
     10998      10999      11010      11009      11119      11120      11131      11130  
     10999      11000      11011      11010      11120      11121      11132      11131  
     11012      11013      11024      11023      11133      11134      11145      11144  
     11013      11014      11025      11024      11134      11135      11146      11145  
     11014      11015      11026      11025      11135      11136      11147      11146  
     11015      11016      11027      11026      11136      11137      11148      11147  
     11016      11017      11028      11027      11137      11138      11149      11148  
     11017      11018      11029      11028      11138      11139      11150      11149  
     11018      11019      11030      11029      11139      11140      11151      11150  
     11019      11020      11031      11030      11140      11141      11152      11151  
     11020      11021      11032      11031      11141      11142      11153      11152  
     11021      11022      11033      11032      11142      11143      11154      11153  
     11023      11024      11035      11034      11144      11145      11156      11155  
     11024      11025      11036      11035      11145      11146      11157      11156  
     11025      11026      11037      11036      11146      11147      11158      11157  
     11026      11027      11038      11037      11147      11148      11159      11158  
     11027      11028      11039      11038      11148      11149      11160      11159  
     11028      11029      11040      11039      11149      11150      11161      11160  
     11029      11030      11041      11040      11150      11151      11162      11161  
     11030      11031      11042      11041      11151      11152      11163      11162  
     11031      11032      11043      11042      11152      11153      11164      11163  
     11032      11033      11044      11043      11153      11154      11165      11164  
     11034      11035      11046      11045      11155      11156      11167      11166  
     11035      11036      11047      11046      11156      11157      11168      11167  
     11036      11037      11048      11047      11157      11158      11169      11168  
     11037      11038      11049      11048      11158      11159      11170      11169  
     11038      11039      11050      11049      11159      11160      11171      11170  
     11039      11040      11051      11050      11160      11161      11172      11171  
     11040      11041      11052      11051      11161      11162      11173      11172  
     11041      11042      11053      11052      11162      11163      11174      11173  
     11042      11043      11054      11053      11163      11164      11175      11174  
     11043      11044      11055      11054      11164      11165      11176      11175  
     11045      11046      11057      11056      11166      11167      11178      11177  
     11046      11047      11058      11057      11167      11168      11179      11178  
     11047      11048      11059      11058      11168      11169      11180      11179  
     11048      11049      11060      11059      11169      11170      11181      11180  
     11049      11050      11061      11060      11170      11171      11182      11181  
     11050      11051      11062      11061      11171      11172      11183      11182  
     11051      11052      11063      11062      11172      11173      11184      11183  
     11052      11053      11064      11063      11173      11174      11185      11184  
     11053      11054      11065      11064      11174      11175      11186      11185  
     11054      11055      11066      11065      11175      11176      11187      11186  
     11056      11057      11068      11067      11177      11178      11189      11188  
     11057      11058      11069      11068      11178      11179      11190      11189  
     11058      11059      11070      11069      11179      11180      11191      11190  
     11059      11060      11071      11070      11180      11181      11192      11191  
     11060      11061      11072      11071      11181      11182      11193      11192  
     11061      11062      11073      11072      11182      11183      11194      11193  
     11062      11063      11074      11073      11183      11184      11195      11194  
     11063      11064      11075      11074      11184      11185      11196      11195  
     11064      11065      11076      11075      11185      11186      11197      11196  
     11065      11066      11077      11076      11186      11187      11198      11197  
     11067      11068      11079      11078      11188      11189      11200      11199  
     11068      11069      11080      11079      11189      11190      11201      11200  
     11069      11070      11081      11080      11190      11191      11202      11201  
     11070      11071      11082      11081      11191      11192      11203      11202  
     11071      11072      11083      11082      11192      11193      11204      11203  
     11072      11073      11084      11083      11193      11194      11205      11204  
     11073      11074      11085      11084      11194      11195      11206      11205  
     11074      11075      11086      11085      11195      11196      11207      11206  
     11075      11076      11087      11086      11196      11197      11208      11207  
     11076      11077      11088      11087      11197      11198      11209      11208  
     11078      11079      11090      11089      11199      11200      11211      11210  
     11079      11080      11091      11090      11200      11201      11212      11211  
     11080      11081      11092      11091      11201      11202      11213      11212  
     11081      11082      11093      11092      11202      11203      11214      11213  
     11082      11083      11094      11093      11203      11204      11215      11214  
     11083      11084      11095      11094      11204      11205      11216      11215  
     11084      11085      11096      11095      11205      11206      11217      11216  
     11085      11086      11097      11096      11206      11207      11218      11217  
     11086      11087      11098      11097      11207      11208      11219      11218  
     11087      11088      11099      11098      11208      11209      11220      11219  
     11089      11090      11101      11100      11210      11211      11222      11221  
     11090      11091      11102      11101      11211      11212      11223      11222  
     11091      11092      11103      11102      11212      11213      11224      11223  
     11092      11093      11104      11103      11213      11214      11225      11224  
     11093      11094      11105      11104      11214      11215      11226      11225  
     11094      11095      11106      11105      11215      11216      11227      11226  
     11095      11096      11107      11106      11216      11217      11228      11227  
     11096      11097      11108      11107      11217      11218      11229      11228  
     11097      11098      11109      11108      11218      11219      11230      11229  
     11098      11099      11110      11109      11219      11220      11231      11230  
     11100      11101      11112      11111      11221      11222      11233      11232  
     11101      11102      11113      11112      11222      11223      11234      11233  
     11102      11103      11114      11113      11223      11224      11235      11234  
     11103      11104      11115      11114      11224      11225      11236      11235  
     11104      11105      11116      11115      11225      11226      11237      11236  
     11105      11106      11117      11116      11226      11227      11238      11237  
     11106      11107      11118      11117      11227      11228      11239      11238  
     11107      11108      11119      11118      11228      11229      11240      11239  
     11108      11109      11120      11119      11229      11230      11241      11240  
     11109      11110      11121      11120      11230      11231      11242      11241  
     11111      11112      11123      11122      11232      11233      11244      11243  
     11112      11113      11124      11123      11233      11234      11245      11244  
     11113      11114      11125      11124      11234      11235      11246      11245  
     11114      11115      11126      11125      11235      11236      11247      11246  
     11115      11116      11127      11126      11236      11237      11248      11247  
     11116      11117      11128      11127      11237      11238      11249      11248  
     11117      11118      11129      11128      11238      11239      11250      11249  
     11118      11119      11130      11129      11239      11240      11251      11250  
     11119      11120      11131      11130      11240      11241      11252      11251  
     11120      11121      11132      11131      11241      11242      11253      11252  
     11133      11134      11145      11144      11254      11255      11266      11265  
     11134      11135      11146      11145      11255      11256      11267      11266  
     11135      11136      11147      11146      11256      11257      11268      11267  
     11136      11137      11148      11147      11257      11258      11269      11268  
     11137      11138      11149      11148      11258      11259      11270      11269  
     11138      11139      11150      11149      11259      11260      11271      11270  
     11139      11140      11151      11150      11260      11261      11272      11271  
     11140      11141      11152      11151      11261      11262      11273      11272  
     11141      11142      11153      11152      11262      11263      11274      11273  
     11142      11143      11154      11153      11263      11264      11275      11274  
     11144      11145      11156      11155      11265      11266      11277      11276  
     11145      11146      11157      11156      11266      11267      11278      11277  
     11146      11147      11158      11157      11267      11268      11279      11278  
     11147      11148      11159      11158      11268      11269      11280      11279  
     11148      11149      11160      11159      11269      11270      11281      11280  
     11149      11150      11161      11160      11270      11271      11282      11281  
     11150      11151      11162      11161      11271      11272      11283      11282  
     11151      11152      11163      11162      11272      11273      11284      11283  
     11152      11153      11164      11163      11273      11274      11285      11284  
     11153      11154      11165      11164      11274      11275      11286      11285  
     11155      11156      11167      11166      11276      11277      11288      11287  
     11156      11157      11168      11167      11277      11278      11289      11288  
     11157      11158      11169      11168      11278      11279      11290      11289  
     11158      11159      11170      11169      11279      11280      11291      11290  
     11159      11160      11171      11170      11280      11281      11292      11291  
     11160      11161      11172      11171      11281      11282      11293      11292  
     11161      11162      11173      11172      11282      11283      11294      11293  
     11162      11163      11174      11173      11283      11284      11295      11294  
     11163      11164      11175      11174      11284      11285      11296      11295  
     11164      11165      11176      11175      11285      11286      11297      11296  
     11166      11167      11178      11177      11287      11288      11299      11298  
     11167      11168      11179      11178      11288      11289      11300      11299  
     11168      11169      11180      11179      11289      11290      11301      11300  
     11169      11170      11181      11180      11290      11291      11302      11301  
     11170      11171      11182      11181      11291      11292      11303      11302  
     11171      11172      11183      11182      11292      11293      11304      11303  
     11172      11173      11184      11183      11293      11294      11305      11304  
     11173      11174      11185      11184      11294      11295      11306      11305  
     11174      11175      11186      11185      11295      11296      11307      11306  
     11175      11176      11187      11186      11296      11297      11308      11307  
     11177      11178      11189      11188      11298      11299      11310      11309  
     11178      11179      11190      11189      11299      11300      11311      11310  
     11179      11180      11191      11190      11300      11301      11312      11311  
     11180      11181      11192      11191      11301      11302      11313      11312  
     11181      11182      11193      11192      11302      11303      11314      11313  
     11182      11183      11194      11193      11303      11304      11315      11314  
     11183      11184      11195      11194      11304      11305      11316      11315  
     11184      11185      11196      11195      11305      11306      11317      11316  
     11185      11186      11197      11196      11306      11307      11318      11317  
     11186      11187      11198      11197      11307      11308      11319      11318  
     11188      11189      11200      11199      11309      11310      11321      11320  
     11189      11190      11201      11200      11310      11311      11322      11321  
     11190      11191      11202      11201      11311      11312      11323      11322  
     11191      11192      11203      11202      11312      11313      11324      11323  
     11192      11193      11204      11203      11313      11314      11325      11324  
     11193      11194      11205      11204      11314      11315      11326      11325  
     11194      11195      11206      11205      11315      11316      11327      11326  
     11195      11196      11207      11206      11316      11317      11328      11327  
     11196      11197      11208      11207      11317      11318      11329      11328  
     11197      11198      11209      11208      11318      11319      11330      11329  
     11199      11200      11211      11210      11320      11321      11332      11331  
     11200      11201      11212      11211      11321      11322      11333      11332  
     11201      11202      11213      11212      11322      11323      11334      11333  
     11202      11203      11214      11213      11323      11324      11335      11334  
     11203      11204      11215      11214      11324      11325      11336      11335  
     11204      11205      11216      11215      11325      11326      11337      11336  
     11205      11206      11217      11216      11326      11327      11338      11337  
     11206      11207      11218      11217      11327      11328      11339      11338  
     11207      11208      11219      11218      11328      11329      11340      11339  
     11208      11209      11220      11219      11329      11330      11341      11340  
     11210      11211      11222      11221      11331      11332      11343      11342  
     11211      11212      11223      11222      11332      11333      11344      11343  
     11212      11213      11224      11223      11333      11334      11345      11344  
     11213      11214      11225      11224      11334      11335      11346      11345  
     11214      11215      11226      11225      11335      11336      11347      11346  
     11215      11216      11227      11226      11336      11337      11348      11347  
     11216      11217      11228      11227      11337      11338      11349      11348  
     11217      11218      11229      11228      11338      11339      11350      11349  
     11218      11219      11230      11229      11339      11340      11351      11350  
     11219      11220      11231      11230      11340      11341      11352      11351  
     11221      11222      11233      11232      11342      11343      11354      11353  
     11222      11223      11234      11233      11343      11344      11355      11354  
     11223      11224      11235      11234      11344      11345      11356      11355  
     11224      11225      11236      11235      11345      11346      11357      11356  
     11225      11226      11237      11236      11346      11347      11358      11357  
     11226      11227      11238      11237      11347      11348      11359      11358  
     11227      11228      11239      11238      11348      11349      11360      11359  
     11228      11229      11240      11239      11349      11350      11361      11360  
     11229      11230      11241      11240      11350      11351      11362      11361  
     11230      11231      11242      11241      11351      11352      11363      11362  
     11232      11233      11244      11243      11353      11354      11365      11364  
     11233      11234      11245      11244      11354      11355      11366      11365  
     11234      11235      11246      11245      11355      11356      11367      11366  
     11235      11236      11247      11246      11356      11357      11368      11367  
     11236      11237      11248      11247      11357      11358      11369      11368  
     11237      11238      11249      11248      11358      11359      11370      11369  
     11238      11239      11250      11249      11359      11360      11371      11370  
     11239      11240      11251      11250      11360      11361      11372      11371  
     11240      11241      11252      11251      11361      11362      11373      11372  
     11241      11242      11253      11252      11362      11363      11374      11373  
     11254      11255      11266      11265      11375      11376      11387      11386  
     11255      11256      11267      11266      11376      11377      11388      11387  
     11256      11257      11268      11267      11377      11378      11389      11388  
     11257      11258      11269      11268      11378      11379      11390      11389  
     11258      11259      11270      11269      11379      11380      11391      11390  
     11259      11260      11271      11270      11380      11381      11392      11391  
     11260      11261      11272      11271      11381      11382      11393      11392  
     11261      11262      11273      11272      11382      11383      11394      11393  
     11262      11263      11274      11273      11383      11384      11395      11394  
     11263      11264      11275      11274      11384      11385      11396      11395  
     11265      11266      11277      11276      11386      11387      11398      11397  
     11266      11267      11278      11277      11387      11388      11399      11398  
     11267      11268      11279      11278      11388      11389      11400      11399  
     11268      11269      11280      11279      11389      11390      11401      11400  
     11269      11270      11281      11280      11390      11391      11402      11401  
     11270      11271      11282      11281      11391      11392      11403      11402  
     11271      11272      11283      11282      11392      11393      11404      11403  
     11272      11273      11284      11283      11393      11394      11405      11404  
     11273      11274      11285      11284      11394      11395      11406      11405  
     11274      11275      11286      11285      11395      11396      11407      11406  
     11276      11277      11288      11287      11397      11398      11409      11408  
     11277      11278      11289      11288      11398      11399      11410      11409  
     11278      11279      11290      11289      11399      11400      11411      11410  
     11279      11280      11291      11290      11400      11401      11412      11411  
     11280      11281      11292      11291      11401      11402      11413      11412  
     11281      11282      11293      11292      11402      11403      11414      11413  
     11282      11283      11294      11293      11403      11404      11415      11414  
     11283      11284      11295      11294      11404      11405      11416      11415  
     11284      11285      11296      11295      11405      11406      11417      11416  
     11285      11286      11297      11296      11406      11407      11418      11417  
     11287      11288      11299      11298      11408      11409      11420      11419  
     11288      11289      11300      11299      11409      11410      11421      11420  
     11289      11290      11301      11300      11410      11411      11422      11421  
     11290      11291      11302      11301      11411      11412      11423      11422  
     11291      11292      11303      11302      11412      11413      11424      11423  
     11292      11293      11304      11303      11413      11414      11425      11424  
     11293      11294      11305      11304      11414      11415      11426      11425  
     11294      11295      11306      11305      11415      11416      11427      11426  
     11295      11296      11307      11306      11416      11417      11428      11427  
     11296      11297      11308      11307      11417      11418      11429      11428  
     11298      11299      11310      11309      11419      11420      11431      11430  
     11299      11300      11311      11310      11420      11421      11432      11431  
     11300      11301      11312      11311      11421      11422      11433      11432  
     11301      11302      11313      11312      11422      11423      11434      11433  
     11302      11303      11314      11313      11423      11424      11435      11434  
     11303      11304      11315      11314      11424      11425      11436      11435  
     11304      11305      11316      11315      11425      11426      11437      11436  
     11305      11306      11317      11316      11426      11427      11438      11437  
     11306      11307      11318      11317      11427      11428      11439      11438  
     11307      11308      11319      11318      11428      11429      11440      11439  
     11309      11310      11321      11320      11430      11431      11442      11441  
     11310      11311      11322      11321      11431      11432      11443      11442  
     11311      11312      11323      11322      11432      11433      11444      11443  
     11312      11313      11324      11323      11433      11434      11445      11444  
     11313      11314      11325      11324      11434      11435      11446      11445  
     11314      11315      11326      11325      11435      11436      11447      11446  
     11315      11316      11327      11326      11436      11437      11448      11447  
     11316      11317      11328      11327      11437      11438      11449      11448  
     11317      11318      11329      11328      11438      11439      11450      11449  
     11318      11319      11330      11329      11439      11440      11451      11450  
     11320      11321      11332      11331      11441      11442      11453      11452  
     11321      11322      11333      11332      11442      11443      11454      11453  
     11322      11323      11334      11333      11443      11444      11455      11454  
     11323      11324      11335      11334      11444      11445      11456      11455  
     11324      11325      11336      11335      11445      11446      11457      11456  
     11325      11326      11337      11336      11446      11447      11458      11457  
     11326      11327      11338      11337      11447      11448      11459      11458  
     11327      11328      11339      11338      11448      11449      11460      11459  
     11328      11329      11340      11339      11449      11450      11461      11460  
     11329      11330      11341      11340      11450      11451      11462      11461  
     11331      11332      11343      11342      11452      11453      11464      11463  
     11332      11333      11344      11343      11453      11454      11465      11464  
     11333      11334      11345      11344      11454      11455      11466      11465  
     11334      11335      11346      11345      11455      11456      11467      11466  
     11335      11336      11347      11346      11456      11457      11468      11467  
     11336      11337      11348      11347      11457      11458      11469      11468  
     11337      11338      11349      11348      11458      11459      11470      11469  
     11338      11339      11350      11349      11459      11460      11471      11470  
     11339      11340      11351      11350      11460      11461      11472      11471  
     11340      11341      11352      11351      11461      11462      11473      11472  
     11342      11343      11354      11353      11463      11464      11475      11474  
     11343      11344      11355      11354      11464      11465      11476      11475  
     11344      11345      11356      11355      11465      11466      11477      11476  
     11345      11346      11357      11356      11466      11467      11478      11477  
     11346      11347      11358      11357      11467      11468      11479      11478  
     11347      11348      11359      11358      11468      11469      11480      11479  
     11348      11349      11360      11359      11469      11470      11481      11480  
     11349      11350      11361      11360      11470      11471      11482      11481  
     11350      11351      11362      11361      11471      11472      11483      11482  
     11351      11352      11363      11362      11472      11473      11484      11483  
     11353      11354      11365      11364      11474      11475      11486      11485  
     11354      11355      11366      11365      11475      11476      11487      11486  
     11355      11356      11367      11366      11476      11477      11488      11487  
     11356      11357      11368      11367      11477      11478      11489      11488  
     11357      11358      11369      11368      11478      11479      11490      11489  
     11358      11359      11370      11369      11479      11480      11491      11490  
     11359      11360      11371      11370      11480      11481      11492      11491  
     11360      11361      11372      11371      11481      11482      11493      11492  
     11361      11362      11373      11372      11482      11483      11494      11493  
     11362      11363      11374      11373      11483      11484      11495      11494  
     11375      11376      11387      11386      11496      11497      11508      11507  
     11376      11377      11388      11387      11497      11498      11509      11508  
     11377      11378      11389      11388      11498      11499      11510      11509  
     11378      11379      11390      11389      11499      11500      11511      11510  
     11379      11380      11391      11390      11500      11501      11512      11511  
     11380      11381      11392      11391      11501      11502      11513      11512  
     11381      11382      11393      11392      11502      11503      11514      11513  
     11382      11383      11394      11393      11503      11504      11515      11514  
     11383      11384      11395      11394      11504      11505      11516      11515  
     11384      11385      11396      11395      11505      11506      11517      11516  
     11386      11387      11398      11397      11507      11508      11519      11518  
     11387      11388      11399      11398      11508      11509      11520      11519  
     11388      11389      11400      11399      11509      11510      11521      11520  
     11389      11390      11401      11400      11510      11511      11522      11521  
     11390      11391      11402      11401      11511      11512      11523      11522  
     11391      11392      11403      11402      11512      11513      11524      11523  
     11392      11393      11404      11403      11513      11514      11525      11524  
     11393      11394      11405      11404      11514      11515      11526      11525  
     11394      11395      11406      11405      11515      11516      11527      11526  
     11395      11396      11407      11406      11516      11517      11528      11527  
     11397      11398      11409      11408      11518      11519      11530      11529  
     11398      11399      11410      11409      11519      11520      11531      11530  
     11399      11400      11411      11410      11520      11521      11532      11531  
     11400      11401      11412      11411      11521      11522      11533      11532  
     11401      11402      11413      11412      11522      11523      11534      11533  
     11402      11403      11414      11413      11523      11524      11535      11534  
     11403      11404      11415      11414      11524      11525      11536      11535  
     11404      11405      11416      11415      11525      11526      11537      11536  
     11405      11406      11417      11416      11526      11527      11538      11537  
     11406      11407      11418      11417      11527      11528      11539      11538  
     11408      11409      11420      11419      11529      11530      11541      11540  
     11409      11410      11421      11420      11530      11531      11542      11541  
     11410      11411      11422      11421      11531      11532      11543      11542  
     11411      11412      11423      11422      11532      11533      11544      11543  
     11412      11413      11424      11423      11533      11534      11545      11544  
     11413      11414      11425      11424      11534      11535      11546      11545  
     11414      11415      11426      11425      11535      11536      11547      11546  
     11415      11416      11427      11426      11536      11537      11548      11547  
     11416      11417      11428      11427      11537      11538      11549      11548  
     11417      11418      11429      11428      11538      11539      11550      11549  
     11419      11420      11431      11430      11540      11541      11552      11551  
     11420      11421      11432      11431      11541      11542      11553      11552  
     11421      11422      11433      11432      11542      11543      11554      11553  
     11422      11423      11434      11433      11543      11544      11555      11554  
     11423      11424      11435      11434      11544      11545      11556      11555  
     11424      11425      11436      11435      11545      11546      11557      11556  
     11425      11426      11437      11436      11546      11547      11558      11557  
     11426      11427      11438      11437      11547      11548      11559      11558  
     11427      11428      11439      11438      11548      11549      11560      11559  
     11428      11429      11440      11439      11549      11550      11561      11560  
     11430      11431      11442      11441      11551      11552      11563      11562  
     11431      11432      11443      11442      11552      11553      11564      11563  
     11432      11433      11444      11443      11553      11554      11565      11564  
     11433      11434      11445      11444      11554      11555      11566      11565  
     11434      11435      11446      11445      11555      11556      11567      11566  
     11435      11436      11447      11446      11556      11557      11568      11567  
     11436      11437      11448      11447      11557      11558      11569      11568  
     11437      11438      11449      11448      11558      11559      11570      11569  
     11438      11439      11450      11449      11559      11560      11571      11570  
     11439      11440      11451      11450      11560      11561      11572      11571  
     11441      11442      11453      11452      11562      11563      11574      11573  
     11442      11443      11454      11453      11563      11564      11575      11574  
     11443      11444      11455      11454      11564      11565      11576      11575  
     11444      11445      11456      11455      11565      11566      11577      11576  
     11445      11446      11457      11456      11566      11567      11578      11577  
     11446      11447      11458      11457      11567      11568      11579      11578  
     11447      11448      11459      11458      11568      11569      11580      11579  
     11448      11449      11460      11459      11569      11570      11581      11580  
     11449      11450      11461      11460      11570      11571      11582      11581  
     11450      11451      11462      11461      11571      11572      11583      11582  
     11452      11453      11464      11463      11573      11574      11585      11584  
     11453      11454      11465      11464      11574      11575      11586      11585  
     11454      11455      11466      11465      11575      11576      11587      11586  
     11455      11456      11467      11466      11576      11577      11588      11587  
     11456      11457      11468      11467      11577      11578      11589      11588  
     11457      11458      11469      11468      11578      11579      11590      11589  
     11458      11459      11470      11469      11579      11580      11591      11590  
     11459      11460      11471      11470      11580      11581      11592      11591  
     11460      11461      11472      11471      11581      11582      11593      11592  
     11461      11462      11473      11472      11582      11583      11594      11593  
     11463      11464      11475      11474      11584      11585      11596      11595  
     11464      11465      11476      11475      11585      11586      11597      11596  
     11465      11466      11477      11476      11586      11587      11598      11597  
     11466      11467      11478      11477      11587      11588      11599      11598  
     11467      11468      11479      11478      11588      11589      11600      11599  
     11468      11469      11480      11479      11589      11590      11601      11600  
     11469      11470      11481      11480      11590      11591      11602      11601  
     11470      11471      11482      11481      11591      11592      11603      11602  
     11471      11472      11483      11482      11592      11593      11604      11603  
     11472      11473      11484      11483      11593      11594      11605      11604  
     11474      11475      11486      11485      11595      11596      11607      11606  
     11475      11476      11487      11486      11596      11597      11608      11607  
     11476      11477      11488      11487      11597      11598      11609      11608  
     11477      11478      11489      11488      11598      11599      11610      11609  
     11478      11479      11490      11489      11599      11600      11611      11610  
     11479      11480      11491      11490      11600      11601      11612      11611  
     11480      11481      11492      11491      11601      11602      11613      11612  
     11481      11482      11493      11492      11602      11603      11614      11613  
     11482      11483      11494      11493      11603      11604      11615      11614  
     11483      11484      11495      11494      11604      11605      11616      11615  
     11496      11497      11508      11507      11617      11618      11629      11628  
     11497      11498      11509      11508      11618      11619      11630      11629  
     11498      11499      11510      11509      11619      11620      11631      11630  
     11499      11500      11511      11510      11620      11621      11632      11631  
     11500      11501      11512      11511      11621      11622      11633      11632  
     11501      11502      11513      11512      11622      11623      11634      11633  
     11502      11503      11514      11513      11623      11624      11635      11634  
     11503      11504      11515      11514      11624      11625      11636      11635  
     11504      11505      11516      11515      11625      11626      11637      11636  
     11505      11506      11517      11516      11626      11627      11638      11637  
     11507      11508      11519      11518      11628      11629      11640      11639  
     11508      11509      11520      11519      11629      11630      11641      11640  
     11509      11510      11521      11520      11630      11631      11642      11641  
     11510      11511      11522      11521      11631      11632      11643      11642  
     11511      11512      11523      11522      11632      11633      11644      11643  
     11512      11513      11524      11523      11633      11634      11645      11644  
     11513      11514      11525      11524      11634      11635      11646      11645  
     11514      11515      11526      11525      11635      11636      11647      11646  
     11515      11516      11527      11526      11636      11637      11648      11647  
     11516      11517      11528      11527      11637      11638      11649      11648  
     11518      11519      11530      11529      11639      11640      11651      11650  
     11519      11520      11531      11530      11640      11641      11652      11651  
     11520      11521      11532      11531      11641      11642      11653      11652  
     11521      11522      11533      11532      11642      11643      11654      11653  
     11522      11523      11534      11533      11643      11644      11655      11654  
     11523      11524      11535      11534      11644      11645      11656      11655  
     11524      11525      11536      11535      11645      11646      11657      11656  
     11525      11526      11537      11536      11646      11647      11658      11657  
     11526      11527      11538      11537      11647      11648      11659      11658  
     11527      11528      11539      11538      11648      11649      11660      11659  
     11529      11530      11541      11540      11650      11651      11662      11661  
     11530      11531      11542      11541      11651      11652      11663      11662  
     11531      11532      11543      11542      11652      11653      11664      11663  
     11532      11533      11544      11543      11653      11654      11665      11664  
     11533      11534      11545      11544      11654      11655      11666      11665  
     11534      11535      11546      11545      11655      11656      11667      11666  
     11535      11536      11547      11546      11656      11657      11668      11667  
     11536      11537      11548      11547      11657      11658      11669      11668  
     11537      11538      11549      11548      11658      11659      11670      11669  
     11538      11539      11550      11549      11659      11660      11671      11670  
     11540      11541      11552      11551      11661      11662      11673      11672  
     11541      11542      11553      11552      11662      11663      11674      11673  
     11542      11543      11554      11553      11663      11664      11675      11674  
     11543      11544      11555      11554      11664      11665      11676      11675  
     11544      11545      11556      11555      11665      11666      11677      11676  
     11545      11546      11557      11556      11666      11667      11678      11677  
     11546      11547      11558      11557      11667      11668      11679      11678  
     11547      11548      11559      11558      11668      11669      11680      11679  
     11548      11549      11560      11559      11669      11670      11681      11680  
     11549      11550      11561      11560      11670      11671      11682      11681  
     11551      11552      11563      11562      11672      11673      11684      11683  
     11552      11553      11564      11563      11673      11674      11685      11684  
     11553      11554      11565      11564      11674      11675      11686      11685  
     11554      11555      11566      11565      11675      11676      11687      11686  
     11555      11556      11567      11566      11676      11677      11688      11687  
     11556      11557      11568      11567      11677      11678      11689      11688  
     11557      11558      11569      11568      11678      11679      11690      11689  
     11558      11559      11570      11569      11679      11680      11691      11690  
     11559      11560      11571      11570      11680      11681      11692      11691  
     11560      11561      11572      11571      11681      11682      11693      11692  
     11562      11563      11574      11573      11683      11684      11695      11694  
     11563      11564      11575      11574      11684      11685      11696      11695  
     11564      11565      11576      11575      11685      11686      11697      11696  
     11565      11566      11577      11576      11686      11687      11698      11697  
     11566      11567      11578      11577      11687      11688      11699      11698  
     11567      11568      11579      11578      11688      11689      11700      11699  
     11568      11569      11580      11579      11689      11690      11701      11700  
     11569      11570      11581      11580      11690      11691      11702      11701  
     11570      11571      11582      11581      11691      11692      11703      11702  
     11571      11572      11583      11582      11692      11693      11704      11703  
     11573      11574      11585      11584      11694      11695      11706      11705  
     11574      11575      11586      11585      11695      11696      11707      11706  
     11575      11576      11587      11586      11696      11697      11708      11707  
     11576      11577      11588      11587      11697      11698      11709      11708  
     11577      11578      11589      11588      11698      11699      11710      11709  
     11578      11579      11590      11589      11699      11700      11711      11710  
     11579      11580      11591      11590      11700      11701      11712      11711  
     11580      11581      11592      11591      11701      11702      11713      11712  
     11581      11582      11593      11592      11702      11703      11714      11713  
     11582      11583      11594      11593      11703      11704      11715      11714  
     11584      11585      11596      11595      11705      11706      11717      11716  
     11585      11586      11597      11596      11706      11707      11718      11717  
     11586      11587      11598      11597      11707      11708      11719      11718  
     11587      11588      11599      11598      11708      11709      11720      11719  
     11588      11589      11600      11599      11709      11710      11721      11720  
     11589      11590      11601      11600      11710      11711      11722      11721  
     11590      11591      11602      11601      11711      11712      11723      11722  
     11591      11592      11603      11602      11712      11713      11724      11723  
     11592      11593      11604      11603      11713      11714      11725      11724  
     11593      11594      11605      11604      11714      11715      11726      11725  
     11595      11596      11607      11606      11716      11717      11728      11727  
     11596      11597      11608      11607      11717      11718      11729      11728  
     11597      11598      11609      11608      11718      11719      11730      11729  
     11598      11599      11610      11609      11719      11720      11731      11730  
     11599      11600      11611      11610      11720      11721      11732      11731  
     11600      11601      11612      11611      11721      11722      11733      11732  
     11601      11602      11613      11612      11722      11723      11734      11733  
     11602      11603      11614      11613      11723      11724      11735      11734  
     11603      11604      11615      11614      11724      11725      11736      11735  
     11604      11605      11616      11615      11725      11726      11737      11736  
     11617      11618      11629      11628      11738      11739      11750      11749  
     11618      11619      11630      11629      11739      11740      11751      11750  
     11619      11620      11631      11630      11740      11741      11752      11751  
     11620      11621      11632      11631      11741      11742      11753      11752  
     11621      11622      11633      11632      11742      11743      11754      11753  
     11622      11623      11634      11633      11743      11744      11755      11754  
     11623      11624      11635      11634      11744      11745      11756      11755  
     11624      11625      11636      11635      11745      11746      11757      11756  
     11625      11626      11637      11636      11746      11747      11758      11757  
     11626      11627      11638      11637      11747      11748      11759      11758  
     11628      11629      11640      11639      11749      11750      11761      11760  
     11629      11630      11641      11640      11750      11751      11762      11761  
     11630      11631      11642      11641      11751      11752      11763      11762  
     11631      11632      11643      11642      11752      11753      11764      11763  
     11632      11633      11644      11643      11753      11754      11765      11764  
     11633      11634      11645      11644      11754      11755      11766      11765  
     11634      11635      11646      11645      11755      11756      11767      11766  
     11635      11636      11647      11646      11756      11757      11768      11767  
     11636      11637      11648      11647      11757      11758      11769      11768  
     11637      11638      11649      11648      11758      11759      11770      11769  
     11639      11640      11651      11650      11760      11761      11772      11771  
     11640      11641      11652      11651      11761      11762      11773      11772  
     11641      11642      11653      11652      11762      11763      11774      11773  
     11642      11643      11654      11653      11763      11764      11775      11774  
     11643      11644      11655      11654      11764      11765      11776      11775  
     11644      11645      11656      11655      11765      11766      11777      11776  
     11645      11646      11657      11656      11766      11767      11778      11777  
     11646      11647      11658      11657      11767      11768      11779      11778  
     11647      11648      11659      11658      11768      11769      11780      11779  
     11648      11649      11660      11659      11769      11770      11781      11780  
     11650      11651      11662      11661      11771      11772      11783      11782  
     11651      11652      11663      11662      11772      11773      11784      11783  
     11652      11653      11664      11663      11773      11774      11785      11784  
     11653      11654      11665      11664      11774      11775      11786      11785  
     11654      11655      11666      11665      11775      11776      11787      11786  
     11655      11656      11667      11666      11776      11777      11788      11787  
     11656      11657      11668      11667      11777      11778      11789      11788  
     11657      11658      11669      11668      11778      11779      11790      11789  
     11658      11659      11670      11669      11779      11780      11791      11790  
     11659      11660      11671      11670      11780      11781      11792      11791  
     11661      11662      11673      11672      11782      11783      11794      11793  
     11662      11663      11674      11673      11783      11784      11795      11794  
     11663      11664      11675      11674      11784      11785      11796      11795  
     11664      11665      11676      11675      11785      11786      11797      11796  
     11665      11666      11677      11676      11786      11787      11798      11797  
     11666      11667      11678      11677      11787      11788      11799      11798  
     11667      11668      11679      11678      11788      11789      11800      11799  
     11668      11669      11680      11679      11789      11790      11801      11800  
     11669      11670      11681      11680      11790      11791      11802      11801  
     11670      11671      11682      11681      11791      11792      11803      11802  
     11672      11673      11684      11683      11793      11794      11805      11804  
     11673      11674      11685      11684      11794      11795      11806      11805  
     11674      11675      11686      11685      11795      11796      11807      11806  
     11675      11676      11687      11686      11796      11797      11808      11807  
     11676      11677      11688      11687      11797      11798      11809      11808  
     11677      11678      11689      11688      11798      11799      11810      11809  
     11678      11679      11690      11689      11799      11800      11811      11810  
     11679      11680      11691      11690      11800      11801      11812      11811  
     11680      11681      11692      11691      11801      11802      11813      11812  
     11681      11682      11693      11692      11802      11803      11814      11813  
     11683      11684      11695      11694      11804      11805      11816      11815  
     11684      11685      11696      11695      11805      11806      11817      11816  
     11685      11686      11697      11696      11806      11807      11818      11817  
     11686      11687      11698      11697      11807      11808      11819      11818  
     11687      11688      11699      11698      11808      11809      11820      11819  
     11688      11689      11700      11699      11809      11810      11821      11820  
     11689      11690      11701      11700      11810      11811      11822      11821  
     11690      11691      11702      11701      11811      11812      11823      11822  
     11691      11692      11703      11702      11812      11813      11824      11823  
     11692      11693      11704      11703      11813      11814      11825      11824  
     11694      11695      11706      11705      11815      11816      11827      11826  
     11695      11696      11707      11706      11816      11817      11828      11827  
     11696      11697      11708      11707      11817      11818      11829      11828  
     11697      11698      11709      11708      11818      11819      11830      11829  
     11698      11699      11710      11709      11819      11820      11831      11830  
     11699      11700      11711      11710      11820      11821      11832      11831  
     11700      11701      11712      11711      11821      11822      11833      11832  
     11701      11702      11713      11712      11822      11823      11834      11833  
     11702      11703      11714      11713      11823      11824      11835      11834  
     11703      11704      11715      11714      11824      11825      11836      11835  
     11705      11706      11717      11716      11826      11827      11838      11837  
     11706      11707      11718      11717      11827      11828      11839      11838  
     11707      11708      11719      11718      11828      11829      11840      11839  
     11708      11709      11720      11719      11829      11830      11841      11840  
     11709      11710      11721      11720      11830      11831      11842      11841  
     11710      11711      11722      11721      11831      11832      11843      11842  
     11711      11712      11723      11722      11832      11833      11844      11843  
     11712      11713      11724      11723      11833      11834      11845      11844  
     11713      11714      11725      11724      11834      11835      11846      11845  
     11714      11715      11726      11725      11835      11836      11847      11846  
     11716      11717      11728      11727      11837      11838      11849      11848  
     11717      11718      11729      11728      11838      11839      11850      11849  
     11718      11719      11730      11729      11839      11840      11851      11850  
     11719      11720      11731      11730      11840      11841      11852      11851  
     11720      11721      11732      11731      11841      11842      11853      11852  
     11721      11722      11733      11732      11842      11843      11854      11853  
     11722      11723      11734      11733      11843      11844      11855      11854  
     11723      11724      11735      11734      11844      11845      11856      11855  
     11724      11725      11736      11735      11845      11846      11857      11856  
     11725      11726      11737      11736      11846      11847      11858      11857  
     11738      11739      11750      11749      11859      11860      11871      11870  
     11739      11740      11751      11750      11860      11861      11872      11871  
     11740      11741      11752      11751      11861      11862      11873      11872  
     11741      11742      11753      11752      11862      11863      11874      11873  
     11742      11743      11754      11753      11863      11864      11875      11874  
     11743      11744      11755      11754      11864      11865      11876      11875  
     11744      11745      11756      11755      11865      11866      11877      11876  
     11745      11746      11757      11756      11866      11867      11878      11877  
     11746      11747      11758      11757      11867      11868      11879      11878  
     11747      11748      11759      11758      11868      11869      11880      11879  
     11749      11750      11761      11760      11870      11871      11882      11881  
     11750      11751      11762      11761      11871      11872      11883      11882  
     11751      11752      11763      11762      11872      11873      11884      11883  
     11752      11753      11764      11763      11873      11874      11885      11884  
     11753      11754      11765      11764      11874      11875      11886      11885  
     11754      11755      11766      11765      11875      11876      11887      11886  
     11755      11756      11767      11766      11876      11877      11888      11887  
     11756      11757      11768      11767      11877      11878      11889      11888  
     11757      11758      11769      11768      11878      11879      11890      11889  
     11758      11759      11770      11769      11879      11880      11891      11890  
     11760      11761      11772      11771      11881      11882      11893      11892  
     11761      11762      11773      11772      11882      11883      11894      11893  
     11762      11763      11774      11773      11883      11884      11895      11894  
     11763      11764      11775      11774      11884      11885      11896      11895  
     11764      11765      11776      11775      11885      11886      11897      11896  
     11765      11766      11777      11776      11886      11887      11898      11897  
     11766      11767      11778      11777      11887      11888      11899      11898  
     11767      11768      11779      11778      11888      11889      11900      11899  
     11768      11769      11780      11779      11889      11890      11901      11900  
     11769      11770      11781      11780      11890      11891      11902      11901  
     11771      11772      11783      11782      11892      11893      11904      11903  
     11772      11773      11784      11783      11893      11894      11905      11904  
     11773      11774      11785      11784      11894      11895      11906      11905  
     11774      11775      11786      11785      11895      11896      11907      11906  
     11775      11776      11787      11786      11896      11897      11908      11907  
     11776      11777      11788      11787      11897      11898      11909      11908  
     11777      11778      11789      11788      11898      11899      11910      11909  
     11778      11779      11790      11789      11899      11900      11911      11910  
     11779      11780      11791      11790      11900      11901      11912      11911  
     11780      11781      11792      11791      11901      11902      11913      11912  
     11782      11783      11794      11793      11903      11904      11915      11914  
     11783      11784      11795      11794      11904      11905      11916      11915  
     11784      11785      11796      11795      11905      11906      11917      11916  
     11785      11786      11797      11796      11906      11907      11918      11917  
     11786      11787      11798      11797      11907      11908      11919      11918  
     11787      11788      11799      11798      11908      11909      11920      11919  
     11788      11789      11800      11799      11909      11910      11921      11920  
     11789      11790      11801      11800      11910      11911      11922      11921  
     11790      11791      11802      11801      11911      11912      11923      11922  
     11791      11792      11803      11802      11912      11913      11924      11923  
     11793      11794      11805      11804      11914      11915      11926      11925  
     11794      11795      11806      11805      11915      11916      11927      11926  
     11795      11796      11807      11806      11916      11917      11928      11927  
     11796      11797      11808      11807      11917      11918      11929      11928  
     11797      11798      11809      11808      11918      11919      11930      11929  
     11798      11799      11810      11809      11919      11920      11931      11930  
     11799      11800      11811      11810      11920      11921      11932      11931  
     11800      11801      11812      11811      11921      11922      11933      11932  
     11801      11802      11813      11812      11922      11923      11934      11933  
     11802      11803      11814      11813      11923      11924      11935      11934  
     11804      11805      11816      11815      11925      11926      11937      11936  
     11805      11806      11817      11816      11926      11927      11938      11937  
     11806      11807      11818      11817      11927      11928      11939      11938  
     11807      11808      11819      11818      11928      11929      11940      11939  
     11808      11809      11820      11819      11929      11930      11941      11940  
     11809      11810      11821      11820      11930      11931      11942      11941  
     11810      11811      11822      11821      11931      11932      11943      11942  
     11811      11812      11823      11822      11932      11933      11944      11943  
     11812      11813      11824      11823      11933      11934      11945      11944  
     11813      11814      11825      11824      11934      11935      11946      11945  
     11815      11816      11827      11826      11936      11937      11948      11947  
     11816      11817      11828      11827      11937      11938      11949      11948  
     11817      11818      11829      11828      11938      11939      11950      11949  
     11818      11819      11830      11829      11939      11940      11951      11950  
     11819      11820      11831      11830      11940      11941      11952      11951  
     11820      11821      11832      11831      11941      11942      11953      11952  
     11821      11822      11833      11832      11942      11943      11954      11953  
     11822      11823      11834      11833      11943      11944      11955      11954  
     11823      11824      11835      11834      11944      11945      11956      11955  
     11824      11825      11836      11835      11945      11946      11957      11956  
     11826      11827      11838      11837      11947      11948      11959      11958  
     11827      11828      11839      11838      11948      11949      11960      11959  
     11828      11829      11840      11839      11949      11950      11961      11960  
     11829      11830      11841      11840      11950      11951      11962      11961  
     11830      11831      11842      11841      11951      11952      11963      11962  
     11831      11832      11843      11842      11952      11953      11964      11963  
     11832      11833      11844      11843      11953      11954      11965      11964  
     11833      11834      11845      11844      11954      11955      11966      11965  
     11834      11835      11846      11845      11955      11956      11967      11966  
     11835      11836      11847      11846      11956      11957      11968      11967  
     11837      11838      11849      11848      11958      11959      11970      11969  
     11838      11839      11850      11849      11959      11960      11971      11970  
     11839      11840      11851      11850      11960      11961      11972      11971  
     11840      11841      11852      11851      11961      11962      11973      11972  
     11841      11842      11853      11852      11962      11963      11974      11973  
     11842      11843      11854      11853      11963      11964      11975      11974  
     11843      11844      11855      11854      11964      11965      11976      11975  
     11844      11845      11856      11855      11965      11966      11977      11976  
     11845      11846      11857      11856      11966      11967      11978      11977  
     11846      11847      11858      11857      11967      11968      11979      11978  
     11859      11860      11871      11870      11980      11981      11992      11991  
     11860      11861      11872      11871      11981      11982      11993      11992  
     11861      11862      11873      11872      11982      11983      11994      11993  
     11862      11863      11874      11873      11983      11984      11995      11994  
     11863      11864      11875      11874      11984      11985      11996      11995  
     11864      11865      11876      11875      11985      11986      11997      11996  
     11865      11866      11877      11876      11986      11987      11998      11997  
     11866      11867      11878      11877      11987      11988      11999      11998  
     11867      11868      11879      11878      11988      11989      12000      11999  
     11868      11869      11880      11879      11989      11990      12001      12000  
     11870      11871      11882      11881      11991      11992      12003      12002  
     11871      11872      11883      11882      11992      11993      12004      12003  
     11872      11873      11884      11883      11993      11994      12005      12004  
     11873      11874      11885      11884      11994      11995      12006      12005  
     11874      11875      11886      11885      11995      11996      12007      12006  
     11875      11876      11887      11886      11996      11997      12008      12007  
     11876      11877      11888      11887      11997      11998      12009      12008  
     11877      11878      11889      11888      11998      11999      12010      12009  
     11878      11879      11890      11889      11999      12000      12011      12010  
     11879      11880      11891      11890      12000      12001      12012      12011  
     11881      11882      11893      11892      12002      12003      12014      12013  
     11882      11883      11894      11893      12003      12004      12015      12014  
     11883      11884      11895      11894      12004      12005      12016      12015  
     11884      11885      11896      11895      12005      12006      12017      12016  
     11885      11886      11897      11896      12006      12007      12018      12017  
     11886      11887      11898      11897      12007      12008      12019      12018  
     11887      11888      11899      11898      12008      12009      12020      12019  
     11888      11889      11900      11899      12009      12010      12021      12020  
     11889      11890      11901      11900      12010      12011      12022      12021  
     11890      11891      11902      11901      12011      12012      12023      12022  
     11892      11893      11904      11903      12013      12014      12025      12024  
     11893      11894      11905      11904      12014      12015      12026      12025  
     11894      11895      11906      11905      12015      12016      12027      12026  
     11895      11896      11907      11906      12016      12017      12028      12027  
     11896      11897      11908      11907      12017      12018      12029      12028  
     11897      11898      11909      11908      12018      12019      12030      12029  
     11898      11899      11910      11909      12019      12020      12031      12030  
     11899      11900      11911      11910      12020      12021      12032      12031  
     11900      11901      11912      11911      12021      12022      12033      12032  
     11901      11902      11913      11912      12022      12023      12034      12033  
     11903      11904      11915      11914      12024      12025      12036      12035  
     11904      11905      11916      11915      12025      12026      12037      12036  
     11905      11906      11917      11916      12026      12027      12038      12037  
     11906      11907      11918      11917      12027      12028      12039      12038  
     11907      11908      11919      11918      12028      12029      12040      12039  
     11908      11909      11920      11919      12029      12030      12041      12040  
     11909      11910      11921      11920      12030      12031      12042      12041  
     11910      11911      11922      11921      12031      12032      12043      12042  
     11911      11912      11923      11922      12032      12033      12044      12043  
     11912      11913      11924      11923      12033      12034      12045      12044  
     11914      11915      11926      11925      12035      12036      12047      12046  
     11915      11916      11927      11926      12036      12037      12048      12047  
     11916      11917      11928      11927      12037      12038      12049      12048  
     11917      11918      11929      11928      12038      12039      12050      12049  
     11918      11919      11930      11929      12039      12040      12051      12050  
     11919      11920      11931      11930      12040      12041      12052      12051  
     11920      11921      11932      11931      12041      12042      12053      12052  
     11921      11922      11933      11932      12042      12043      12054      12053  
     11922      11923      11934      11933      12043      12044      12055      12054  
     11923      11924      11935      11934      12044      12045      12056      12055  
     11925      11926      11937      11936      12046      12047      12058      12057  
     11926      11927      11938      11937      12047      12048      12059      12058  
     11927      11928      11939      11938      12048      12049      12060      12059  
     11928      11929      11940      11939      12049      12050      12061      12060  
     11929      11930      11941      11940      12050      12051      12062      12061  
     11930      11931      11942      11941      12051      12052      12063      12062  
     11931      11932      11943      11942      12052      12053      12064      12063  
     11932      11933      11944      11943      12053      12054      12065      12064  
     11933      11934      11945      11944      12054      12055      12066      12065  
     11934      11935      11946      11945      12055      12056      12067      12066  
     11936      11937      11948      11947      12057      12058      12069      12068  
     11937      11938      11949      11948      12058      12059      12070      12069  
     11938      11939      11950      11949      12059      12060      12071      12070  
     11939      11940      11951      11950      12060      12061      12072      12071  
     11940      11941      11952      11951      12061      12062      12073      12072  
     11941      11942      11953      11952      12062      12063      12074      12073  
     11942      11943      11954      11953      12063      12064      12075      12074  
     11943      11944      11955      11954      12064      12065      12076      12075  
     11944      11945      11956      11955      12065      12066      12077      12076  
     11945      11946      11957      11956      12066      12067      12078      12077  
     11947      11948      11959      11958      12068      12069      12080      12079  
     11948      11949      11960      11959      12069      12070      12081      12080  
     11949      11950      11961      11960      12070      12071      12082      12081  
     11950      11951      11962      11961      12071      12072      12083      12082  
     11951      11952      11963      11962      12072      12073      12084      12083  
     11952      11953      11964      11963      12073      12074      12085      12084  
     11953      11954      11965      11964      12074      12075      12086      12085  
     11954      11955      11966      11965      12075      12076      12087      12086  
     11955      11956      11967      11966      12076      12077      12088      12087  
     11956      11957      11968      11967      12077      12078      12089      12088  
     11958      11959      11970      11969      12079      12080      12091      12090  
     11959      11960      11971      11970      12080      12081      12092      12091  
     11960      11961      11972      11971      12081      12082      12093      12092  
     11961      11962      11973      11972      12082      12083      12094      12093  
     11962      11963      11974      11973      12083      12084      12095      12094  
     11963      11964      11975      11974      12084      12085      12096      12095  
     11964      11965      11976      11975      12085      12086      12097      12096  
     11965      11966      11977      11976      12086      12087      12098      12097  
     11966      11967      11978      11977      12087      12088      12099      12098  
     11967      11968      11979      11978      12088      12089      12100      12099  
     11980      11981      11992      11991      12101      12102      12113      12112  
     11981      11982      11993      11992      12102      12103      12114      12113  
     11982      11983      11994      11993      12103      12104      12115      12114  
     11983      11984      11995      11994      12104      12105      12116      12115  
     11984      11985      11996      11995      12105      12106      12117      12116  
     11985      11986      11997      11996      12106      12107      12118      12117  
     11986      11987      11998      11997      12107      12108      12119      12118  
     11987      11988      11999      11998      12108      12109      12120      12119  
     11988      11989      12000      11999      12109      12110      12121      12120  
     11989      11990      12001      12000      12110      12111      12122      12121  
     11991      11992      12003      12002      12112      12113      12124      12123  
     11992      11993      12004      12003      12113      12114      12125      12124  
     11993      11994      12005      12004      12114      12115      12126      12125  
     11994      11995      12006      12005      12115      12116      12127      12126  
     11995      11996      12007      12006      12116      12117      12128      12127  
     11996      11997      12008      12007      12117      12118      12129      12128  
     11997      11998      12009      12008      12118      12119      12130      12129  
     11998      11999      12010      12009      12119      12120      12131      12130  
     11999      12000      12011      12010      12120      12121      12132      12131  
     12000      12001      12012      12011      12121      12122      12133      12132  
     12002      12003      12014      12013      12123      12124      12135      12134  
     12003      12004      12015      12014      12124      12125      12136      12135  
     12004      12005      12016      12015      12125      12126      12137      12136  
     12005      12006      12017      12016      12126      12127      12138      12137  
     12006      12007      12018      12017      12127      12128      12139      12138  
     12007      12008      12019      12018      12128      12129      12140      12139  
     12008      12009      12020      12019      12129      12130      12141      12140  
     12009      12010      12021      12020      12130      12131      12142      12141  
     12010      12011      12022      12021      12131      12132      12143      12142  
     12011      12012      12023      12022      12132      12133      12144      12143  
     12013      12014      12025      12024      12134      12135      12146      12145  
     12014      12015      12026      12025      12135      12136      12147      12146  
     12015      12016      12027      12026      12136      12137      12148      12147  
     12016      12017      12028      12027      12137      12138      12149      12148  
     12017      12018      12029      12028      12138      12139      12150      12149  
     12018      12019      12030      12029      12139      12140      12151      12150  
     12019      12020      12031      12030      12140      12141      12152      12151  
     12020      12021      12032      12031      12141      12142      12153      12152  
     12021      12022      12033      12032      12142      12143      12154      12153  
     12022      12023      12034      12033      12143      12144      12155      12154  
     12024      12025      12036      12035      12145      12146      12157      12156  
     12025      12026      12037      12036      12146      12147      12158      12157  
     12026      12027      12038      12037      12147      12148      12159      12158  
     12027      12028      12039      12038      12148      12149      12160      12159  
     12028      12029      12040      12039      12149      12150      12161      12160  
     12029      12030      12041      12040      12150      12151      12162      12161  
     12030      12031      12042      12041      12151      12152      12163      12162  
     12031      12032      12043      12042      12152      12153      12164      12163  
     12032      12033      12044      12043      12153      12154      12165      12164  
     12033      12034      12045      12044      12154      12155      12166      12165  
     12035      12036      12047      12046      12156      12157      12168      12167  
     12036      12037      12048      12047      12157      12158      12169      12168  
     12037      12038      12049      12048      12158      12159      12170      12169  
     12038      12039      12050      12049      12159      12160      12171      12170  
     12039      12040      12051      12050      12160      12161      12172      12171  
     12040      12041      12052      12051      12161      12162      12173      12172  
     12041      12042      12053      12052      12162      12163      12174      12173  
     12042      12043      12054      12053      12163      12164      12175      12174  
     12043      12044      12055      12054      12164      12165      12176      12175  
     12044      12045      12056      12055      12165      12166      12177      12176  
     12046      12047      12058      12057      12167      12168      12179      12178  
     12047      12048      12059      12058      12168      12169      12180      12179  
     12048      12049      12060      12059      12169      12170      12181      12180  
     12049      12050      12061      12060      12170      12171      12182      12181  
     12050      12051      12062      12061      12171      12172      12183      12182  
     12051      12052      12063      12062      12172      12173      12184      12183  
     12052      12053      12064      12063      12173      12174      12185      12184  
     12053      12054      12065      12064      12174      12175      12186      12185  
     12054      12055      12066      12065      12175      12176      12187      12186  
     12055      12056      12067      12066      12176      12177      12188      12187  
     12057      12058      12069      12068      12178      12179      12190      12189  
     12058      12059      12070      12069      12179      12180      12191      12190  
     12059      12060      12071      12070      12180      12181      12192      12191  
     12060      12061      12072      12071      12181      12182      12193      12192  
     12061      12062      12073      12072      12182      12183      12194      12193  
     12062      12063      12074      12073      12183      12184      12195      12194  
     12063      12064      12075      12074      12184      12185      12196      12195  
     12064      12065      12076      12075      12185      12186      12197      12196  
     12065      12066      12077      12076      12186      12187      12198      12197  
     12066      12067      12078      12077      12187      12188      12199      12198  
     12068      12069      12080      12079      12189      12190      12201      12200  
     12069      12070      12081      12080      12190      12191      12202      12201  
     12070      12071      12082      12081      12191      12192      12203      12202  
     12071      12072      12083      12082      12192      12193      12204      12203  
     12072      12073      12084      12083      12193      12194      12205      12204  
     12073      12074      12085      12084      12194      12195      12206      12205  
     12074      12075      12086      12085      12195      12196      12207      12206  
     12075      12076      12087      12086      12196      12197      12208      12207  
     12076      12077      12088      12087      12197      12198      12209      12208  
     12077      12078      12089      12088      12198      12199      12210      12209  
     12079      12080      12091      12090      12200      12201      12212      12211  
     12080      12081      12092      12091      12201      12202      12213      12212  
     12081      12082      12093      12092      12202      12203      12214      12213  
     12082      12083      12094      12093      12203      12204      12215      12214  
     12083      12084      12095      12094      12204      12205      12216      12215  
     12084      12085      12096      12095      12205      12206      12217      12216  
     12085      12086      12097      12096      12206      12207      12218      12217  
     12086      12087      12098      12097      12207      12208      12219      12218  
     12087      12088      12099      12098      12208      12209      12220      12219  
     12088      12089      12100      12099      12209      12210      12221      12220  
